906
Lattice="25.350000381469727 0.0 0.0 0.0 25.350000381469727 0.0 0.0 0.0 25.350000381469727" Properties=species:S:1:pos:R:3 pbc="T T T"
Na      -0.29670832       8.51426983       3.93277860
Na       5.53745079      13.20961475       9.55873680
Na       7.12776041      21.33195114       1.65008044
Na       6.30825949       6.96131659      15.93443012
Na      14.36265182      23.60916710       8.72519779
Na      18.66885185      11.15111637       0.37112302
Na      23.81721687       4.29920816       2.25018191
Na       7.71555948      11.99021435      20.96774292
Na       3.15240335      10.62667561       5.61387920
Na       7.20604038       4.82588816       3.40349936
Na      12.34687233      23.03374863      11.30234241
Na      10.58616924      19.80210114      13.65219212
Na      25.56750870      14.36523342       9.61483860
Na      25.84664536      10.56634903      12.80496025
Na      19.16687584      11.03982735      10.56154537
Na      11.15049648      15.13982773       5.33965635
Na       6.49586439      10.86435127      17.31929588
Na       5.64045668      19.08510208      20.50550079
Na       9.25833988      18.00474167      17.21342468
Na       3.20294523      10.71320724      21.12215042
Na       5.70637035       6.29893017      10.72203350
Na       7.63918495       6.15518808      20.11588097
Na       7.81380892      14.92264557      14.62281895
Na       1.45749509      23.48398209      16.30514336
Na      20.30007172       4.51991653      22.17067528
Na      15.43151569       4.96418810      21.75661278
Na       1.59079266       3.49527884       7.39918327
Na      17.26069832      22.20968628       3.77326894
Na      12.44013596       3.15209937      19.77748680
Na      12.75233746      20.96132851      20.27895737
Na       1.96759796      21.90192604      24.52000046
Na      17.16467857       9.22282791       4.03580236
Na      18.35658836      20.50527954      20.38172722
Na      14.23620987       3.55615473      13.54794312
Na       7.70674658      16.28795052      11.13728428
Na      22.85341454       7.85867357      22.23868942
Na      -0.05746729      22.74421883       1.45700276
Na       8.52748489      22.61241913      11.62722778
Na       8.91505146      18.49153328      24.76510620
Na      12.84644318      23.39348221      24.90067101
O        7.14074183       0.99128270       3.61973572
Cl       5.71434021       1.45464611       3.43990636
O        5.68144798       2.94587111       3.66087866
O        4.79287481       0.85705018       4.43873644
O        5.25611496       1.16406715       2.04774284
O       20.04158020      12.91277885      24.52756882
Cl      19.92873001      14.34858608      24.02655029
O       19.13446426      14.35310555      22.76774979
O       21.30998230      14.82388210      23.75967598
O       19.26476479      15.19986916      25.04960823
O        2.58791518      19.50736618      15.52245045
Cl       2.06526113      18.13063431      15.63344002
O        2.12398815      17.42553711      14.35637188
O        0.67414451      18.22869873      16.12198448
O        2.90701556      17.41366959      16.64113235
O        2.33886313       8.64468670      17.75479507
Cl       3.81563854       8.71747589      17.77638435
O        4.37452650       7.94322348      16.62952995
O        4.42801762       8.23162937      19.10187721
O        4.25856304      10.14203167      17.57485008
O       21.72088432       6.14758682       4.40877628
Cl      20.80783653       5.29154539       3.55107427
O       21.26200676       5.44506073       2.14376569
O       19.42181778       5.73726559       3.70680642
O       20.97051620       3.86235619       3.95423341
O       19.71914101      11.79432011       3.93038726
Cl      20.32325172      10.62130547       3.22734785
O       21.23649788      11.07893372       2.14956617
O       19.19984627       9.86053181       2.57610297
O       21.04856682       9.72995567       4.17442226
O        9.91806316       6.42721605       3.55913925
Cl       9.14970589       7.63183784       3.15639591
O        8.48614597       8.25482845       4.40646696
O        8.02790260       7.22076511       2.25245428
O        9.98998928       8.64673328       2.49886966
O       17.39949417       1.68902373      24.16225624
Cl      17.94480133       2.84942937      23.41346359
O       16.93741035       3.96563888      23.40480423
O       18.28300476       2.51008582      22.01080322
O       19.18327141       3.39131451      24.08000565
O       10.21150589      13.85971451       2.68610287
Cl      10.40057182      14.89483261       1.60362303
O       10.55619907      16.22852135       2.25065637
O        9.17817211      14.91986370       0.74318832
O       11.57619667      14.59407997       0.75828189
O        4.85311699      12.24369907       6.03243732
Cl       4.35181618      13.65175915       6.19216537
O        3.05364704      13.77339840       5.42154455
O        5.33858919      14.62515545       5.69480848
O        3.97830725      13.89479637       7.64480019
O       21.49510574       5.04346609       8.87848663
Cl      22.48602676       5.61344385       9.83693314
O       22.78198051       7.00212574       9.43043613
O       23.74658012       4.81444693       9.76417255
O       21.93804169       5.61550140      11.22129631
O       13.45619774      22.04852867       6.70341349
Cl      12.56613922      22.87315750       5.82223129
O       12.00100803      22.09001350       4.70599604
O       13.31472397      24.01573944       5.26294327
O       11.43015862      23.41392326       6.67209864
O       16.33943748       1.06220901      19.34366035
Cl      15.25426483       1.53515267      20.21392441
O       15.23749447       3.03320909      20.27363777
O       15.39830303       0.99880916      21.62506676
O       13.92062759       1.10786533      19.68553734
O       23.58547211       8.64007187      18.39367485
Cl      22.37227058       9.09667778      17.64076233
O       22.02297020       8.16710758      16.55211067
O       22.67620850      10.43578053      17.06168365
O       21.22694206       9.26221085      18.58469963
O       19.55078506       8.61716557       6.35354090
Cl      18.34883118       7.84723043       6.73146677
O       17.74403763       7.23634291       5.52002668
O       17.34176064       8.77235508       7.34404039
O       18.72124863       6.77622843       7.72249794
O       16.60467529      22.27428246       7.14607191
Cl      17.08370018      23.64347839       6.79150200
O       16.57606888      23.99552536       5.43286753
O       18.55777740      23.74270058       6.81306648
O       16.48620987      24.64002037       7.76808023
O       20.19287872       6.35975170      18.63790131
Cl      21.32036972       5.97007227      19.50195694
O       22.62424088       6.34480762      18.93685913
O       21.29628754       4.48695326      19.77458191
O       21.11812973       6.64796114      20.86161423
O       10.75628757      14.90588093      11.73758125
Cl      11.95963669      15.33583069      10.95432758
O       13.16039371      15.31650639      11.83930874
O       11.70779037      16.72881317      10.47945690
O       12.11454487      14.46750355       9.76518440
O       11.96752357      19.59862709      16.50683975
Cl      11.20163631      20.84071350      16.84514618
O       10.87944126      21.59076118      15.59649563
O       11.99378681      21.69329071      17.77832603
O        9.90487671      20.43412971      17.48911667
O       10.22140026      10.60005188      13.76557732
Cl      11.41692638      11.24799728      13.10005093
O       10.97104931      11.79592705      11.80787754
O       12.45947170      10.22791004      12.88258362
O       11.90049171      12.32054520      13.98746109
O       19.92728043      18.55589294      16.91722107
Cl      20.14105034      17.07933807      16.74757004
O       21.08150673      16.66008377      17.82252121
O       20.68555641      16.78232002      15.41557789
O       18.80442429      16.41808128      16.93496132
O        8.62971401      15.69685459      17.14704514
Cl       9.19851685      14.54310799      17.91032410
O        8.93246269      14.76290703      19.36895752
O       10.66571331      14.48070145      17.63018799
O        8.51140690      13.30440903      17.42456818
O       24.03592873       9.00331020      11.81281948
Cl      22.70754433       9.69377041      11.64108849
O       21.58437538       8.76885319      11.97043896
O       22.57777023      10.16662788      10.24823380
O       22.64563560      10.85459518      12.57718754
O       14.90146160      21.29574966      12.21154022
Cl      13.87723160      20.29278946      12.61042976
O       13.74515629      19.26022720      11.55404282
O       12.56483650      21.04518318      12.69709206
O       14.16001701      19.70904350      13.94001484
O       22.93911743      13.76965523      13.06203842
Cl      24.24048233      13.63922215      12.35380459
O       24.71190262      14.99018669      11.92076397
O       24.08940887      12.83840847      11.09960365
O       25.29169655      13.00959682      13.21706963
O       14.63500690       5.69084644      15.91803455
Cl      13.72175121       6.71433592      15.29228401
O       14.18838406       8.08179474      15.59549236
O       12.33646965       6.51149797      15.82891083
O       13.70346832       6.48435736      13.81317520
O        6.61338091      20.34860229      24.86697960
Cl       5.31425476      20.19975471      24.07028961
O        4.10921288      20.27992630      24.93850899
O        5.33303118      18.93251038      23.24672508
O        5.25148773      21.35386086      23.11292076
O       24.03594398       3.18204284      13.09829044
Cl      25.34569550       2.68493605      12.66272259
O       26.11681747       3.82125950      12.07741165
O       25.23890686       1.61184752      11.65216064
O       26.11405945       2.13628817      13.83320236
O       22.60564995       4.30303383      23.04807472
Cl      24.01793861       4.72914410      22.73104286
O       23.97300339       5.86627007      21.77139091
O       24.75252724       3.59707522      22.12944984
O       24.64581299       5.22572660      24.00483704
O        6.86984301      17.81951714      12.97764301
Cl       7.18495655      18.53641319      14.25548840
O        6.08602953      18.36473465      15.25032902
O        7.38463402      19.99732208      13.90905762
O        8.46060371      17.98746300      14.84202766
O       13.04953575       1.08146441      13.30567455
Cl      11.66475391       1.03126299      12.75447941
O       10.64594364       0.82245415      13.82674599
O       11.56350803      -0.06740618      11.73026466
O       11.35994720       2.32401109      12.06446266
O        4.21060514      13.78306007      11.66667271
Cl       5.21814775      13.87245083      12.75486279
O        6.52349854      14.32648182      12.17267513
O        5.47730446      12.50348091      13.34731770
O        4.83011723      14.82026386      13.82357121
O       20.10944939       0.13888368      11.82026386
Cl      20.33172607       1.59892809      12.06708431
O       21.35359573       2.12245822      11.15657425
O       20.70557213       1.85630035      13.47788906
O       19.01286125       2.30710983      11.80987740
O        8.19756603       8.66927147      20.52267456
Cl       8.62100124       9.10415840      19.14106941
O        7.82737827       8.31191635      18.14827919
O       10.07166100       8.93840790      18.90183830
O        8.25862694      10.55708599      18.96281815
O        8.16463757      20.24379539       8.83570385
Cl       9.08711910      19.67024040       9.87340736
O        9.01881599      18.18337250       9.85545063
O        8.71860123      20.24781990      11.21032619
O       10.47928715      20.15382004       9.55354214
O       18.23114204      15.72829723       9.00196743
Cl      16.77368546      15.49937439       8.64254284
O       15.97249413      15.42153549       9.89548779
O       16.66749191      14.22911739       7.87722397
O       16.31667900      16.64508057       7.81761694
O       20.56773758      21.90066338       3.72112179
Cl      20.29803085      20.68559647       4.51663828
O       21.52591705      20.27879143       5.22997379
O       19.83703041      19.61345863       3.57191634
O       19.18603325      20.98524666       5.46559715
O       14.64200783       9.68626499      10.92914200
Cl      15.61338329      10.81007576      11.04801559
O       15.00485229      11.97790432      11.72375488
O       16.01546860      11.22293282       9.67123604
O       16.82227325      10.33295155      11.81381702
O       10.18365097       4.77882814      21.95571327
Cl      11.50673294       4.77221251      22.67066002
O       11.52672482       5.76527071      23.77322960
O       12.53692055       5.12880135      21.62847519
O       11.78398132       3.37031913      23.13169670
O        6.80015659      15.34305763       8.76122761
Cl       7.89844656      14.70923901       7.95836735
O        8.11509418      15.42653465       6.68517542
O        7.45749712      13.30023861       7.67187071
O        9.14563179      14.70557308       8.77222443
O       24.56235504      13.97239113      17.80943108
H       23.63370514      13.66622925      17.90272331
H       24.51753807      14.50724602      16.99022484
O        3.96335268       6.95917130       1.42912960
H        3.95807648       7.12844896       2.39386249
H        4.62585640       7.61410618       1.10535312
O       24.57058144      10.26095772      14.85309792
H       24.32684517      10.64517021      15.71864128
H       23.70185471      10.05048370      14.44945526
O       18.81952095      16.82316971       4.29629421
H       18.63884926      17.50397491       4.98444891
H       19.51988411      17.15377998       3.70000553
O        1.58970296       3.44716835      18.13175774
H        0.90677792       4.12845182      17.98102188
H        1.99761915       3.27339649      17.25886154
O        9.33644485       1.45082796       1.22665799
H        9.00324059       1.56593299       0.31089133
H        8.74824238       0.77546918       1.61154354
O       16.66045761      23.94947243      22.28741074
H       17.16458130      24.24600792      23.06772232
H       16.19807053      24.76514053      21.96581268
O       10.61277199      22.95233917       9.28649807
H       11.01183319      23.17214775       8.40826797
H       10.45818329      21.98106003       9.22560120
O       14.81538105      12.28388977       2.05587387
H       14.37716007      11.55455875       2.55737972
H       14.60416222      12.19388294       1.10334516
O       22.06904030       1.87429714      19.34226036
H       22.64751434       2.24815202      20.03796959
H       21.57514954       2.66197109      19.02817917
O       16.58527756       9.47830677      14.68975258
H       16.65966415       9.33280468      13.72594261
H       16.18173790       8.65846252      15.03708649
O        9.03108406      24.24774361       5.17785501
H        9.88045883      23.99781609       5.61509418
H        9.17065048      25.13759422       4.79869175
O       18.18554306      20.78095055       0.07420714
H       18.76855469      20.33390999      -0.56466967
H       18.02079201      20.16901207       0.82986802
O        5.17182779      18.45439911      10.86624336
H        5.36717606      18.06663322      11.74413204
H        5.93919516      19.01712608      10.63656044
O       13.36864853      18.27354050       6.89840269
H       13.94800186      18.17066956       6.11339712
H       13.40921593      19.20524597       7.19130802
O        3.37502408      17.03255463       2.11453223
H        4.07572222      17.63309860       1.79584110
H        3.29746366      17.15759850       3.08141494
O       20.18143272       4.39173698      15.04578590
H       19.97417450       5.14358616      14.45451355
H       20.23829651       3.61784768      14.44904518
O       13.76162148      15.35926819       3.37861180
H       13.42650032      15.76673126       2.55146289
H       13.95424366      14.41459274       3.19447494
O        6.82036543       4.30178308      11.53027439
H        6.42566919       3.75832176      12.23485661
H        7.78166771       4.36369801      11.70857811
O        2.95731449       2.53304148      15.27007484
H        3.59303975       3.04785061      14.73721218
H        2.13349438       2.54151440      14.72185993
O        9.84790802       5.37019253      19.31096649
H       10.25052166       5.32120752      20.21106911
H       10.34506607       6.04981279      18.81905746
O        8.44161320      22.74343300       2.84688163
H        8.51790428      23.10993767       3.76043153
H        8.96866798      23.33576775       2.27135181
O        9.25574684       8.71189499      11.90337181
H        9.53930664       9.33770561      12.61524010
H        9.09460449       9.27441406      11.12110424
O        0.47507146      12.58416939       1.93090689
H        1.17012227      13.27084637       2.04694963
H       -0.39891204      13.01891518       1.84446037
O       19.95431900      11.83377838      13.77637672
H       20.86001205      12.04322815      13.46957397
H       19.97023392      10.87553024      13.97790813
O        5.35486650      23.08152390       1.57361400
H        5.46571016      23.80350304       2.21899104
H        4.39525700      22.91632271       1.50129116
O       20.74202919      18.09761810       8.62832832
H       19.78250313      17.95800018       8.74160194
H       21.09325218      17.24349022       8.31048012
O        9.17764187      24.39805412      19.97216034
H        9.40587521      24.16012383      20.89568901
H        8.32590675      23.95636559      19.82085228
O        2.25459218       5.87387180       7.25550604
H        1.78117943       6.45006227       7.89002419
H        2.46512699       6.40407944       6.46629810
O       19.67479706       8.17124462      14.42538357
H       18.97489929       8.31416225      13.76138496
H       20.53335190       8.21975803      13.96104145
O       17.32974052      19.52812004       2.49167180
H       16.77851868      18.72570992       2.54854822
H       18.16068077      19.36899567       3.00270700
O       15.53045368       2.07536125       7.66896963
H       16.14937592       2.79249692       7.91995716
H       16.07917786       1.27855146       7.51801729
O       11.11885357      20.21144867      22.32832336
H       11.09230900      21.05321693      22.86072159
H       11.68731213      19.67531395      22.92814636
O       23.32257843      15.11446953       8.54864407
H       22.47647858      14.65461826       8.77022743
H       23.26758194      15.37675095       7.61220551
O       23.00486946       8.10535240       2.46039963
H       22.14264870       7.98881435       2.91117549
H       22.81531334       8.22079277       1.51240420
O       21.65825081      13.88860607       4.26818609
H       20.81970596      13.42434788       4.06951523
H       22.21166611      13.20607376       4.72022200
O       11.62467766      12.12114239      19.43767738
H       11.60904694      12.89155388      18.83394623
H       12.50383282      11.70190430      19.29517937
O        3.09872580      22.76793861      22.24931717
H        2.60088229      22.52451134      21.45272255
H        3.86133528      22.14348030      22.31054497
O        0.20679747       4.41414833       4.05592299
H        1.07587671       4.84051180       4.15922832
H       -0.30558437       4.55113029       4.88444757
O       14.70848751      16.15229988      14.33104324
H       13.91207314      16.30903053      13.78658104
H       15.13157940      15.35778141      13.93243599
O        7.68144798       3.08617902      20.27162170
H        8.54934597       3.09623861      20.72659874
H        7.82239628       2.67706251      19.40089417
O       15.43802643      24.10565567      11.20271587
H       15.25933647      25.06861115      11.21193123
H       16.31403351      23.97665787      10.78049374
O       19.65192413       8.48049164      -0.20728220
H       20.21413422       8.32614136      -0.99363399
H       18.78882980       8.06319237      -0.40934873
O        4.99442816      12.63592148      16.09070778
H        4.10260439      12.25735283      16.21397781
H        5.21075344      12.53573990      15.13432217
O        2.04671979      12.35334206      19.71999550
H        1.12463009      12.18309593      19.44707680
H        2.50958896      12.71041203      18.93616104
O        7.14089537      16.83786201      24.03684044
H        6.36571503      17.42206383      23.90955734
H        7.15715075      16.23692513      23.26153564
O       15.34129906       2.83445120       1.19129133
H       14.77118111       2.37386227       0.53506643
H       16.20559883       2.89081883       0.73663998
O       10.43663216      12.94269753       6.64028358
H       11.21848297      12.35763264       6.55807877
H       10.40688610      13.21774578       7.57749653
O        5.07532930       5.14460468       8.36655140
H        4.13848305       5.29255247       8.12111664
H        5.24279737       4.18899488       8.29256058
O       15.30186844      10.13237000      22.27470589
H       15.62794018      11.05853558      22.24074745
H       15.61090088       9.69416428      21.46135712
O        6.12145901      16.89811707      19.15179825
H        6.02292204      16.59447289      18.22348976
H        5.75570154      16.18355560      19.70355415
O        2.22004604      24.32257652      11.49944210
H        1.46965218      24.92422104      11.68032360
H        1.87076688      23.61226273      10.93448830
O       22.91668129      14.07541847       1.56464398
H       22.24202156      13.85184193       0.89631331
H       22.46385574      13.99548149       2.43852615
O       19.23483086      16.04187393      12.60250473
H       19.04174995      15.11798382      12.35396099
H       18.41129875      16.54241943      12.42920208
O        7.10433102      14.39162445      22.63262749
H        6.31387424      14.01131058      23.05328369
H        7.89008045      13.99004650      23.05371284
O        5.75559235      15.51775742      16.43925858
H        5.24907589      16.18022728      15.92778492
H        5.25285244      14.68239212      16.33378792
O       15.91075039       7.44428968       2.13248467
H       16.11286926       6.57673454       2.52944589
H       16.27993011       7.40870237       1.22088826
O       13.81641006      23.25784874      14.69792461
H       13.12140751      22.60704231      14.47553444
H       14.41867161      23.30045700      13.92754841
O       10.59008503       4.76623201      14.45291805
H       10.83402157       4.91451025      13.51793098
H       11.18852234       5.35581732      14.97138405
O        9.75836372      13.43270111      21.78948212
H        9.80353355      14.02700520      21.01328468
H       10.70781898      13.27272320      22.00510597
O       10.81991577      20.43680763       6.68085814
H        9.85921764      20.52684975       6.52810955
H       10.89195919      20.21003151       7.63458443
O        7.92971134      10.56896687       7.00386715
H        8.53703785      10.45164585       6.24789190
H        8.01692677      11.51142025       7.25896549
O        7.71508360      18.69765282       5.27391624
H        8.48317719      18.76873207       4.66076326
H        7.87217712      17.87251282       5.77673197
O       16.43892670       6.50714874      19.77045631
H       17.29912186       6.98001099      19.79507828
H       16.45303535       6.00736523      18.92504883
O        4.43442822       7.95954037       4.33645344
H        5.14324617       7.48288822       4.85486603
H        4.91106606       8.77549839       4.04818630
O       17.20393372      13.63239193       2.24037457
H       16.30240440      13.24384689       2.11982059
H       17.24411201      14.48743343       1.77426398
O       16.83873940      12.65242863      22.86178398
H       17.58867073      12.04341507      23.04449654
H       17.27161026      13.49520206      22.58517075
O       23.63283539      23.97459793       2.76849699
H       22.70192146      23.76352119       2.57234550
H       23.64991951      24.16016197       3.73070836
O        9.32534695      23.91117477      23.15687561
H       10.14391613      23.39128113      23.38605690
H        8.56633759      23.31518364      23.31611824
O       15.89255047      15.57279396      17.90597153
H       16.83918571      15.71249294      17.69219589
H       15.46485138      15.33666039      17.05684280
O       12.64466381      19.51571465      24.60237503
H       11.91357899      19.56375885      25.25526047
H       12.92302418      20.47768974      24.51814461
O       12.83243847      17.78060150       1.80979645
H       11.93121719      17.68935776       2.17791295
H       13.23311329      18.55852699       2.23823714
O       22.93965340       6.79531956      14.00569534
H       22.93359184       6.97305870      13.04227829
H       22.49369431       5.93097401      14.11611652
O        9.86181927       2.34441495       9.82290745
H       10.04170513       1.46264148       9.43771553
H       10.16634560       2.26920438      10.76280212
O        0.87631911       6.27248287       0.92428893
H        1.80510664       6.57811928       0.87779689
H        0.63425750       5.96602917       0.02673208
O       22.72009087      22.90393257      22.40130997
H       23.43669891      22.79563904      23.07382011
H       21.97349358      23.28511047      22.89655113
O       22.54067612       9.08119106       7.30790377
H       21.75686264       8.52574158       7.11270142
H       22.48452568       9.30273247       8.26326466
O       13.40897942      20.89587975       9.26766777
H       12.70474911      20.42556763       9.75811291
H       14.25203991      20.47369957       9.54111671
O        5.61241388      10.02552509      21.05780220
H        5.90268946       9.55206203      21.87268639
H        5.53004217       9.34316921      20.35954094
O       20.01725197       1.59349692       8.19137573
H       19.45403481       2.34796405       8.45715427
H       19.99079514       0.95475352       8.93017864
O       16.94004250      19.09611130      14.89480019
H       16.28170586      18.45178413      15.22210312
H       17.79006386      18.82302284      15.29125023
O        2.96364045       3.17147255       5.21111679
H        2.76123118       2.34370708       4.73056316
H        3.91819429       3.32672024       5.02072382
O       14.19740105       8.49274635      24.26094627
H       13.36540222       8.10662270      24.59108162
H       13.99030399       9.10794830      23.52472687
O       16.95259094       6.90069294      13.46283340
H       16.00679398       6.73739052      13.28996658
H       17.46658134       6.25062943      12.93987560
O       25.72768784       6.69196367      14.67579651
H       24.76476669       6.88920832      14.77505875
H       25.79232025       6.13223362      13.88137627
O       10.34784031      16.88713264      23.60535431
H       10.44040108      17.00057983      22.63395882
H       10.05327988      15.96637535      23.75685120
O       11.71219826       9.83788586       8.13672638
H       12.19832230       9.56119061       8.93733120
H       11.20762539       9.06756973       7.81345606
O       18.20860481      16.84576988      20.81130219
H       17.76189613      16.00496864      21.04776192
H       17.77764130      17.14291573      19.98993111
O       11.80704212      16.96543121      21.23370934
H       12.61473751      17.01639748      21.78696823
H       12.06369209      17.13603210      20.30847740
O        6.55775738       6.74900532       5.71478891
H        6.42173719       6.83401442       6.67908907
H        7.34018040       7.31364727       5.50573111
O       13.39673042      14.86795616       6.92918158
H       13.59419823      15.74744892       7.30660295
H       13.33414650      14.27826023       7.71446848
O       16.76400375      11.52746391      17.90505219
H       17.40308762      10.84617519      17.58527946
H       16.92473602      12.28449917      17.30496788
O       14.39259243       4.51741266      11.28977966
H       14.44941902       5.49630070      11.29564476
H       13.70610142       4.31195498      10.61927128
O       11.98546886       7.50260067      11.21098328
H       12.63712025       8.20480061      11.41563034
H       11.12192059       7.89431334      11.46230888
O        2.02453852      12.20963192       8.73160076
H        1.34793484      11.96412849       8.06403065
H        2.62767482      12.85874653       8.29441357
O       23.59622192       5.15088987       6.01006603
H       23.17630386       4.79264355       6.81659317
H       22.85757828       5.51415682       5.45142841
O        7.71927214      20.59756470      20.01629066
H        8.25505733      20.62489128      19.20236015
H        8.35638905      20.71293640      20.74741936
O       15.28364468      21.05981255       4.60029221
H       15.32225132      20.08705330       4.69081497
H       14.98567677      21.40876770       5.46954060
O       21.36497498      17.88980675      12.05001259
H       21.56896782      18.08231163      12.98296070
H       20.74116516      17.13144112      12.08830547
O       18.00770950      14.06361389       5.09524679
H       18.54808617      14.87768459       5.11079502
H       17.56482887      14.05963039       4.22279358
O       12.54178429      13.38006687      21.90039062
H       13.23729038      13.53755760      22.56553078
H       12.80433559      12.60962486      21.36033058
O        6.27041578       8.24158764       8.42763615
H        7.06267309       8.80031586       8.29202557
H        5.51813316       8.86152554       8.39175034
O       15.49962521      15.48105240      20.97637367
H       15.41207504      15.50200462      20.00191307
H       15.31429386      16.37785721      21.31390572
O        1.69325376       1.07865047      20.11960602
H        2.66424012       1.09152544      20.22220230
H        1.45363557       1.99362195      19.85717964
O       14.75259495      11.79168987      15.20427418
H       13.90823936      11.80599213      14.71524525
H       15.13956642      10.89993572      15.05414581
O       16.72985458      21.21159172      22.19965172
H       16.44067001      22.13712883      22.39527130
H       16.05331039      20.62760925      22.58687782
O       13.27823639       3.46719813      17.53450966
H       13.91335297       4.03108358      17.04732513
H       12.73439407       2.97705698      16.87910461
O        5.87881994      14.24548149       2.43570971
H        6.38608789      13.55106163       1.96893466
H        6.11593533      14.16966629       3.38170743
O       13.55315113      10.32694912       3.53381872
H       13.41685009      10.36302662       4.51109934
H       13.41317749       9.41910172       3.21268296
O        7.80856037      22.58852196      13.90831852
H        8.42114639      22.97416496      14.55902195
H        7.64807558      21.64064026      14.14264584
O        4.42870235      12.06692886      23.27669144
H        4.87371778      11.52837849      23.95901299
H        3.92632723      12.74756908      23.76315880
O       22.25774002      11.02291393      23.82494545
H       21.77943039      11.38058567      23.04132080
H       21.87823677      11.49593925      24.58956718
O       13.91762447       0.72754157       9.66252041
H       13.13168621       1.14902091      10.05755520
H       14.29639053       1.39229548       9.04226780
O       22.55706215      22.20603180      19.47017479
H       22.56726074      21.69402695      20.30720901
H       22.80767250      23.10881424      19.75122070
O       18.85133743      13.20564556      19.75936127
H       19.13927841      13.28304577      18.82515144
H       17.97118187      12.77974415      19.69575310
O       17.37393951      11.18934441       5.61033821
H       17.76105881      12.08753967       5.51405001
H       17.19176292      11.07993603       6.56213617
O        6.23595476       9.21700859      14.59841251
H        5.32662630       9.56580353      14.53561401
H        6.74240112       9.58992958      13.84978199
O       16.82509804       1.08553755      13.30227852
H       17.52168083       1.58374631      12.81366062
H       16.98386383       0.14360391      13.08281326
O       12.88495445      23.59363556       2.16831946
H       13.49534130      24.24599838       2.56069183
H       12.75238895      22.94076920       2.88955784
O        3.36029887       4.78239489      12.70501614
H        2.90320325       5.56251240      13.07548523
H        2.63094068       4.21632862      12.36193085
O        0.52799189      17.48891640       1.39266992
H        0.39246622      18.45582390       1.35713291
H        1.50413656      17.38041878       1.44007206
O        7.84136343       1.14811683      24.02341461
H        7.06019688       0.63401532      24.31818008
H        8.40689468       0.47554985      23.58626556
O       21.41564751      15.19514751      20.27881432
H       21.32963562      15.48412514      19.34721947
H       20.49979019      15.06823063      20.59412575
O        1.50004947      13.92559052      22.98516083
H        1.45154738      13.51383591      22.10263252
H        0.80878955      13.48454666      23.51845551
O       23.25864029       9.83763218      20.93351936
H       22.48389626      10.42928028      20.81037140
H       23.46354866       9.45492840      20.04985428
O        6.45248413      10.05252171       3.65567613
H        7.13920259       9.38864994       3.91005564
H        6.89020205      10.92295456       3.81197476
O       19.20954323       8.68932056      21.04050064
H       19.61904144       9.20735168      20.31635094
H       19.71228409       7.84092236      20.99248123
O       13.82923603       1.64662611      23.93678474
H       14.41950035       1.50218642      23.16522408
H       13.18287277       2.33105183      23.64638710
O       10.22072601      19.09060860       3.92409658
H       10.76553249      19.42123413       4.67726994
H       10.21090221      19.79185295       3.24240351
O       12.42315102       3.60364914       9.23566628
H       12.20999527       3.92684054       8.33981323
H       11.56509972       3.29522753       9.59961891
O        1.93986070       8.83980751      14.31626511
H        1.30788231       8.11038780      14.55341721
H        2.22942948       9.23268509      15.15899181
O       14.73894691      13.19947243      24.75053024
H       15.63677597      13.11476707      24.35425186
H       14.57249641      14.14841747      24.90959358
O       22.68001556       2.10789585       8.10558319
H       22.93982315       2.76688099       8.77609348
H       21.70055580       2.03348112       8.24419785
O       22.33937645      23.03749084      11.85230350
H       22.16812897      22.55927086      11.01413918
H       21.64072418      23.71881294      11.94074345
O        2.53678560       1.21242929       1.04133987
H        2.40580130       0.72378772       0.21227427
H        3.47275043       1.05673599       1.31948781
O       16.18652725      23.83263016       2.14249921
H       15.99793434      23.46234131       1.25067687
H       16.50867081      24.74172020       2.01847672
O       23.16764259       1.62508774      24.05393410
H       22.89105034       2.44527817      23.58854485
H       24.14105415       1.60353732      23.99162674
O       13.49033260      16.96888542      23.91062546
H       13.37304401      17.89661217      24.22096252
H       12.63716888      16.56556702      24.16502380
O       13.43166065      12.46284676       8.62323189
H       12.88000011      12.67637062       9.40284634
H       14.34903812      12.35293865       8.95291138
O       17.76639175       3.98955536       8.58531952
H       18.09771156       4.77134037       8.09309196
H       17.50399780       4.33515787       9.46156216
O       15.97122574       7.07037592      10.14404964
H       16.78954887       7.35497952      10.59549427
H       15.47291660       7.90050840      10.00509262
O        5.85273218       0.84862542       9.12635708
H        6.21103001       1.74538958       8.98143482
H        5.84935236       0.40592209       8.25550461
O       23.47512627       4.03467178      16.69556236
H       22.93849564       4.04978418      15.87952423
H       23.12320137       4.77108192      17.23424721
O        9.17778111       2.96786022       3.72481632
H        8.44249916       2.32960629       3.88533235
H        9.43810463       2.76193738       2.79951358
O        4.95250750       2.95145392      21.26246452
H        4.86383104       2.43483853      22.08562279
H        5.91736603       2.97618580      21.06721878
O       19.86834335       8.76726246       9.60125160
H       20.56499672       8.32332325      10.12645817
H       19.41553688       8.06139088       9.09852028
O        3.95732403      15.04121017      23.46953773
H        2.97734427      14.95226574      23.46541023
H        4.13266945      15.99415016      23.35243034
O       17.20174026       5.14217997      16.78883743
H       18.14369202       5.10365820      16.52334213
H       16.76556778       5.69609880      16.10928535
O        2.10684705       8.47535992      21.29044151
H        2.26405406       7.96670485      20.47105980
H        1.14764428       8.43464661      21.45760727
O       24.83096313      11.63850307      22.60172462
H       24.11107445      11.63131237      23.27049255
H       24.50723267      11.01776505      21.91295242
O       10.09796429       7.45876884       6.83002663
H       10.78719997       6.81769371       6.56317568
H        9.70786381       7.78372955       5.99189234
O       12.91422081      11.30704784       6.10464144
H       12.74262905      10.74373055       6.89599133
H       13.48965549      12.02318573       6.43505716
O        4.33553219      10.84523201       9.66259003
H        4.32815313      10.29777718      10.46748829
H        3.40092826      11.09849358       9.49978542
O       20.88467026      11.87588882       7.17804193
H       20.45450974      12.72028732       6.92015600
H       20.35576820      11.11330986       6.86028957
O       19.61549950      21.87735939      18.56202698
H       19.49116707      21.62410164      17.62656403
H       20.57924652      22.03189087      18.67497063
O        8.08386230       5.83754444      14.82557869
H        8.61025906       6.52685452      14.37487698
H        8.77802181       5.19253063      15.09221554
O       16.74118996      17.78980064      11.98386002
H       15.94182110      17.22841072      11.99003792
H       16.68613434      18.36355209      12.77934074
O        7.69359159      12.56804848       0.52845460
H        8.19968510      11.76803493       0.76785296
H        8.34200954      13.31059837       0.50399876
O       18.92041016       5.28384066      12.02400303
H       19.76576233       5.61754131      11.65723038
H       18.87040138       4.32543516      11.82279110
O        3.63173175      18.90849876      18.80386925
H        2.95493603      19.57116318      18.58252907
H        3.54383278      18.26155281      18.06071281
O        6.17318296       8.82229328       0.98428524
H        6.11798906       9.50426292       1.69150472
H        6.92157459       8.24805737       1.28204393
O       21.51291275      20.89463425      14.05567074
H       20.70120430      20.70849228      13.52799988
H       22.04267311      21.48558044      13.48390675
O       10.14182758      17.77567482      12.50758171
H       10.10450649      17.01894188      13.12618160
H       10.68454361      17.46785355      11.74330902
O        5.57722139      20.12985420       7.26606321
H        6.33628845      19.90715218       7.84842777
H        5.94698858      20.07240868       6.36030436
O       21.73644447      13.13233089      17.63060188
H       21.76725197      12.23692131      17.24433899
H       21.11681938      13.63502789      17.06572151
O        3.74974227      23.62585831      15.84649277
H        4.11389160      24.47264671      15.51737213
H        4.18215609      22.89689827      15.35209656
O       16.48972130      13.83452320      14.18531227
H       15.91169262      13.07042980      14.43523026
H       16.95741081      13.54007816      13.38087940
O       10.88072395       3.77544880       6.65195036
H       11.06786919       3.31178617       5.81250715
H        9.98969841       4.15840292       6.54229927
O       21.36182022      13.36175728       9.74728680
H       21.97763062      13.01668739      10.43151474
H       21.29986382      12.66339588       9.06385899
O       17.76766777      18.75175285       6.48946428
H       16.84497833      18.93297386       6.75029850
H       18.17852974      19.62558365       6.30787373
O       24.48541069      17.60777664       9.83100033
H       23.95089722      16.78792763       9.89968491
H       24.37117195      18.00777245      10.71452141
O        2.37373519      18.62066269      10.52276897
H        3.35685658      18.55601501      10.52742004
H        2.11237359      18.25198364       9.66196728
O       25.00157928       7.93051624       6.45864153
H       24.70228386       6.99662733       6.41276598
H       24.21278572       8.40301895       6.83952570
O       20.21690559      18.95596123      19.77370644
H       20.27435684      18.09161758      20.23012543
H       20.20251465      18.74623299      18.81318474
O       15.22485924      17.53984070       4.70897913
H       14.81089020      16.75538826       4.28848028
H       16.00360298      17.20312119       5.20194197
O        5.44261169       5.62888432      19.29914284
H        4.83709097       4.98161793      19.70318985
H        4.99496317       6.50114250      19.37603951
O       19.26207352      20.08495903      12.38135052
H       18.70947266      20.62840843      11.78112888
H       19.67098808      19.36499023      11.86100769
O       23.77381516      15.55987930      15.44132328
H       24.25522232      16.32881737      15.07954788
H       23.36905479      15.10262299      14.67781067
O       14.02687263      10.64027786      18.64797020
H       14.86045551      11.03353882      18.30881882
H       13.50729847      10.41449165      17.84505081
O        7.99485302      12.57768631       4.10160923
H        8.00926590      12.92536736       5.01579571
H        8.72203255      13.01368427       3.60846472
O       18.89922714      13.45819569      16.48386192
H       18.68270111      14.33321381      16.10609818
H       19.01078987      12.84733963      15.72850609
O       17.98134422       0.60133260      16.01599884
H       18.50457001       1.33848011      16.37767982
H       17.51107788       0.97630614      15.24164104
O        6.73585510       4.83092451       0.63440692
H        6.59336758       3.91025519       0.33633894
H        5.84602261       5.24045038       0.63687086
O       11.70822144      10.49517441      16.90826416
H       11.40669537       9.61870098      16.60584259
H       11.09769058      10.75819683      17.62868500
O       10.60914612      17.21344948       6.63220406
H       10.18649101      17.04365349       7.49477100
H       11.42930031      17.71624374       6.84005642
O       14.52754784       8.06181908       6.98662281
H       14.69224739       7.12406683       6.77532101
H       15.42037010       8.45003510       7.12676477
O        1.52447951      16.51759529       4.63383389
H        1.97070897      15.70633125       4.96026421
H        1.03953838      16.27338982       3.82160759
O        7.91709089      24.61563873      10.47256565
H        7.09626770      25.13134956      10.57075214
H        7.91819334      24.31717300       9.53881741
O        1.47540104      10.41228104       3.29296827
H        0.98795652      11.22594547       3.00021315
H        2.05300117      10.16385078       2.54484200
O       11.38685226       9.60001469      22.96202469
H       11.35684776       9.94177914      22.04535866
H       11.11688900       8.66170025      22.88073730
O        1.42709792      20.04834366      22.59285927
H        1.55761337      19.22068405      23.08857918
H        0.50261754      20.03139114      22.29028511
O       21.92042732       1.38148320       4.93332195
H       22.32090759       1.64390528       5.78421688
H       21.44036293       2.17591047       4.62894344
O       15.47835732      22.23588562      16.65449333
H       16.36864090      22.38239670      16.28443336
H       14.82526684      22.63816071      16.02242088
O       24.62272835      23.16666985      16.87755585
H       24.09905815      23.94869614      17.16475105
H       24.11134720      22.35992813      17.07020569
O        5.96068192      24.24144745      24.10939407
H        5.85822105      23.65118980      24.88307381
H        5.43328333      23.84924316      23.39263535
O       16.48632431      19.25848198       9.42929459
H       16.28258324      18.80713463      10.27956772
H       16.83419228      18.56322670       8.83645821
O        3.52037287      17.52779961       7.70191765
H        3.93711519      16.64542580       7.66032743
H        4.25350571      18.16626740       7.57696438
O       16.66107750       7.50014162      24.74226952
H       15.82112503       7.95615053      24.45909309
H       16.68091965       6.63979530      24.27590752
O       21.30388832      11.94735241      21.28916359
H       21.76167870      12.79000092      21.08136177
H       20.41020966      12.02258015      20.88622093
O       22.47314835       2.52755761       1.25412762
H       21.51758194       2.72002292       1.23429942
H       22.67999840       2.07070589       0.40776718
O       15.16419315      19.25496674      19.81206894
H       15.24062634      18.92315674      18.89593506
H       15.37572002      20.21632195      19.76921082
O       24.08564568       0.48357472      17.47596169
H       24.73828506       1.14329314      17.16653061
H       23.50331879       0.94316000      18.11493492
O        7.05108118      23.00733757       8.09716892
H        7.82983685      22.47060776       7.83994532
H        6.42540979      22.36946297       8.49433899
O       18.97191429      10.18976593      16.69226646
H       18.98738098       9.49802113      15.99760818
H       19.72922516       9.99874496      17.28209114
O        2.84114027       8.40983105      11.79148293
H        2.19844913       7.74434805      11.49060154
H        2.67000508       8.52561855      12.76513481
O       15.80384445      22.18372536      25.12690926
H       15.02564240      21.58658600      25.19639206
H       16.60453224      21.60719872      25.18029785
O        6.17293739      12.91541290      19.05913162
H        6.78657436      13.33802605      18.41711998
H        5.33261633      13.40243435      19.02563858
O       22.16378593      17.13703728      22.29581451
H       22.09748459      16.55636978      21.50126648
H       21.87157059      16.54125786      23.01678658
O       11.62423038      17.24235344      18.16064072
H       12.04232788      17.94951057      17.61991882
H       11.73072338      16.39983940      17.67241478
O       23.75465965      23.37753105       5.63688231
H       23.14732361      22.62210274       5.78164244
H       24.02516556      23.66948509       6.52643013
O        3.04019189      13.50217533       2.53600931
H        3.88003469      13.89402294       2.20551038
H        3.10427809      13.60206795       3.51045084
O       20.45738411      14.86131287       7.41687393
H       20.39797211      15.33187580       6.56292152
H       19.63102913      15.06197453       7.91108322
O        6.77444267       8.88349628      23.32849121
H        7.73855543       8.82156658      23.18366432
H        6.63691044       9.08284664      24.27602005
O       11.49266911       1.58711469      16.47549629
H       11.94540596       0.73812032      16.65320778
H       11.12918758       1.48249507      15.56983280
O       18.15137672      13.54312325      11.02353954
H       18.47030258      14.16816235      10.33453655
H       17.17568779      13.57744884      10.93906689
O       10.35832596      20.90629387       0.69925386
H       10.72598457      21.53831673      -0.01376815
H       10.65902615      21.32212067       1.53674030
O        0.60810924      12.02562809       6.24554443
H        0.75136089      12.91284275       5.86227655
H       -0.34839824      11.80975723       6.15431595
O       22.86318970      21.28575325       9.29983616
H       23.67240715      20.82485199       9.59785461
H       22.38054466      20.61809921       8.76997852
O       10.50357819      15.38876152      14.51777554
H       10.86806393      15.15823746      15.39363766
H       11.00346756      14.87717438      13.85307312
O       23.07708359      11.80527878       5.55007458
H       22.42374039      11.80467510       6.30032206
H       22.87874413      10.97666550       5.06859016
O       17.37855530      21.64803123      10.66585827
H       16.55669212      21.52677917      11.18445587
H       17.26893234      21.01142502       9.91859722
O       15.03063679      22.04662323      19.26972008
H       15.21484756      22.22753143      18.30744171
H       15.19514561      22.86927414      19.76516724
