3048
Lattice="37.720001220703125 0.0 0.0 0.0 37.720001220703125 0.0 0.0 0.0 37.720001220703125" Properties=species:S:1:pos:R:3 pbc="T T T"
Na      33.36309052      15.48202801      18.15335655
Na      18.22039032      22.56029510       9.41646767
Na       7.18957233      15.19166756      25.62104988
Na      10.08562565      28.31572533      29.18011475
Na      14.25943565      26.98981857      24.86665916
Na       3.50889611      15.29565334      32.62027740
Na       7.62467194       9.56378460      17.67273903
Na      11.66079235      12.42973423      29.39940071
Na      12.64901257      22.61947250      19.91135979
Na       1.82712257      35.72774506      24.26325035
Na      30.54295540       9.31514359      32.83465958
Na      25.17304993       9.59542274      29.85710716
Na       3.77611804       3.55496573       9.03069019
Na      26.92538643      32.34707260       7.26702452
Na      16.90009880       2.95766020      31.57215691
Na      16.36536789      32.09679413      32.51382065
Na       4.39308548      31.67121124      36.58744812
Na      24.39628601      12.18067741       7.30516434
Na      28.58477402      32.20377350      32.05402374
Na      20.53206444       6.30793810      20.66523170
O       14.24873829      23.28671455      18.08687019
Cl      14.20811558      21.99073029      17.32898712
O       15.53189564      21.36256027      17.35515594
O       13.73745632      22.24943161      15.95593452
O       13.21803665      21.12563705      18.04064178
O       33.04507065      12.57085323      34.23648071
Cl      33.18064499      12.90737534      32.78416061
O       33.97746658      14.16038513      32.66728973
O       31.83245850      13.11522484      32.20879745
O       33.88138580      11.80467033      32.07856750
O       13.25389576      33.93889999      18.09372520
Cl      12.66227627      33.73725510      16.73006439
O       11.40410423      34.50808716      16.64834595
O       12.39337540      32.28816986      16.56600571
O       13.59921837      34.22075272      15.70489216
O       12.20453739      31.52893639      35.63404083
Cl      11.66746426      30.23752022      35.15365982
O       12.64278889      29.59939957      34.24828339
O       10.39289188      30.49054718      34.43054581
O       11.40923786      29.37326813      36.34019089
O       18.54950333      32.54007721      34.98836899
Cl      18.31351852      33.99404144      34.74689865
O       19.53429222      34.61843872      34.19966888
O       17.92992973      34.69251633      35.99746704
O       17.19570732      34.12863541      33.76562119
O        9.69854069       2.30863094       6.41202259
Cl       8.28102970       1.92337143       6.49251270
O        7.47469950       3.12249613       6.85232973
O        8.02308941       0.91621131       7.53041220
O        7.83935213       1.42775941       5.17327881
O       29.45690918      21.86326599      36.29624939
Cl      28.44750595      22.60293770      35.51030350
O       27.18001747      22.68500519      36.26861572
O       28.19942093      21.92274666      34.22616577
O       28.93950081      23.95569801      35.22803497
O        1.95477045      25.21611214      22.76097298
Cl       3.35409260      25.65604973      22.55513191
O        3.36643839      26.67625237      21.51057243
O        4.20326328      24.52351570      22.15951920
O        3.86470532      26.24288177      23.81047821
O        2.81958723      13.82977009      26.48980522
Cl       4.25916195      13.88787651      26.78978539
O        4.89967060      14.74160671      25.74107552
O        4.91311026      12.56018257      26.74221611
O        4.50280571      14.53380299      28.11531258
O       32.70938873       7.04645395       6.03617001
Cl      32.52065659       8.17859077       5.09934330
O       31.10406113       8.25241756       4.69852114
O       33.35906601       7.97845316       3.90123272
O       32.87656784       9.44060612       5.77073288
O       28.20438576      17.28285217       2.18884206
Cl      29.10685921      17.09186935       3.35129166
O       28.27142334      17.01428986       4.57779598
O       30.00927925      18.27213097       3.43288898
O       29.89165306      15.87187290       3.14099574
O       11.38862324       8.35081959       3.18686485
Cl      11.84580231       9.57870674       3.87268615
O       11.92587280      10.68686295       2.89758015
O       13.15927887       9.37070179       4.50093412
O       10.87153912       9.97475052       4.91570807
O       27.46099854       2.91830993      36.17257690
Cl      28.17507744       3.79767013      35.21949005
O       28.71234894       3.02179527      34.08908844
O       29.27158928       4.46882010      35.92117310
O       27.22025871       4.79812574      34.70882034
O       16.60219193      24.40824318       4.58890533
Cl      15.97105408      24.28972816       3.23502231
O       15.80460930      22.86297607       2.86315536
O       16.82522392      24.97042656       2.25293684
O       14.65519905      24.95598221       3.24315619
O        7.16079664      21.51695633       8.15475178
Cl       7.40081024      20.05396843       8.27137470
O        6.74617815      19.34959221       7.14904356
O        6.81043339      19.59027672       9.54428291
O        8.85036755      19.78630066       8.23593998
O       28.57692337       8.67551041      12.17732430
Cl      29.50156593       7.84465122      12.97431755
O       28.88540459       7.56170464      14.30290508
O       30.76803780       8.57346630      13.19981670
O       29.76639557       6.55041170      12.29010010
O       18.64673424      33.74551392       7.83949232
Cl      18.71219635      32.53441238       8.68770695
O       20.13192749      32.27898026       9.04555225
O       18.16128159      31.37861633       7.94510937
O       17.92598915      32.77844620       9.90791416
O       24.76825714       0.52461994      28.60546494
Cl      24.65213203       1.93500924      28.19863129
O       25.00677109       2.80917406      29.33337593
O       23.26348877       2.23643422      27.77981758
O       25.57722664       2.21633053      27.07729340
O       33.03448486      12.99305058      26.83947563
Cl      33.38789368      13.48898983      25.48758125
O       34.48339081      14.48476315      25.65431023
O       32.21813965      14.18106365      24.90329933
O       33.83274078      12.40374184      24.60152626
O       29.59767723      11.67528248       9.99438953
Cl      29.95368767      10.69323826       8.95149326
O       31.40216064      10.42207527       9.06008434
O       29.62770653      11.22365284       7.61832476
O       29.17187119       9.45391083       9.18444538
O       20.15875244      32.11652374      12.33301353
C       21.33351898      31.90330315      12.21307373
O       21.85995102      30.78179932      11.66131973
C       23.30028152      30.83220482      11.73845196
C       23.59141731      32.25259781      12.20647144
O       22.31189728      32.75040436      12.67362595
H       23.64310074      30.07642555      12.45718575
H       23.74622536      30.53326797      10.77425575
H       23.94888878      32.87482834      11.37325764
H       24.31187630      32.30642700      13.02968407
O       37.13270187      10.07814980      26.32602310
C       36.12630463       9.45176220      26.51688576
O       34.86044312       9.87062740      26.28498650
C       33.94144821       9.00624180      26.96586990
C       34.76288605       7.70659781      27.08302116
O       36.12668991       8.15796089      27.00525856
H       33.65925217       9.43214893      27.94021416
H       33.01889420       8.92195320      26.36903000
H       34.54813385       6.98491812      26.27215385
H       34.58509827       7.21737671      28.05287361
O       18.69803047      23.55783272      16.91569138
C       18.28557014      23.69696808      15.78770828
O       17.04777145      23.31652260      15.39857197
C       16.91672134      23.45481682      13.97784901
C       18.18286133      24.24336243      13.56494904
O       19.00688171      24.19247055      14.73652363
H       16.90390205      22.47207451      13.48459053
H       15.98865128      23.98456764      13.71823788
H       17.93536186      25.28583717      13.30270004
H       18.69674683      23.76933098      12.70763874
O       20.61306953      30.88002205      24.79764175
C       19.81881332      31.73649597      25.09315681
O       20.03219414      33.08783340      25.00315285
C       18.85435295      33.81853867      25.42007828
C       17.78909874      32.71603775      25.60973930
O       18.56062126      31.50043106      25.56556702
H       19.05887413      34.34870148      26.35983276
H       18.56772614      34.52636337      24.62731934
H       17.04740906      32.69690323      24.79650879
H       17.27120781      32.79734039      26.57404137
O       17.77702332      19.14295769      18.27301216
C       17.85925293      18.07477760      18.81879997
O       18.60564423      17.03445435      18.35631752
C       18.47285461      15.90064716      19.24902344
C       17.52153015      16.39342690      20.35132408
O       17.21662903      17.75422287      19.97953606
H       18.07294273      15.04652405      18.68070030
H       19.46002007      15.65519619      19.66079140
H       17.98664284      16.36962318      21.34366417
H       16.57777786      15.83131313      20.39233017
O       29.41662598      29.46814346      22.19276810
C       29.97715950      28.41475487      22.40431213
O       29.34289360      27.28039742      22.77220917
C       30.29866982      26.20826149      22.96642494
C       31.67224121      26.84860611      22.67587662
O       31.32110023      28.20792580      22.30658150
H       30.21817970      25.84737778      23.99945068
H       30.08510208      25.38222694      22.27221298
H       32.19614792      26.35169601      21.84395599
H       32.31961441      26.88022995      23.56409264
O       16.52501488      21.27256584      26.04266548
C       15.36374187      21.60014343      26.09423256
O       14.38363838      21.05151367      25.32493973
C       13.10842705      21.64261818      25.65746307
C       13.43934536      22.65684509      26.76530838
O       14.85634899      22.49333954      26.98905182
H       12.68638325      22.10856819      24.75482750
H       12.40789032      20.87806129      26.01279640
H       12.88828087      22.47247696      27.69618034
H       13.23538685      23.69627190      26.46209717
O       36.76705170      13.08975220      18.27493095
C       36.28168106      13.16247177      17.17155075
O       36.69172287      12.48507690      16.07533836
C       35.83591080      12.76000881      14.92161751
C       34.69985580      13.61558056      15.52752781
O       35.19663620      13.93607521      16.86719131
H       36.39073563      13.33511925      14.16560936
H       35.50230789      11.80965042      14.49209213
H       33.75997543      13.05524063      15.64300632
H       34.53195953      14.54925060      14.97152042
O       21.48317528      22.57488632      16.45238304
C       21.93531036      23.61271858      16.86822510
O       21.96671486      24.76060677      16.16391945
C       22.55149460      25.80782890      16.96576500
C       22.89857864      25.14000702      18.29462051
O       22.49650383      23.75620651      18.09409714
H       23.42520905      26.18275261      16.41746330
H       21.82211494      26.61934471      17.08636475
H       22.36000824      25.57379723      19.14932251
H       23.96930122      25.18921661      18.54485130
O       34.02254105      17.59203911      19.75124550
C       34.75761414      18.53654289      19.53245163
O       34.72404480      19.68259430      20.24923897
C       35.50559616      20.70968437      19.59304237
C       36.23123169      19.93417740      18.46151924
O       35.65066528      18.60586166      18.51775551
H       34.81975555      21.48203278      19.21356964
H       36.18107986      21.14933586      20.33690834
H       37.30947113      19.85993385      18.65832710
H       36.03742981      20.35519981      17.46364021
O       19.09959793      11.75844097      22.92972946
C       20.08902931      11.20084000      23.34345436
O       21.00352478      10.62180138      22.51901817
C       21.95049667       9.88608074      23.30356979
C       21.52602196      10.17543602      24.75342178
O       20.46718216      11.13028812      24.64702797
H       21.89139938       8.83032322      23.00103760
H       22.96461487      10.24339199      23.07575035
H       22.34046364      10.60860157      25.34640884
H       21.14690971       9.28020859      25.26230621
O       37.00869370       2.14354634      19.57613373
C       36.48136520       3.22733355      19.58394623
O       37.09746552       4.38658524      19.90630913
C       36.14965057       5.47881842      19.94290733
C       34.81234360       4.81779242      19.52989388
O       35.16927719       3.43224025      19.30339432
H       36.13944244       5.92937136      20.94348907
H       36.46198273       6.24000788      19.20961952
H       34.37926102       5.22101307      18.60257339
H       34.04831696       4.87078810      20.31705475
O        4.82175398      24.41827202      19.13596153
C        5.79967403      24.46148491      19.84144783
O        6.67295933      23.43106079      19.97475243
C        7.68456888      23.78391457      20.92244530
C        7.22202301      25.14691162      21.47168350
O        6.18565083      25.53136444      20.56846428
H        7.73549604      23.03082085      21.72173691
H        8.67399025      23.83447838      20.42720985
H        8.01289940      25.91197586      21.41548538
H        6.83370399      25.09954262      22.50286674
O       16.39098930      -0.12968785      19.43528175
C       17.39183044       0.52604765      19.26360512
O       18.30139732       0.28518108      18.28245735
C       19.42031288       1.17265511      18.44244194
C       18.96160507       2.15963984      19.55040741
O       17.72899437       1.59283996      20.01785278
H       20.29941177       0.58336830      18.73718262
H       19.62360764       1.67702854      17.48312569
H       18.76849556       3.17346382      19.15410423
H       19.66459465       2.22958708      20.39227676
O        7.18181324      18.51491547      18.62572289
C        6.19916391      19.20906830      18.48422623
O        6.21166325      20.53672600      18.21419334
C        4.87491465      21.09136009      18.27618599
C        3.98051071      19.83717346      18.34958839
O        4.92086172      18.77007294      18.60219955
H        4.79467535      21.75001335      19.14886284
H        4.68462944      21.68258858      17.36835861
H        3.44589233      19.64128494      17.40602684
H        3.25522327      19.89705849      19.17132950
O       27.00786209       3.39788532      17.98276901
C       27.87589836       3.85836601      17.27561760
O       28.57560921       4.97774792      17.59696007
C       29.35142326       5.39051580      16.43877220
C       29.26025200       4.20889282      15.45333385
O       28.27094841       3.33993387      16.08147049
H       28.90888023       6.30836201      16.02993393
H       30.38960838       5.55569935      16.74530029
H       30.20337486       3.65290332      15.37204456
H       28.90828133       4.50974751      14.45360088
O       13.23858929      15.00641251      30.32016754
C       14.03558731      14.10437012      30.22198296
O       15.32152176      14.19632530      29.80443764
C       15.97660542      12.90672398      29.82654190
C       14.92283821      11.98962212      30.47496414
O       13.71503258      12.78770828      30.43519592
H       16.23827362      12.59283733      28.80697823
H       16.88374710      12.97040367      30.43660927
H       15.13497353      11.77765942      31.53050613
H       14.75989151      11.07387543      29.89880753
O       13.82401180      30.28463745      14.98396778
C       14.01066303      30.46900940      16.15836906
O       15.00234795      31.23859024      16.69091606
C       15.02902126      31.12937355      18.12095261
C       13.76467037      30.31185532      18.42630768
O       13.31957150      29.83525467      17.15606689
H       15.96294498      30.63459778      18.42670441
H       14.97370434      32.13547897      18.56991386
H       12.98607922      30.92989922      18.90382767
H       13.98403835      29.45511055      19.08256149
O       28.33299828      17.68492508      11.11019325
C       27.70539856      18.11113358      12.05241299
O       28.24437523      18.61058998      13.19619274
C       27.19487190      19.08368492      14.05928612
C       25.91073418      18.60833740      13.37467480
O       26.35108757      18.14130402      12.08882046
H       27.31314659      18.65864563      15.06480217
H       27.25162125      20.18115616      14.13486958
H       25.15182877      19.39785576      13.26477146
H       25.43527222      17.78855705      13.92528439
O       29.83414078      31.30870438       4.67045498
C       29.97884750      31.65234756       5.81889105
O       30.47579575      30.90590668       6.83814573
C       30.44861221      31.62537956       8.09276676
C       30.04571342      33.05494690       7.68099928
O       29.57584381      32.87125397       6.32192039
H       29.70138550      31.20258904       8.78199291
H       31.43880081      31.60979080       8.56510162
H       30.90507698      33.73089218       7.69180918
H       29.24036407      33.46648788       8.30661106
O       23.15340805      17.21359444      12.63378334
C       23.05923653      16.37708855      13.49458790
O       23.59844398      16.49348259      14.75181198
C       23.28508377      15.34435368      15.55086327
C       22.65243530      14.38122940      14.53485775
O       22.42605019      15.18647957      13.36137772
H       24.20052528      14.95827961      16.01934624
H       22.58061790      15.63973331      16.35087013
H       21.68326950      13.98091125      14.86465263
H       23.30361366      13.53898811      14.24274731
O       16.84200859       5.20719910      32.01860428
C       16.65532303       6.23357201      32.64126205
O       15.46346188       6.85390282      32.75284195
C       15.60237217       8.05517673      33.52938843
C       17.09476852       8.05644989      33.94254303
O       17.61306572       6.85825491      33.33766556
H       15.34730339       8.91982555      32.90272141
H       14.92614937       8.02373505      34.39481354
H       17.23364449       8.01964855      35.03197098
H       17.62852859       8.92534542      33.53240967
O       10.57569885      19.07863235      11.03615952
C       10.31835079      19.93753433      11.84244061
O       10.70744705      19.92194366      13.15919495
C       10.31986046      21.16307068      13.79416370
C        9.31729221      21.78457832      12.80555725
O        9.61335373      21.07768059      11.57816219
H        9.86776638      20.95323372      14.77119732
H       11.20709610      21.79516602      13.95045090
H        9.49599266      22.85916710      12.64611816
H        8.26527214      21.61329651      13.08443832
O       37.42195511      21.39975357      22.08170128
C       37.08592224      21.42703819      23.24083328
O       37.00724030      22.54429054      24.02524376
C       36.58158112      22.23994827      25.35975075
C       36.48969650      20.69972801      25.33678818
O       36.73126984      20.33635712      23.96655464
H       37.32035065      22.61297989      26.08279991
H       35.60928345      22.71441269      25.55893517
H       35.49385834      20.35369682      25.64500046
H       37.24788666      20.24721336      25.99121284
O        7.89986181       7.21951294       4.47005463
C        7.39461422       8.30806160       4.56204844
O        6.04882288       8.51071548       4.67717934
C        5.76571369       9.91061783       4.87864494
C        7.16248894      10.56080151       4.95425606
O        8.05454063       9.49063301       4.56815863
H        5.17968702      10.28990841       4.02803278
H        5.17671251      10.04923534       5.79112720
H        7.41720772      10.91762066       5.96339560
H        7.26198530      11.37588978       4.21932888
O       34.28668594      13.82620144      19.75988007
C       34.88369370      14.23236561      20.73281860
O       35.79708481      15.21824646      20.69881248
C       36.26692200      15.50445938      22.02644920
C       35.38787460      14.62315941      22.92975235
O       34.71773911      13.74944115      21.98029518
H       37.33340836      15.24899483      22.08552742
H       36.12467194      16.57704353      22.22301674
H       34.64968491      15.18833542      23.51438713
H       35.96992493      14.02473354      23.64186287
O       28.26544380      -0.10967134      21.67567635
C       27.85138893       1.01979578      21.75785637
O       26.56692886       1.39229906      21.53064919
C       26.38479996       2.79964423      21.80398178
C       27.80104256       3.28246403      22.17590332
O       28.60782242       2.08768940      22.11714172
H       26.01182175       3.29281664      20.89152718
H       25.66903687       2.94266558      22.62438202
H       27.85539818       3.71120214      23.18479156
H       28.16949081       4.01977110      21.44598770
O       28.85780525      24.81141853       6.70440197
C       27.92107201      24.30663490       6.12575674
O       26.65510178      24.81156731       6.16607285
C       25.76012802      24.00106239       5.37326670
C       26.64918327      22.82929611       4.90687609
O       27.98590279      23.20250130       5.32578421
H       24.92409706      23.66823578       6.00326681
H       25.35260582      24.60230064       4.53900099
H       26.64509583      22.66221237       3.81684661
H       26.36132812      21.88665390       5.39425707
O        2.15066791       9.14543915      24.39069557
C        2.33856988       8.12549877      24.99382973
O        1.39696097       7.20739317      25.26826477
C        1.95924890       6.12595844      26.00544739
C        3.44888520       6.49051237      26.14562035
O        3.56651926       7.74411392      25.49021912
H        1.45554185       6.05402803      26.98267365
H        1.78257203       5.17539358      25.47510719
H        4.10775137       5.74011230      25.67896652
H        3.76450109       6.56648159      27.19503784
O       15.22242451       0.33581173       2.76774883
C       14.30141830       1.03859341       2.43377185
O       14.39876080       2.19105053       1.72663319
C       13.08942890       2.76770282       1.49281621
C       12.11507130       1.76171947       2.15285277
O       13.00334644       0.76419896       2.71066523
H       13.03010845       3.76673841       1.94472384
H       12.92992401       2.83755541       0.40404749
H       11.44969368       1.27518165       1.42311275
H       11.49941063       2.20146132       2.94915771
O       27.31111336      35.54907990      33.14218521
C       26.12784767      35.79241180      33.25950241
O       25.17634201      35.40994644      32.38071823
C       23.85945892      35.74650574      32.88894653
C       24.14429283      36.38227844      34.26585770
O       25.58418846      36.42652130      34.33893967
H       23.37444496      36.45390320      32.20084763
H       23.27223969      34.82338333      32.97344208
H       23.76656914      35.77801895      35.09849167
H       23.74971199      37.40330124      34.35243225
O       16.99176216      30.32191086      14.45469379
C       17.10149574      31.42378616      14.92395401
O       16.77873611      32.57153702      14.25422001
C       17.13420105      33.70264435      15.07061195
C       17.61631584      33.09612274      16.39523315
O       17.61717224      31.68302536      16.15394402
H       17.94481468      34.25542068      14.57284927
H       16.24384117      34.33418274      15.20063305
H       16.94001389      33.31900406      17.23882675
H       18.63205147      33.42102814      16.66744614
O       20.54631996      15.59690857       1.91473901
C       21.27665138      16.48561859       2.29172230
O       22.61053658      16.54385567       2.06456590
C       23.15051842      17.73444176       2.67889023
C       21.96411324      18.34060860       3.45746493
O       20.85963249      17.51006508       3.06831813
H       23.98117256      17.47659683       3.34641933
H       23.52027702      18.41373444       1.89595318
H       21.74904251      19.38748360       3.20344114
H       22.09481812      18.31208420       4.54756880
O       31.07306099       6.83096123      29.60577583
C       31.44901466       5.70372772      29.40077209
O       30.70909309       4.69316196      28.89292908
C       31.48900032       3.48197007      28.78768158
C       32.90223694       3.90048122      29.28085327
O       32.73498154       5.29126692      29.60897636
H       31.03299522       2.71998453      29.43683624
H       31.50813866       3.14147139      27.73806572
H       33.66203690       3.76406336      28.49512863
H       33.19765472       3.35683990      30.19232941
O       25.02964592      11.91573334      19.26331902
C       24.36229324      12.37102127      20.16038513
O       23.12256813      12.90032196      20.00207901
C       22.60169601      13.33615112      21.29294395
C       23.78271484      13.17783642      22.24287224
O       24.73648453      12.41473866      21.46876144
H       22.25510406      14.37120533      21.21125221
H       21.75031090      12.70480156      21.58554268
H       23.51087189      12.62371731      23.15316010
H       24.21300125      14.14662838      22.54432869
O       13.26471043      37.34554291       8.36837006
C       13.78329086      36.26510239       8.48281670
O       15.11462116      36.00930023       8.22579193
C       15.44187450      34.65765381       8.61135864
C       14.05954838      34.01138306       8.84235573
O       13.13543415      35.12029266       8.80873966
H       16.04131889      34.18606186       7.81398916
H       16.05084038      34.66948700       9.52955341
H       14.00020885      33.54608154       9.83837605
H       13.77392578      33.28278732       8.05840683
O       24.81159782      29.87502098       0.55447173
C       25.54907990      30.74761009       0.92407751
O       26.02476120      30.88404465       2.19095063
C       26.61162949      32.17742920       2.37539840
C       26.78697968      32.68312836       0.92425442
O       25.98752975      31.77622414       0.14261572
H       25.93658447      32.82176971       2.96843004
H       27.55947876      32.07643509       2.91883206
H       27.83105087      32.62771225       0.57938814
H       26.39053345      33.69920731       0.77991396
O        9.85536194      21.97570801      17.73847389
C       10.29590416      23.04399872      17.40757370
O        9.92197990      23.77623367      16.33210373
C       10.61934471      25.06150055      16.36327934
C       11.81713581      24.75245857      17.28140831
O       11.27675247      23.68791580      18.12671852
H       10.90467739      25.31716537      15.33312607
H        9.94700336      25.82809830      16.78499603
H       12.10466385      25.57768250      17.93658829
H       12.68537521      24.39312744      16.71474457
O       23.00437737      28.16107941      11.01240158
C       22.14832497      27.31207657      11.07973194
O       22.39345551      26.03487396      11.49148083
C       21.17215729      25.27282906      11.42516232
C       20.06795692      26.32134819      11.21574116
O       20.81923485      27.50586700      10.87285042
H       21.22205544      24.57192230      10.57468510
H       21.02794266      24.71828651      12.36374378
H       19.45672417      26.50794220      12.10939217
H       19.39348030      26.07381821      10.38424206
O        4.43759727      26.62161446       5.79021549
C        4.17800665      25.65756989       5.10877275
O        5.08078671      24.91771317       4.41432238
C        4.45089674      23.85202599       3.67200875
C        2.94819403      24.00370979       4.07434034
O        2.92007136      25.18487358       4.89914322
H        4.61507559      23.97094536       2.58950162
H        4.86700201      22.89089203       3.99599338
H        2.58655643      23.14738274       4.65471506
H        2.29833055      24.14806366       3.19541049
O       31.67211151      10.18385029      20.93851662
C       32.12326050       9.23784637      21.52544403
O       31.45304298       8.07784081      21.73808861
C       32.35002899       7.08795309      22.29091835
C       33.72033691       7.78257561      22.35931396
O       33.39587021       9.14903831      22.00066376
H       31.97609711       6.81551886      23.28670692
H       32.32969284       6.20354319      21.63468933
H       34.44173813       7.39369535      21.62326241
H       34.19847870       7.76728773      23.34670067
O       22.11255836      21.46760368       4.76955557
C       21.00087738      21.93030548       4.86641455
O       20.69752312      23.04563332       5.58122063
C       19.26009369      23.21105957       5.66120958
C       18.71238518      22.16860390       4.67442465
O       19.89027023      21.39649010       4.28717804
H       18.91961861      23.02173996       6.69421768
H       18.99123955      24.24077415       5.38679218
H       18.26562500      22.60289383       3.77038288
H       17.97163010      21.52834702       5.17273617
O        8.64999866       3.37098479      16.96376038
C        9.19737339       4.35903740      17.39210129
O       10.38543320       4.84625816      16.92882156
C       10.81564903       5.93681812      17.76329231
C        9.60528851       6.22008419      18.66633415
O        8.75918198       5.09411669      18.44510078
H       11.70681763       5.65198517      18.33535957
H       11.03382492       6.81436062      17.14138031
H        9.08498192       7.14135313      18.35486984
H        9.85191441       6.29212570      19.73278236
O        3.40460849       3.06957507      20.55374146
C        4.19098282       3.27790713      21.44136810
O        4.96238852       2.34685040      22.05916214
C        5.71754360       2.94849372      23.12219238
C        5.44287729       4.46521521      22.98080635
O        4.41463137       4.49703884      21.98146057
H        5.36892557       2.58081079      24.09983635
H        6.78714418       2.70338845      23.01223946
H        6.32493114       5.01731253      22.62050629
H        5.06871319       4.93640709      23.89814568
O       17.39993858       8.51944733      29.43400764
C       16.33485603       8.72800732      28.90230942
O       16.16801262       9.31844902      27.68896294
C       14.75099850       9.48449516      27.38215637
C       14.05118752       8.71382332      28.52664948
O       15.13694859       8.41438007      29.44543839
H       14.50872040      10.55953026      27.41467285
H       14.53524017       9.07213116      26.38855171
H       13.57911205       7.79142904      28.16994667
H       13.29141426       9.31020164      29.05751991
O        9.97806549      33.69658661       4.35060501
C       11.02991390      34.27482224       4.45794725
O       11.45128155      34.88208389       5.58151674
C       12.72603512      35.50584412       5.38267994
C       13.08567429      35.10454178       3.92549300
O       11.93963146      34.38719559       3.45055366
H       12.63014507      36.59267807       5.52785635
H       13.43518066      35.12952042       6.13250828
H       13.96329594      34.44327164       3.86511159
H       13.25904846      35.99133682       3.30021834
O       15.68214798      11.86149883      18.40162659
C       15.20866489      12.94721413      18.60921288
O       14.18704700      13.21443748      19.47346306
C       13.89052963      14.62713814      19.51420021
C       14.69923115      15.19620705      18.31892967
O       15.58522606      14.09390640      17.95272827
H       12.80619144      14.75816727      19.39172173
H       14.19678688      15.04237843      20.48501778
H       15.29992485      16.06936264      18.60902214
H       14.06072998      15.43362522      17.45356369
O       27.55022430      16.23333740      21.08480263
C       28.48683739      16.98489380      21.02771759
O       29.78330421      16.59579086      20.86761093
C       30.63030624      17.75358772      20.82286072
C       29.65990639      18.94441605      20.85918427
O       28.35494232      18.33858109      21.03786278
H       31.32289124      17.74991417      21.67129707
H       31.22994232      17.72263908      19.89914131
H       29.65312576      19.49291420      19.90399933
H       29.83248901      19.63393593      21.69552040
O       30.84628677      30.27394485      13.57342911
C       30.69903564      29.27081299      12.92246151
O       30.53553963      28.02459145      13.43272114
C       30.31817055      27.06970978      12.35913563
C       30.47450066      27.89016151      11.05305672
O       30.68495560      29.22966766      11.56621075
H       31.06550407      26.26972008      12.42322636
H       29.30222893      26.64845848      12.45129395
H       29.57042122      27.87994957      10.42396355
H       31.34185219      27.56807709      10.45666981
O       10.33458233      36.13311386      28.69033051
C       11.46379662      36.04082489      28.28174019
O       12.29849815      35.01927948      28.53119278
C       13.62783051      35.28252792      28.01448822
C       13.35467243      36.46866608      27.04483032
O       12.06792927      36.95685577      27.47088623
H       14.29714012      35.55041122      28.84451103
H       14.02314758      34.38740158      27.51603508
H       13.29736137      36.14646149      25.99033546
H       14.10554886      37.26453018      27.15742493
O        2.79362106       7.10660505      10.68432808
C        3.43764186       8.06125927      10.32261181
O        4.58718443       7.96935654       9.58974838
C        5.12014866       9.28146076       9.31652737
C        4.09693480      10.23378181       9.97286224
O        3.11989498       9.35237026      10.57232380
H        6.10848284       9.37216091       9.78355598
H        5.20321083       9.41641140       8.22561741
H        3.57108974      10.85405731       9.23034668
H        4.55028391      10.85488701      10.75588989
O       28.32313538      13.70722961      19.34727669
C       28.36859703      12.95761871      20.29212761
O       29.26900864      11.95306873      20.42385483
C       28.94239235      11.16673088      21.57762527
C       27.73847198      11.87238979      22.19659233
O       27.51168442      13.00091743      21.33415604
H       28.73341179      10.14605999      21.22399139
H       29.80148506      11.12482452      22.25966263
H       27.91658211      12.23904896      23.21956253
H       26.82106400      11.26139355      22.20249557
O       24.02574539      27.22512817       3.54803562
C       24.06991386      28.38097763       3.90219951
O       23.09976196      29.28674507       3.68097258
C       23.42519760      30.54124069       4.31480789
C       24.75001717      30.25387383       5.03490114
O       25.09895897      28.92049408       4.62039661
H       23.51715469      31.32087708       3.54503989
H       22.62597656      30.81956673       5.00983906
H       24.61558533      30.29144478       6.12457275
H       25.56663322      30.94068146       4.75383282
O       23.57628059       5.54534817       9.28494549
C       23.19142151       5.71957064      10.41883373
O       23.16763306       4.76823664      11.38396358
C       22.64724731       5.28535700      12.62773323
C       22.37170219       6.76760530      12.33478451
O       22.71047974       6.88588715      10.93447018
H       21.72574615       4.75653410      12.90564919
H       23.38575363       5.18660259      13.43735409
H       22.99956894       7.43636322      12.93989277
H       21.31451035       7.03646517      12.48729038
O       15.60217762      26.38972282      30.12168312
C       15.59517574      26.97012138      31.18288231
O       15.47904205      28.31803703      31.29426765
C       15.65711308      28.71699333      32.67318344
C       15.63415718      27.40193367      33.43007660
O       15.75499630      26.38917351      32.39263916
H       16.63798904      29.21211433      32.76685715
H       14.84040451      29.39496994      32.97344589
H       14.68521404      27.27305984      33.96810532
H       16.44997787      27.31034088      34.15989304
O       35.00911713      20.27657890      12.62223148
C       34.84622192      21.38512230      12.17480087
O       33.66634369      22.04229164      12.19489002
C       33.80204773      23.36835670      11.64166069
C       35.30248642      23.43670464      11.24016285
O       35.83274460      22.13674164      11.60370445
H       33.14286804      23.46000671      10.76340866
H       33.53015137      24.10286140      12.40927887
H       35.84204102      24.20399284      11.81354141
H       35.41099167      23.58405304      10.15453053
O       34.82326126      14.34610653       3.27518249
C       33.88769531      13.58664799       3.28815269
O       33.99076462      12.22933292       3.11609173
C       32.69723129      11.61383343       3.31816459
C       31.72617340      12.81413555       3.48494959
O       32.61021042      13.94624710       3.52111101
H       32.46404648      10.95040321       2.46994209
H       32.73819733      11.00839996       4.23688459
H       31.14567375      12.77095509       4.41509867
H       31.00903320      12.92833614       2.64984417
O       33.84833908      22.80618477       8.45182323
C       34.37615967      21.71404839       8.45877171
O       35.47321320      21.37664032       7.72992992
C       35.86932373      20.00627136       7.97031879
C       34.76240540      19.49689865       8.92114925
O       33.95633698      20.66954613       9.19482708
H       35.92515945      19.46520424       7.01095915
H       36.86756134      20.01333237       8.43400192
H       35.16837692      19.12136650       9.87105274
H       34.13224411      18.73065376       8.44547462
O       17.36059952      20.45415115      29.22370148
C       16.79677963      19.42406082      28.95167923
O       15.61284733      19.31906891      28.28658676
C       15.12093067      17.95986748      28.35423851
C       16.26262283      17.19231987      29.04374886
O       17.27698135      18.19241142      29.28709602
H       14.20421314      17.93901634      28.96360016
H       14.88718224      17.61093330      27.33427811
H       16.69561768      16.39635086      28.42062569
H       15.93135452      16.77068901      30.00157738
O        3.82656622      33.23653412      34.90848160
C        4.18221140      32.91698074      33.77847290
O        5.04813099      31.91762161      33.54761124
C        5.27421141      31.73566055      32.12629318
C        4.44284105      32.87588501      31.48704147
O        3.76144314      33.47448349      32.63484573
H        6.34809160      31.81932068      31.90347481
H        4.92189312      30.74147034      31.82777023
H        3.70187497      32.50625610      30.76625061
H        5.08745623      33.63551712      31.02715874
O        1.65583730       4.49973726       8.52025318
C        1.54486990       5.58739901       7.96663809
O        0.38910124       6.14184380       7.57270670
C        0.61745602       7.47113895       7.04774427
C        2.14939356       7.65621614       7.18915319
O        2.59673476       6.36828947       7.70625114
H        0.28845501       7.52682829       5.99517918
H        0.05100884       8.19525146       7.64760351
H        2.40386796       8.42380333       7.93303156
H        2.64463615       7.83683872       6.21908188
O       21.23978043      26.34476280      21.49631119
C       21.48958969      25.16618538      21.41311264
O       20.58024025      24.18901062      21.14221573
C       21.22814178      22.89549446      21.16783142
C       22.69412994      23.20409393      21.53519630
O       22.74104118      24.64480400      21.54968643
H       20.74056435      22.27321243      21.93171501
H       21.12479782      22.42248344      20.17459869
H       23.41533089      22.82755089      20.78884888
H       22.96481133      22.81295586      22.52791595
O       10.24691486       6.36187553      28.11735916
C       11.11304188       5.59634542      28.47935486
O       11.17803574       4.27946281      28.17894363
C       12.21244621       3.64967656      28.96295929
C       13.00613880       4.83320475      29.56326485
O       12.17708588       5.97051907      29.24637032
H       11.74758148       3.04084492      29.75161171
H       12.82921314       3.00942922      28.31298447
H       13.99715614       4.91912317      29.09570885
H       13.12795448       4.76578951      30.65022087
O       24.87880516      35.66466522      15.16586685
C       24.52301598      35.89067078      16.29586601
O       24.82452393      36.98809052      17.04200935
C       24.33472443      36.85561752      18.38253021
C       23.45019341      35.59564590      18.30769539
O       23.73333168      35.04705429      17.01655006
H       25.16916084      36.75867081      19.09498596
H       23.76157761      37.75646591      18.65823746
H       22.37431717      35.82248688      18.38854980
H       23.70909119      34.87284851      19.09543800
O       29.58126450      13.90811539       7.57152128
C       28.84996605      13.59859276       6.67297220
O       27.57592392      13.10273743       6.85709858
C       26.94702530      12.94601822       5.57482624
C       27.90844727      13.62632561       4.57383919
O       29.11922646      13.75905704       5.33949423
H       26.80710602      11.87828445       5.33168364
H       25.95824623      13.43689919       5.59010029
H       27.53930473      14.62683392       4.28734493
H       28.10424614      13.03605556       3.66688991
O        5.99011803      20.99135399      24.73551559
C        6.50317669      20.21163750      23.95892715
O        5.84895611      19.51170731      23.00780296
C        6.75138712      18.60144234      22.33883858
C        8.12393856      18.92091942      22.96540833
O        7.83248806      19.91528130      23.96842194
H        6.44551182      17.56709290      22.55288506
H        6.72124958      18.76484489      21.24953079
H        8.84294510      19.32535362      22.23368835
H        8.54742527      18.02229881      23.43894768
O        0.68461746      22.42661285      29.29177284
C        1.08798635      21.29548264      29.16465950
O        2.40384674      20.93390656      29.24980736
C        2.56941724      19.51157570      29.06328773
C        1.11413360      19.01704216      28.84353065
O        0.31338641      20.21889877      28.89285660
H        3.22264457      19.28927040      28.20355415
H        3.02678728      19.08142853      29.96421051
H        0.79024720      18.34242821      29.64890862
H        0.97598445      18.51614571      27.87030029
O        9.38365841      25.34304047      29.78186607
C        9.02174091      25.91389656      30.78108406
O        9.01775265      27.27850533      30.90171623
C        8.56287003      27.69724655      32.22004700
C        8.04966259      26.38219261      32.80108261
O        8.57051945      25.36419678      31.91570282
H        9.38610554      28.15670013      32.78564072
H        7.76094007      28.43681145      32.08167648
H        6.95135689      26.33352470      32.80799484
H        8.40006924      26.23723602      33.82823181
O       20.59869003       2.79414725       3.04602075
C       21.49427605       3.57774043       2.90804338
O       22.59355164       3.36170053       2.15777516
C       23.50415802       4.47067499       2.27024794
C       22.72579002       5.50107956       3.14550090
O       21.51892090       4.79470062       3.50137973
H       24.43556213       4.13632059       2.74983454
H       23.73343086       4.87516689       1.27067292
H       22.44375992       6.39483738       2.56560016
H       23.26760101       5.79772139       4.05483103
O       15.81407833      22.47749138       9.40380573
C       15.10974026      22.07489967      10.31506538
O       15.31002235      22.43478394      11.61108875
C       14.56066036      21.56292152      12.49484539
C       13.63834476      20.80803680      11.52001286
O       14.11530209      21.18804169      10.20072460
H       15.26679897      20.89619637      13.00978851
H       14.05128860      22.17307091      13.25738049
H       12.57517052      21.08469963      11.60808563
H       13.71141720      19.71477890      11.61803722
O        7.44233894       9.74664688      35.33750916
C        7.91010189       8.63831806      35.26004410
O        7.19972706       7.49898863      35.41571045
C        8.04807377       6.35405254      35.21413422
C        9.47623444       6.95074415      35.09147644
O        9.21559620       8.35771275      34.97398376
H        7.97269869       5.69347429      36.08787918
H        7.73288250       5.80953312      34.30848312
H       10.01268864       6.58051634      34.20222855
H       10.08409691       6.76409864      35.98828506
O       15.89167213       4.56981659      19.30037880
C       14.92377758       3.85873294      19.39649773
O       14.80219364       2.59831834      18.88656235
C       13.55854130       1.98925948      19.32803345
C       12.79027081       3.16425037      19.99003792
O       13.77596855       4.21776438      20.06454849
H       13.01808643       1.57053220      18.46329308
H       13.80202103       1.18456233      20.03736877
H       12.43192101       2.94296956      21.00811577
H       11.93859196       3.49778938      19.37459755
O        4.33901358       8.95613003      13.46754074
C        5.09426403       8.15327549      12.96146679
O        4.95351696       6.81638956      12.99299622
C        6.05209112       6.15805054      12.33966064
C        6.90194893       7.31374025      11.78084183
O        6.18812084       8.48703766      12.21821213
H        6.61753082       5.55907011      13.06888771
H        5.65909815       5.50290966      11.54667187
H        6.98477983       7.30136156      10.68340302
H        7.90903091       7.32712793      12.21608734
O       25.66534042      16.43809319      33.68527603
C       24.56944275      16.81375313      33.32338333
O       23.54426003      15.99743748      32.98402405
C       22.32756805      16.75776100      32.76456451
C       22.78639221      18.23105431      32.87508392
O       24.19537544      18.11422157      33.24425507
H       21.90179443      16.49979591      31.78216553
H       21.58820152      16.52082443      33.54360962
H       22.26104355      18.78704453      33.66340637
H       22.70777130      18.76244926      31.91006088
O       10.80104256      26.36168289      27.43236351
C       10.02761269      25.44196320      27.23735619
O        8.72398758      25.57952309      26.92637062
C        8.03964424      24.29726028      26.90945435
C        9.18578053      23.29965019      27.16924858
O       10.37184143      24.13445282      27.32054710
H        7.27937555      24.30243111      27.70077515
H        7.55744886      24.15593529      25.93225479
H        9.32969475      22.58324242      26.34443474
H        9.01682472      22.74789619      28.10321045
O       30.67081261      16.68155098      -0.08761993
C       31.26439667      17.47294617       0.60883474
O       32.37200928      17.19088554       1.32930291
C       32.81885147      18.35442734       2.02725410
C       31.83748245      19.46293831       1.57729900
O       30.92118263      18.77758789       0.71619743
H       32.75679398      18.17979050       3.11352587
H       33.85788727      18.59069252       1.72983813
H       32.35329056      20.24097252       0.98802722
H       31.27978516      19.91025162       2.41687989
O       28.70946693      23.43915367      17.80493927
C       27.87796593      22.70732117      18.27639198
O       27.79012871      22.45526123      19.60873604
C       26.71352768      21.52525520      19.85620117
C       26.06835175      21.31302071      18.48317337
O       26.92837524      22.03835106      17.57408142
H       27.11247063      20.59580994      20.29005051
H       26.03522110      21.97629929      20.59624290
H       25.05473137      21.73640633      18.40770912
H       26.01501274      20.26546860      18.14773560
O        7.71198225      19.03224945      34.57184982
C        8.60148525      19.33017540      33.80147171
O        9.52745152      20.28811455      34.06875992
C       10.28665257      20.51531029      32.85226440
C       10.04000950      19.25368309      32.03726959
O        8.80322266      18.73940086      32.60179520
H        9.92455101      21.42892838      32.34669113
H       11.34130096      20.62175941      33.13013840
H       10.82758808      18.50063896      32.16910553
H        9.88834572      19.41193581      30.96060562
O       10.78833866      21.57099915      22.46074295
C       10.84576988      22.71372223      22.84024811
O       11.97813320      23.46669769      22.76202393
C       11.76422024      24.76193619      23.38921356
C       10.24897671      24.78427315      23.68306160
O        9.82907867      23.43187141      23.36764526
H       12.34585190      24.81262970      24.31823158
H       12.07847500      25.54252434      22.67813110
H        9.69924545      25.48723412      23.03824806
H       10.02423573      25.01040840      24.73206902
O       24.56669235      13.02099419       3.54525518
C       23.54316330      12.42796707       3.77886081
O       23.39473534      11.61746883       4.87689924
C       22.01033401      11.16033745       4.97671747
C       21.35908699      11.65650654       3.66447377
O       22.42023087      12.44442081       3.03983378
H       22.02225685      10.06342030       5.03839207
H       21.55247116      11.60195827       5.87578773
H       20.49443436      12.30590343       3.84058833
H       21.08044243      10.84760571       2.97454524
O       17.61437607      36.02840805      22.60198402
C       18.17819786      35.27954865      21.83758545
O       17.96171188      33.94703293      21.78391075
C       18.91595459      33.31706619      20.89351273
C       19.53170204      34.51470947      20.13257790
O       19.12325859      35.63769531      20.93304062
H       19.68505096      32.78319931      21.47137833
H       18.40567398      32.62137604      20.21127892
H       19.12834167      34.60656357      19.10847092
H       20.62698936      34.44368744      20.08408737
O       18.96948242       9.12754536      23.60703850
C       18.43777275       8.94230080      22.52653503
O       19.09073448       8.34692955      21.48519707
C       18.17849731       8.17196369      20.36873055
C       16.85186768       8.73753548      20.88885307
O       17.15092850       9.18664360      22.23364639
H       18.56748772       8.72108459      19.49905396
H       18.11674118       7.10282040      20.10604477
H       16.08226395       7.95859337      20.93128014
H       16.51247787       9.58874702      20.27571297
O       14.30664062      17.69824600      32.23706436
C       14.40684700      18.87109947      31.96798897
O       15.39503670      19.39336205      31.20112038
C       15.16766834      20.81219101      31.03281021
C       13.97982979      21.10898781      31.96133232
O       13.48694324      19.80152702      32.33302307
H       16.07875061      21.35331917      31.30316544
H       14.95324135      21.00110054      29.96930313
H       13.16546917      21.63636017      31.44359398
H       14.24088955      21.66756821      32.87070847
O       13.32041836      28.35916901       9.61052227
C       14.30489159      29.03437042       9.78623486
O       14.29501343      30.38595200       9.87175083
C       15.60470295      30.86841202      10.26247406
C       16.47701454      29.60489464      10.31221008
O       15.55689240      28.54033470       9.96592522
H       15.96175098      31.56737137       9.48982811
H       15.53973961      31.38185120      11.23053455
H       16.87433434      29.44557953      11.32329082
H       17.30522156      29.65164948       9.58309269
O       12.52862740      13.22014236      10.83546638
C       12.88523197      14.26591015      10.36023140
O       13.35880756      15.29259777      11.12574196
C       13.70602512      16.40735435      10.26111507
C       13.38519192      15.90252590       8.83633900
O       12.82810974      14.58877659       9.04196835
H       13.10278320      17.27883720      10.56197453
H       14.77536106      16.62313080      10.38924408
H       14.28081131      15.81755447       8.19662189
H       12.63769913      16.52917862       8.32548428
O       11.99713326      27.39253044       5.19041300
C       12.40036869      26.26505089       5.36138487
O       13.40320778      25.93403053       6.20576000
C       13.65698338      24.52233124       6.12977171
C       12.59033775      23.98922920       5.15416384
O       11.87206459      25.17068863       4.74469709
H       14.68247986      24.33035088       5.78187466
H       13.57742882      24.07438660       7.12923336
H       11.88253021      23.29424286       5.62830639
H       13.01270103      23.48080826       4.27187777
O       28.14283562       8.89914417      32.97568130
C       27.03838348       9.09859467      33.43528366
O       26.36358833      10.26522732      33.32412338
C       25.06378937      10.19254780      33.97561264
C       25.01523209       8.73984814      34.49265289
O       26.31404686       8.19260120      34.12026596
H       24.98868179      10.94144058      34.77514648
H       24.27536583      10.38003922      33.23262787
H       24.22298813       8.15869045      34.00370407
H       24.88560486       8.70486259      35.58349609
O        2.44582844      12.57186985       4.45739269
C        3.09423399      12.90702438       5.41816711
O        3.46595979      12.08173180       6.44114828
C        4.16453552      12.82197285       7.46387100
C        4.41047859      14.18867207       6.81835842
O        3.56662750      14.13759708       5.65435553
H        3.53134322      12.89167500       8.36310673
H        5.09876728      12.30084896       7.70477152
H        5.45798683      14.34447384       6.53545570
H        4.13003206      15.02444172       7.47021770
O       25.88263512      19.80721092       5.13320780
C       26.33076668      19.89794922       4.01371241
O       25.56553650      19.83097458       2.88982892
C       26.42730522      19.75893593       1.72303402
C       27.79213715      20.22218513       2.28581929
O       27.62744522      20.14080811       3.71828127
H       26.45961189      18.72600174       1.34393275
H       26.03344345      20.43153763       0.94419849
H       27.99431229      21.26909447       2.00829077
H       28.61857796      19.57109261       1.96887803
O       25.95514297      21.86732292      31.99525070
C       26.19349289      21.05400848      32.85284805
O       25.53314781      20.97283554      34.02788925
C       26.14417267      19.97881317      34.85440826
C       27.15143204      19.28151131      33.92294693
O       27.07249832      20.02046204      32.69486618
H       26.61715508      20.45605469      35.72294998
H       25.34215355      19.30829620      35.19652176
H       26.89295006      18.23646736      33.70617676
H       28.15885925      19.34859848      34.34271240
O       14.46829319      32.73146057      33.87088394
C       14.24882984      33.51769257      34.76681137
O       14.49710464      33.29593658      36.07497406
C       13.95247459      34.35155487      36.86695862
C       13.62704182      35.45193100      35.83010101
O       13.68645477      34.74464417      34.58305359
H       13.04054642      34.00153351      37.37758636
H       14.67388821      34.68037796      37.62952042
H       14.37995529      36.25941849      35.84065628
H       12.61237049      35.86875153      35.95284653
O       22.35048485      24.19590378      24.77590179
C       23.16491699      23.39805603      25.16804123
O       24.37725449      23.69851685      25.71730804
C       25.12365723      22.49475098      26.00222206
C       24.09385681      21.38253784      25.77757263
O       23.00813675      22.04646301      25.09111786
H       25.96567535      22.41292381      25.29487991
H       25.50018311      22.52461052      27.03081703
H       23.72640800      20.98000908      26.73580360
H       24.47766113      20.57057762      25.14258003
O       16.92816544      26.78347588      36.13937759
C       16.60179329      27.93233681      36.35764694
O       15.32670212      28.36627197      36.36789322
C       15.29008102      29.77877617      36.62220383
C       16.76894188      30.17677307      36.76568604
O       17.48775101      28.94912529      36.53437805
H       14.76991558      30.27156830      35.78307724
H       14.71370888      29.98880768      37.53252411
H       17.01251602      30.58530426      37.75230408
H       17.06955338      30.90279007      35.99028015
O       16.53064919      27.64309502       1.22630894
C       17.44802666      27.42923927       1.97717106
O       18.57549667      26.71490669       1.65580511
C       19.34700966      26.55519295       2.85910344
C       18.83313942      27.71060562       3.74011421
O       17.50088501      27.88735962       3.25284529
H       19.11985207      25.57229424       3.30426979
H       20.42367935      26.64525986       2.63676643
H       19.42780304      28.62697983       3.58568597
H       18.78972435      27.48736191       4.81330919
O       30.29721451      11.14529896      17.86585617
C       31.46515656      10.95579243      18.06093216
O       32.04015350       9.72465134      18.04773903
C       33.41169357       9.82070255      18.46250725
C       33.71490860      11.31966496      18.34991455
O       32.41596603      11.93033981      18.19206047
H       33.52264023       9.48650932      19.50371361
H       34.01976013       9.18576527      17.80102921
H       34.31500626      11.52776814      17.44897079
H       34.21293640      11.76148415      19.21840477
O       14.19287777       1.74913764      12.12694359
C       14.18379021       1.95970106      13.31634426
O       15.29688358       1.99620950      14.11199093
C       14.91421223       2.05154204      15.49717236
C       13.39060020       2.24799061      15.45352459
O       13.07874107       2.22329545      14.05398655
H       15.20079994       1.11084592      15.98518753
H       15.38480568       2.89454961      16.01700401
H       13.08370590       3.21415067      15.88357353
H       12.84480095       1.43495655      15.95597172
O       33.51761246      18.60921097      36.66919708
C       33.64011383      17.43021011      36.42343903
O       32.80787277      16.72130013      35.63184738
C       33.03072739      15.30119324      35.81149292
C       34.45426941      15.28517246      36.40764999
O       34.66130447      16.63954353      36.87778091
H       32.27209091      14.92202282      36.51247406
H       32.94417572      14.78966999      34.84477234
H       35.20350647      15.02920437      35.64016342
H       34.54301453      14.60854626      37.27096558
O        0.35450658      10.18091679       0.21744034
C        1.22598445       9.57985783       0.79111719
O        2.23134899      10.12440300       1.51366961
C        2.97662759       9.12813663       2.21455526
C        2.43707633       7.80319357       1.61514056
O        1.33130443       8.22053432       0.80131036
H        4.05378675       9.25137806       2.03945947
H        2.77807045       9.20545387       3.29466152
H        2.06858706       7.14015198       2.40997791
H        3.17337203       7.26282454       0.99530482
O       30.99745941      31.86409378      31.70129395
C       31.85112190      32.57678986      32.18403625
O       33.15160751      32.25091171      32.31758881
C       33.84395599      33.28070068      33.05825806
C       32.79355240      34.40754318      33.20528793
O       31.60266304      33.81134033      32.64947128
H       34.16500854      32.87074661      34.02472305
H       34.72072601      33.58732224      32.47231293
H       33.04637909      35.29174042      32.60653305
H       32.57091141      34.69106293      34.24225616
O       34.57446289      15.50321102      12.93678951
C       33.77734375      14.69084454      12.51718712
O       32.50901794      14.97528648      12.18848991
C       31.76803207      13.76358032      11.84777546
C       32.86236572      12.67595100      11.83387280
O       34.04802322      13.36236858      12.37302494
H       30.99938011      13.59427738      12.61790657
H       31.26222229      13.90580368      10.87795067
H       33.10302734      12.24680710      10.84631252
H       32.61783600      11.84645939      12.51123619
O       20.96072197      35.98480606      14.23594952
C       21.19833755      35.73869324      13.06766701
O       20.34651756      35.13657379      12.21374130
C       20.99037170      34.84630203      10.95900154
C       22.36312294      35.53496552      11.09506416
O       22.37536049      36.06255341      12.43950462
H       21.05344582      33.76210403      10.80146503
H       20.39025116      35.24929810      10.13188648
H       22.46998024      36.36287308      10.36942482
H       23.20071411      34.83235550      10.96339607
O       11.21909904      16.16703987      32.39933777
C       10.95725060      14.98519611      32.35675812
O        9.80181313      14.47719002      31.84673691
C        9.74228096      13.05398369      32.07561874
C       11.17362213      12.71511936      32.52584076
O       11.79049587      13.98775387      32.78779984
H        9.00294209      12.82573795      32.85414886
H        9.43365669      12.57784462      31.13148308
H       11.75787830      12.19240093      31.75279617
H       11.18686676      12.10679150      33.43298721
O       28.15464973       0.39242989      16.34748268
C       28.53580666       0.68728018      15.24362183
O       27.74159431       0.89885217      14.16559124
C       28.52400208       1.17949712      12.98932266
C       29.98665619       0.96998775      13.47201347
O       29.86404800       0.81503016      14.90242958
H       28.24141312       0.47908312      12.19002056
H       28.34115028       2.21745753      12.67422199
H       30.61516380       1.84448600      13.24411678
H       30.43917465       0.05960562      13.05189610
O       25.85091400      24.50829124      20.97358322
C       25.74266815      25.50728035      21.63617706
O       25.10048866      25.58418655      22.82923126
C       24.84514999      26.95594788      23.15109253
C       25.90464020      27.69542122      22.32605171
O       26.30914497      26.72313881      21.33936501
H       23.80994225      27.19924545      22.85606194
H       24.94598961      27.11612892      24.22789574
H       26.77581406      27.99048996      22.92924309
H       25.48822784      28.56192780      21.79120064
O        4.58037758       2.28879690       7.12794256
C        5.10847330       3.26756120       6.62456083
O        5.34628105       4.33744812       7.43165112
C        6.04816294       5.34809351       6.65931797
C        6.04999542       4.75382996       5.23349714
O        5.35626841       3.49238658       5.34194231
H        5.49297905       6.28679180       6.75360441
H        7.03939056       5.51873541       7.09511185
H        7.06337595       4.55935001       4.87049055
H        5.48367596       5.38918304       4.53776026
O       17.33414078      12.84339619      36.66268539
C       18.50466156      12.93789673      36.38519287
O       19.11882973      14.07734203      35.98492050
C       20.45691490      13.78353786      35.51136398
C       20.72425842      12.37531376      36.08693314
O       19.39182663      11.90188694      36.39416504
H       20.49583817      13.80155468      34.41055679
H       21.15423584      14.52655983      35.91738129
H       21.33498955      12.43001938      36.99919891
H       21.20301056      11.69922447      35.36459351
O       21.19515419       8.25862789      18.95884132
C       22.39691925       8.34850121      18.79817772
O       23.20479774       7.27834702      18.59889221
C       24.59847641       7.69468307      18.60715103
C       24.52172852       9.22220135      18.69601631
O       23.08374977       9.51030636      18.72349358
H       25.10392189       7.26107121      19.47893715
H       25.08522034       7.31825399      17.69686699
H       24.97191429       9.71099758      17.81689072
H       24.98975945       9.63986492      19.59319878
O       36.29556656       8.35951233      23.40968704
C       36.39402771       9.10448360      22.46761703
O       36.20992661      10.44362450      22.54267693
C       36.11443329      10.96264839      21.19645119
C       36.70640182       9.84176350      20.31468201
O       36.65440369       8.69042301      21.19431114
H       35.05221176      11.15735245      20.96621704
H       36.68033981      11.89961147      21.12625122
H       37.74973679      10.03398609      20.02512360
H       36.12991333       9.62289238      19.40447044
O       21.53039360      20.88217354      36.58495712
C       20.72637367      21.78439331      36.61430359
O       19.38817787      21.62554359      36.68149567
C       18.69424438      22.89895248      36.70084381
C       19.84882545      23.92677689      36.62528992
O       21.05092430      23.10822487      36.56316376
H       17.99771881      22.94136047      35.84391403
H       18.10633469      22.99472046      37.62189865
H       19.88204956      24.56965256      37.51679611
H       19.81409645      24.54843140      35.71106339
O       15.03083897      11.62124920      13.91386604
C       16.11923790      11.71379757      13.39165211
O       16.86394882      10.68080902      12.92717838
C       18.06707382      11.16155052      12.30118465
C       18.09288216      12.65518951      12.67611790
O       16.77544975      12.90211487      13.23177910
H       18.93440437      10.63885975      12.72679901
H       18.02541351      10.99337673      11.21284580
H       18.24010849      13.27531242      11.78272152
H       18.85659027      12.84883118      13.43858337
O       24.66424942      25.41224480      28.56503487
C       25.78223038      25.38191223      28.12197113
O       26.32695389      26.33792686      27.32565308
C       27.71434784      26.03324890      27.07038116
C       27.92021561      24.65046501      27.70505905
O       26.63632774      24.33543968      28.27935219
H       27.88172722      26.03372765      25.98015404
H       28.35726357      26.78885651      27.54396439
H       28.69830704      24.66627693      28.47799301
H       28.18604088      23.88103867      26.96438408
O       21.56366730      29.03796196      28.65914917
C       20.35737038      29.00372314      28.70001984
O       19.65394211      28.64480400      29.80263138
C       18.24207878      28.75388145      29.53421402
C       18.15928650      28.94015312      28.00416374
O       19.52807426      29.23215485      27.64002991
H       17.71235275      27.84644508      29.85616684
H       17.81729698      29.59428787      30.11009789
H       17.52002335      29.78448486      27.70538139
H       17.81287193      28.04109001      27.47202110
O       14.68658352       9.41752052       6.60568476
C       13.58254051       8.97380161       6.81764889
O       12.55656528       9.70029545       7.35400867
C       11.41632271       8.86301804       7.57455826
C       11.91533470       7.44721413       7.19460630
O       13.25921726       7.64479733       6.72848940
H       11.11150360       8.94068241       8.62433147
H       10.56760979       9.18388939       6.95208645
H       11.29850769       6.96230316       6.41693497
H       11.93844318       6.80360985       8.08744907
O       24.43448830      20.23080444      15.65582943
C       23.39796066      20.00030327      16.23068047
O       23.10166740      20.51606369      17.45453835
C       21.78157616      20.10843849      17.86407089
C       21.35539246      19.10774040      16.77612686
O       22.40405464      19.20313644      15.77411270
H       21.86941910      19.65633774      18.85736465
H       21.12029266      20.98541069      17.92040253
H       20.38427544      19.35389709      16.32276344
H       21.31566811      18.07334137      17.15196991
O       23.34880066      10.53171253      28.01439285
C       23.83814430      11.63716984      27.85824776
O       24.98820686      12.00039196      28.47204399
C       25.32933235      13.38107777      28.15982056
C       24.08801079      13.87075043      27.38126945
O       23.31900597      12.64027500      27.13759995
H       25.47336578      13.90037346      29.11451912
H       26.24621582      13.39231014      27.55571747
H       24.32770538      14.30860615      26.40361404
H       23.46230125      14.55675793      27.96901894
O       15.19679451       7.30079508      16.20678711
C       16.27939224       7.82956028      16.11710358
O       16.95862007       8.02160740      14.96442604
C       18.24722290       8.60787010      15.26055431
C       18.30407143       8.65865421      16.78970718
O       16.97533607       8.25424099      17.20376587
H       19.03390312       7.98726273      14.80537701
H       18.28354645       9.62159538      14.83842468
H       18.50148010       9.66627026      17.17001152
H       19.04428673       7.96052790      17.20564079
O       16.77174759      12.40619373      21.10969162
C       17.88078499      12.30405426      20.64425659
O       18.41775513      11.17558289      20.10995483
C       19.75298500      11.44774055      19.62539864
C       19.77562523      12.96729660      19.56866455
O       18.73271370      13.36487579      20.49069023
H       20.49836731      11.04124355      20.32062149
H       19.90178871      10.95812321      18.65380478
H       19.53155708      13.31876183      18.55411530
H       20.72995758      13.40294838      19.87001610
O        6.96554899      17.55092621      11.45043373
C        6.09748077      18.38652802      11.52107811
O        6.20565462      19.52041054      12.29937935
C        5.03407383      20.32043266      12.11941051
C        4.06565094      19.41854477      11.29912090
O        4.83452415      18.24015999      11.01918983
H        4.61691141      20.58704376      13.10202789
H        5.28685379      21.23941803      11.56761646
H        3.72245836      19.88531685      10.36019993
H        3.18319702      19.14870071      11.90176010
O       34.30709457      10.50187206       9.86095238
C       33.59412003       9.52308941       9.83978748
O       32.87800217       9.12231827      10.92785835
C       32.02957153       8.01995087      10.54044247
C       32.50413895       7.64873028       9.10271835
O       33.50858307       8.64460850       8.81303596
H       32.16565323       7.20267725      11.26481724
H       30.97505951       8.33161163      10.56001282
H       31.70597649       7.71629047       8.34711742
H       32.98793793       6.66233349       9.02032566
O       12.87444878      29.36458588      31.27977180
C       13.10579014      29.38570404      30.10304260
O       14.05808163      30.10509109      29.45428085
C       13.89114285      30.00219345      28.02510262
C       12.76694298      28.97820091      27.82256508
O       12.37910271      28.65179253      29.18065262
H       13.60912514      30.98686981      27.62256241
H       14.82513523      29.64787865      27.56861687
H       13.08310318      28.06348801      27.30199242
H       11.90164089      29.39836502      27.28559303
O       20.82527351      29.84980202       6.98061132
C       21.30350113      30.94182396       7.15517044
O       22.29609299      31.17601967       8.05789089
C       22.63329697      32.57405472       8.04413605
C       21.75741768      33.17223740       6.93032074
O       21.02530289      32.04431152       6.40943146
H       22.44807625      33.03932190       9.02203178
H       23.70615005      32.69437408       7.81018209
H       22.36401176      33.59145355       6.11011171
H       21.05298996      33.92392731       7.31483364
O       30.54035950      24.00708008      20.40914345
C       30.26043320      25.09285927      19.96668816
O       29.05955696      25.68471336      20.12274551
C       29.06902885      27.00621986      19.54769516
C       30.53202629      27.17624283      19.05420303
O       31.14728737      25.88563728      19.29192162
H       28.31204033      27.05697441      18.74934196
H       28.79974174      27.73822021      20.32083321
H       31.05360222      27.94222450      19.64133263
H       30.59444046      27.40981293      17.98070526
O       29.34011459      20.26357269      10.85799980
C       28.24498558      20.27511406      10.35130310
O       27.16763687      20.83216095      10.98266983
C       26.02957535      20.77109909      10.10787868
C       26.52421188      20.00247955       8.85852051
O       27.92032623      19.77151489       9.12949848
H       25.19770050      20.27166176      10.62925243
H       25.74729347      21.80881691       9.85889626
H       26.42919540      20.58486557       7.92898989
H       26.01821327      19.03504944       8.72128201
O       17.10100746      18.90441704      33.59843063
C       17.92811203      19.76801682      33.49537277
O       17.70085526      20.98505402      32.94115067
C       18.92597580      21.76304626      32.87447357
C       19.99951744      20.80014992      33.43448257
O       19.24259567      19.66218758      33.88430405
H       19.10414696      22.04287720      31.82028198
H       18.80471039      22.66190910      33.49888992
H       20.54592705      21.23246193      34.28479004
H       20.72925949      20.49723625      32.66340256
O       10.30636311       9.34868050      17.13817215
C       10.96876812      10.36397171      16.98260307
O       12.18923950      10.41819572      16.42136574
C       12.63030624      11.79774857      16.36475945
C       11.46603298      12.60288811      16.98259544
O       10.51379299      11.57004642      17.36705971
H       13.54481697      11.91454697      16.96460724
H       12.86871624      12.06008530      15.32385826
H       10.95734787      13.26175976      16.26408005
H       11.74365997      13.15046406      17.89090538
O       22.45229530      26.42466545      31.43246841
C       22.43233299      25.25414085      31.15022469
O       23.16658783      24.30682373      31.80615234
C       22.90201378      23.01317978      31.23082352
C       21.87113953      23.27208328      30.12303543
O       21.68814278      24.70095253      30.15779495
H       23.83360863      22.56486511      30.85081673
H       22.50176430      22.36169624      32.02212906
H       20.90157509      22.78602600      30.31245422
H       22.22180557      22.95403481      29.13153839
O        7.02421761       2.95173883      27.36187553
C        6.45231438       3.47993803      28.28994370
O        5.41193724       4.33883905      28.14593124
C        4.90271854       4.76167727      29.42186737
C        5.85064268       4.08413935      30.42759895
O        6.73197556       3.30795979      29.60461044
H        4.93810368       5.85708094      29.49109650
H        3.87161136       4.39843988      29.52347183
H        5.28605461       3.43235636      31.10235786
H        6.41488552       4.80529499      31.03491211
O       20.99889565      15.73056126      22.07314301
C       21.07991219      16.90244484      21.80621529
O       22.22972679      17.62270737      21.91239166
C       21.97333336      18.99985504      21.56376457
C       20.47680664      19.02352905      21.14190102
O       20.07144928      17.64001465      21.28410339
H       22.17454910      19.63205147      22.44170380
H       22.66139793      19.27293777      20.74767876
H       20.29619980      19.31394577      20.09530258
H       19.86048508      19.64982986      21.80360031
O       27.32238197      30.88815498      33.43911362
C       26.19786072      30.42035484      33.34408951
O       25.64908409      29.97976112      32.20532990
C       24.29448700      29.49808502      32.43957520
C       24.11965942      29.73397255      33.95870209
O       25.38212585      30.28145409      34.39833450
H       23.60043335      30.08886528      31.82554245
H       24.21460724      28.44783401      32.12084198
H       23.94605827      28.79842377      34.50551987
H       23.32635689      30.45607758      34.21182632
O       20.45076942       2.89362335      24.09303856
C       20.43059349       4.08726358      24.28321075
O       19.31023216       4.84493446      24.37590599
C       19.65152359       6.23264599      24.55952644
C       21.16485596       6.20017099      24.83423042
O       21.55096436       4.85379410      24.45768166
H       19.40115166       6.78485203      23.64347839
H       19.08761406       6.67408085      25.39042854
H       21.42409515       6.38210154      25.88199615
H       21.70578384       6.89185524      24.16983604
O       14.72134972      17.95808983       0.93495572
C       13.85694695      18.74216843       1.24993634
O       13.63183880      19.16670609       2.53595686
C       12.45649052      20.00397491       2.58153248
C       12.29147243      20.41877174       1.10194468
O       13.01401711      19.38863754       0.38124046
H       11.58846760      19.41673279       2.91610003
H       12.60828972      20.82615280       3.29303265
H       12.76044559      21.39955139       0.90780729
H       11.24404812      20.40447998       0.75983518
O       19.50245667      13.69270134       9.16026688
C       18.98555565      13.67967415       8.06752110
O       19.16245079      12.70338440       7.12467718
C       18.36833572      12.98989296       5.93594027
C       17.47312355      14.16393948       6.39116001
O       18.13650513      14.63237095       7.59611845
H       19.03600311      13.29555607       5.11153126
H       17.79024696      12.09759808       5.66123724
H       16.45439720      13.83040047       6.64657688
H       17.44589043      14.97803402       5.65154791
O        6.78948545      33.25311661      19.08974838
C        7.97319889      33.20132446      19.34565163
O        8.93118858      33.94205093      18.74031639
C       10.23565006      33.41302872      19.09166718
C        9.93624878      32.60918045      20.36641502
O        8.51325607      32.40903854      20.30637550
H       10.60192204      32.78272247      18.27158928
H       10.95047951      34.23051453      19.24985886
H       10.21826363      33.13524628      21.29517174
H       10.44768047      31.63699341      20.34663200
O        5.36347532      16.63035011      33.01431274
C        6.09748220      16.75791168      32.04508209
O        5.95551395      17.75447273      31.14916229
C        6.88796377      17.56243896      30.05909920
C        7.69634151      16.32309532      30.46612358
O        7.04940128      15.88587570      31.68663406
H        6.32459259      17.40989494      29.12285805
H        7.52606821      18.45158195      29.96298409
H        8.75080776      16.55471802      30.66113853
H        7.64834785      15.51645088      29.72088814
O       33.19814301      18.71109200      32.20542908
C       32.27547836      18.54347610      32.96754074
O       31.84777641      19.47792244      33.86090088
C       30.77144241      18.93714523      34.66490936
C       30.41961479      17.63217354      33.92568207
O       31.53144836      17.42245293      33.02973938
H       31.11095238      18.76334190      35.69731903
H       29.98025703      19.69906616      34.68693161
H       29.50457001      17.68978882      33.31025696
H       30.35685158      16.79503822      34.63565445
O       17.90120697       3.66658688       9.67510700
C       18.92288780       3.06878448       9.90892982
O       18.97845078       1.80384839      10.35823631
C       20.32790947       1.42665374      10.66628456
C       21.17118263       2.57967043      10.10220623
O       20.18496132       3.57222509       9.75770378
H       20.44746017       1.31213844      11.75419807
H       20.55504608       0.46271816      10.19108868
H       21.74480057       2.28486705       9.20646954
H       21.87178040       2.97291732      10.84628391
O       35.45866776      33.90137482      29.45147514
C       34.34294891      33.50296402      29.21617889
O       33.22255325      34.25478745      29.39197350
C       32.02684784      33.49289703      29.06711960
C       32.58408356      32.08029175      28.75552177
O       34.02939987      32.26047134      28.77680206
H       31.33141327      33.52074814      29.91603279
H       31.52590370      33.92923355      28.19210815
H       32.26796341      31.69258308      27.77594948
H       32.28923416      31.36500931      29.52871513
O       22.99444199      20.37010956      29.23070335
C       24.16333961      20.08376503      29.19886971
O       25.17346954      20.98008347      29.06118965
C       26.46553421      20.34424973      29.14635086
C       26.11127663      18.85929108      29.34470558
O       24.66392708      18.82734108      29.25167084
H       27.02520370      20.52175903      28.21205521
H       27.01282310      20.74722481      30.00874138
H       26.41621017      18.53558922      30.34764099
H       26.54908943      18.17935371      28.59806442
O       22.49875450      13.35091305       8.44070053
C       22.22005272      14.15420818       7.56830692
O       21.40074158      15.21332932       7.69897842
C       21.38476944      15.97980690       6.45942307
C       22.43438721      15.29164314       5.56792879
O       22.73539352      14.06265354       6.30602837
H       20.37003899      15.93864155       6.02991438
H       21.63734627      17.01902580       6.70643520
H       23.35593605      15.88179398       5.48863649
H       22.06177330      15.02098846       4.57146454
O        8.34600639      15.51345444      23.57579994
C        8.36742401      14.87224483      22.52970886
O        7.27638245      14.45059299      21.87463188
C        7.64451408      13.62868214      20.73819542
C        9.19655704      13.73627377      20.70666313
O        9.50518799      14.55875969      21.85832405
H        7.30061054      12.60275364      20.91743279
H        7.16478443      13.99312782      19.81942177
H        9.54186821      14.22802353      19.78166389
H        9.69656467      12.76380730      20.81761551
O       21.01007271      32.36842346       2.59196782
C       20.77952576      33.49708939       2.93508053
O       21.74276161      34.36118698       3.39614534
C       21.13483620      35.59843445       3.82349825
C       19.62654305      35.41026306       3.49719739
O       19.56410789      34.08437347       2.94245315
H       21.31546021      35.74505234       4.90028095
H       21.57709885      36.42420578       3.24623847
H       19.27297592      36.13637161       2.74648261
H       18.98644829      35.45928192       4.38924980
O        2.68993926       7.07358789      22.47826195
C        3.09549761       7.05904627      21.34122086
O        2.30933475       6.89948750      20.25082397
C        3.11447501       6.80349445      19.06268501
C        4.56939888       6.87262249      19.59553909
O        4.40989971       7.17152977      20.99146461
H        2.90100861       5.85618067      18.54653168
H        2.88791800       7.65005636      18.38978958
H        5.13751698       7.68998241      19.11888313
H        5.12022209       5.93189287      19.45441818
O        1.44641256      24.25246620       0.31577256
C        1.51554060      25.35680771       0.79406255
O        2.66868734      25.96284294       1.17681241
C        2.39221573      27.18610573       1.88829243
C        0.83675528      27.30662346       1.80588722
O        0.44502544      26.15414238       1.05085504
H        2.76178384      27.11743736       2.92199254
H        2.88732672      28.02075958       1.36560559
H        0.52877116      28.20914650       1.25050700
H        0.35894889      27.28814697       2.79922652
O       31.98943520      23.66186905      28.64800262
C       31.54920769      22.78841782      29.35751724
O       32.21882629      21.66005135      29.71266747
C       31.33186340      20.77052307      30.43684196
C       30.15598869      21.69588470      30.81894112
O       30.30005646      22.79891968      29.89912033
H       31.06204796      19.92495346      29.78198814
H       31.85988998      20.36452103      31.30988312
H       30.20269203      22.06607628      31.85675621
H       29.15646935      21.25715446      30.66538620
O        0.64389092      22.26604271      33.02704620
C        1.22613668      21.20560074      32.99772263
O        0.80921078      20.09813118      32.33005524
C        1.64255178      18.97242355      32.69473648
C        2.85871863      19.63076401      33.37391663
O        2.40880251      20.97323418      33.63118362
H        1.08903575      18.32106400      33.38701630
H        1.89772844      18.40291595      31.78811455
H        3.74469352      19.62441063      32.72126389
H        3.11826229      19.13447189      34.31810379
O       33.22119141      11.74624634      29.16669083
C       34.14545059      12.47082520      28.89497948
O       35.28365326      12.05145645      28.29022217
C       36.16632462      13.16057682      28.10578156
C       35.40954971      14.35252380      28.72675133
O       34.21002197      13.77098656      29.28212547
H       37.11564255      12.96983528      28.62586403
H       36.37586212      13.30123043      27.03163910
H       35.12077713      15.07983208      27.94862556
H       35.95593262      14.85951519      29.53121185
O        6.30740833      15.15163708       8.63868237
C        7.47076559      15.45669460       8.50326824
O        7.94842958      16.70990562       8.45616722
C        9.39198780      16.70089340       8.52462769
C        9.74305534      15.20521545       8.42184925
O        8.47232437      14.53729439       8.34857178
H        9.79549694      17.29006577       7.68483782
H        9.70872021      17.17136574       9.46453094
H       10.28981304      14.86021423       9.31026268
H       10.35840893      14.94472694       7.54075098
O       29.39929199      12.39297485      33.56248856
C       29.35505486      12.30122757      32.35948563
O       29.89723396      11.26212406      31.64175606
C       29.41851234      11.29359341      30.28217888
C       28.67391014      12.62798119      30.17824936
O       28.61825371      13.10857773      31.54371262
H       30.24948311      11.18214703      29.56709099
H       28.71717644      10.45549870      30.15817070
H       27.64459038      12.47403049      29.82279205
H       29.19699287      13.34801006      29.53392792
O       18.32488823       3.54433250      33.87010193
C       19.27198792       4.30320168      33.74872208
O       19.74850273       5.06479359      34.74602890
C       20.85220528       5.85574102      34.28179550
C       21.02795029       5.41354704      32.80568314
O       19.95185471       4.46561956      32.61490250
H       20.58196259       6.92088699      34.38281250
H       21.72924042       5.63601017      34.90944290
H       21.97736549       4.90333033      32.60578156
H       20.88414192       6.24426460      32.10084915
O       16.72656059      31.71260262       1.91458154
C       16.43021011      31.74093819       3.07799149
O       15.26083279      32.26593018       3.56133223
C       15.18968010      32.13397598       4.98653316
C       16.40082741      31.24456024       5.31810570
O       17.18494797      31.27674103       4.10950279
H       15.24661446      33.12137604       5.47503424
H       14.22699070      31.66888237       5.25198555
H       16.07858849      30.20573616       5.50670576
H       16.98425102      31.60778427       6.17173481
C       17.50494194       4.32228231      15.53605938
O       18.77910805       4.84299374      15.05846977
C       19.52297020       5.38989687      16.02705002
O       19.17640305       5.62253428      17.17685318
O       20.74503899       5.66959429      15.50807190
C       21.65657425       6.18992186      16.50018311
H       16.99908829       5.04972792      16.18213463
H       16.90662384       4.10109329      14.64259243
H       17.68705177       3.42105150      16.13837814
H       21.16448212       6.98569918      17.07459450
H       21.93615341       5.39818573      17.20752907
H       22.54103088       6.54929352      15.95682716
C        1.69860375      15.39634800      24.02695084
O        2.03313112      14.05182266      23.71403122
C        3.34790444      13.87583447      23.39222717
O        4.12522125      14.76067638      23.06296158
O        3.60316730      12.55324459      23.45018387
C        4.96838570      12.16451645      23.31401253
H        1.67964756      16.01228714      23.11453056
H        0.70930821      15.36937523      24.49932671
H        2.43106222      15.82122993      24.72604370
H        5.15586901      11.74076653      22.31518173
H        5.60727596      13.04378796      23.45317650
H        5.15634584      11.40773582      24.08349419
C       33.30698013       7.63483572      14.60294342
O       34.57164383       7.03701925      14.96966457
C       34.93611908       5.98385859      14.22614861
O       34.23643112       5.36850500      13.44476700
O       36.24481201       5.68579054      14.49914074
C       36.77894974       4.51913977      13.85822010
H       32.60256577       6.88545084      14.21645260
H       32.86702347       8.09094238      15.49713326
H       33.46457672       8.39480019      13.82411003
H       35.96786880       3.81175661      13.64659691
H       37.28033829       4.77178144      12.91250706
H       37.50473785       4.08116817      14.55692005
C       30.99382591      33.39383698      14.58076000
O       32.05567551      33.07287598      15.49755573
C       31.93616676      33.60655975      16.71893692
O       31.05189514      34.36790466      17.08878517
O       32.95076370      33.17691422      17.50051117
C       32.90709305      33.62215424      18.85735893
H       31.20340729      34.34030151      14.06466484
H       30.90686226      32.55108643      13.88156414
H       30.04290390      33.46887589      15.12133598
H       32.95543289      34.72033691      18.93213463
H       31.99214554      33.28626633      19.35723877
H       33.76555252      33.16737747      19.36688232
C       19.15977669      25.73660851      31.97509193
O       19.07153320      26.89394188      32.82152557
C       19.93648720      26.90354347      33.85297394
O       20.77601051      26.05634117      34.10688019
O       19.71593475      28.01503372      34.58221817
C       20.58386421      28.21221924      35.69736862
H       19.66498184      24.92326164      32.50918961
H       18.13473701      25.45210075      31.70969200
H       19.73697853      25.97271156      31.07040977
H       20.86002350      27.25181198      36.14665222
H       21.48960876      28.74319649      35.37822342
H       20.02664948      28.80582619      36.42842865
C       18.83007050      15.92662621      14.46697903
O       19.61535454      16.91329956      13.77507782
C       19.19209671      18.19095039      13.98970890
O       18.31044579      18.51440239      14.75953484
O       19.87914085      19.02167130      13.19204426
C       19.35513687      20.36477280      13.14348412
H       17.84334183      15.81504631      13.98774529
H       19.39029694      14.98286915      14.39093399
H       18.64983749      16.19971848      15.51351738
H       18.49779129      20.40083313      12.45134735
H       19.00969124      20.71460724      14.12262440
H       20.17141342      20.98213577      12.75431061
C       24.92462158       4.01299000      15.65704632
O       24.99722099       3.30214143      14.40540314
C       25.48753929       4.02373219      13.37827873
O       25.68500328       5.22911215      13.40892601
O       25.65704727       3.22345495      12.30061245
C       26.20473862       3.85464382      11.12896633
H       24.35305214       4.94440079      15.54879475
H       24.42523384       3.35409689      16.37491417
H       25.92023468       4.26437616      16.04889679
H       25.71913147       4.81747866      10.93694305
H       27.28014946       4.03573370      11.24679470
H       26.00779152       3.17028189      10.29449940
C       18.56400490      12.99579716      16.30175972
O       19.27075386      11.74054432      16.42157745
C       20.27486801      11.53326321      15.55526257
O       20.53055382      12.20593929      14.57334995
O       20.90289879      10.38863945      15.91158676
C       22.14550781      10.13346291      15.20246696
H       17.93817139      13.01854897      15.40131283
H       17.89433861      13.05170059      17.16785622
H       19.27967262      13.82739162      16.27417755
H       21.99878311      10.19561481      14.11493969
H       22.90761185      10.85880852      15.50960255
H       22.44882965       9.12178230      15.49367714
C        6.66376400       2.64340305      10.58930874
O        7.89945650       3.31378746      10.23994827
C        8.99884796       2.77320409      10.81848526
O        8.96611023       2.03903270      11.78777981
O       10.10697556       3.12942505      10.13467598
C       11.22257805       2.25047398      10.40437889
H        6.28565884       2.99151039      11.56225300
H        5.98797369       2.86057401       9.75690365
H        6.83833122       1.56411624      10.66037273
H       11.86379528       2.60996056      11.21511841
H       10.83908939       1.26765668      10.68456459
H       11.80560875       2.14138651       9.48539352
C       31.33200264       6.05167866      25.78851700
O       31.18612099       5.04598379      24.76630402
C       32.32444382       4.41890383      24.40891266
O       33.39757156       4.52493000      24.97307014
O       32.08387375       3.69262862      23.29633713
C       33.18681717       2.87312365      22.87112236
H       31.97578621       6.87252235      25.44330215
H       30.32543945       6.42489719      26.00118256
H       31.76260567       5.65750885      26.71628571
H       34.02210999       3.48189449      22.50885201
H       33.55875778       2.27910256      23.71274376
H       32.80333710       2.23627186      22.06777382
C        1.18280792      18.69299316      37.02241898
O        1.35674310      17.63714790      36.06095505
C        2.04282999      16.55504417      36.47737885
O        2.63693118      16.43333054      37.53171921
O        1.96685266      15.61000919      35.51131439
C        2.55630660      14.34164524      35.86126709
H        2.10593367      18.87501526      37.58884430
H        0.88601154      19.57359314      36.43990326
H        0.38392326      18.42678452      37.73016357
H        3.62236667      14.47224045      36.08880234
H        2.04499507      13.92749023      36.73891068
H        2.39793754      13.68193150      34.99912262
C       14.27674770       3.65389156       7.14403057
O       14.05748653       4.36431789       5.91272593
C       15.04261971       5.25103903       5.58059692
O       16.05873489       5.43287039       6.21057081
O       14.68711090       5.84378672       4.41434431
C       15.52623749       6.93360806       4.00357676
H       13.51308250       3.94117045       7.87827873
H       14.18978882       2.57896399       6.94242430
H       15.25317764       3.89323211       7.57661915
H       15.00347710       7.87963009       4.18521547
H       16.45352173       6.92829227       4.59051466
H       15.73909664       6.80484867       2.93371868
C       30.97620392      11.39221668      15.16243076
O       29.64246559      10.88362408      15.01612091
C       28.91129875      11.42484283      14.03279781
O       29.24909782      12.35555744      13.32019138
O       27.72095108      10.80273151      13.95989227
C       27.10266304      10.92325211      12.66969490
H       31.00964737      12.27654648      15.81080723
H       31.56570816      10.58227825      15.60829926
H       31.36864281      11.65351391      14.17371845
H       26.37192726      11.74568462      12.66940022
H       27.86986732      11.08806419      11.89537907
H       26.58321190       9.97982597      12.46850586
C        3.73034978      23.89263916      35.65741348
O        4.69999361      24.96895027      35.63890839
C        5.72253847      24.83089447      36.49971771
O        5.79082584      24.02058983      37.40486145
O        6.69450378      25.72964859      36.18751144
C        7.97092867      25.49711418      36.82781982
H        2.85613060      24.16257286      36.26003647
H        3.43271446      23.68760300      34.62474823
H        4.18346405      23.00228119      36.10546494
H        8.09652996      26.11659813      37.72341919
H        8.02469921      24.45333481      37.15120697
H        8.75197983      25.72493553      36.09282684
C       27.83461571       7.84195900      22.86142349
O       26.46574211       8.02041054      22.43827629
C       25.77211571       6.88275051      22.25862312
O       26.23943901       5.75688505      22.33037376
O       24.48311806       7.17852831      21.98431015
C       23.59168816       6.04450226      21.89795494
H       28.49180794       7.62100792      22.01226044
H       28.11980629       8.77787113      23.34979820
H       27.89069557       7.01309013      23.57430649
H       23.50340271       5.69202900      20.85989952
H       23.94264793       5.21492434      22.52757454
H       22.62201500       6.39431095      22.26960564
C        3.77982283      11.08674812      30.06630707
O        2.84410167      12.06356335      29.61289787
C        2.95571518      13.31532097      30.08447647
O        3.82983232      13.74301434      30.84700584
O        1.88247836      13.99792194      29.67493820
C        1.81927609      15.38450241      30.04403877
H        3.18280292      10.22001648      30.38742065
H        4.45336342      10.78742123      29.25393295
H        4.36845398      11.47103310      30.90820885
H        1.25321782      15.50484657      30.98351669
H        2.83263779      15.81050396      30.12485695
H        1.26591027      15.87628269      29.23357964
C       36.80269241      13.32649326      32.05604172
O       37.03971863      14.45114231      32.90868378
C       36.29674530      15.57593346      32.63673401
O       35.69654846      15.83656788      31.61801529
O       36.43722534      16.38169670      33.72279739
C       35.83782196      17.67436218      33.57686996
H       37.68789291      13.13315964      31.42895317
H       36.59038162      12.46895599      32.70988846
H       35.92232895      13.50004768      31.42317963
H       36.17683411      18.16631126      32.65388107
H       34.74358368      17.60194588      33.51897430
H       36.11676788      18.25561333      34.46334839
C       23.09413338      35.79273987      27.81761742
O       24.15925407      36.11341095      26.90797615
C       25.39370728      36.12467575      27.47068977
O       25.68621826      35.65483475      28.55381012
O       26.28513336      36.61046982      26.57286835
C       27.59760284      36.78464508      27.13684082
H       23.40155220      35.93520737      28.85979080
H       22.25702858      36.46846771      27.60435295
H       22.76319695      34.75751877      27.66837692
H       27.54419518      37.38946915      28.04989815
H       28.03014755      35.81195450      27.39124298
H       28.20162773      37.29067993      26.37662888
C       14.15251827      10.06313610      10.10003090
O       15.40818501      10.76676750      10.14468288
C       15.41181660      11.95918655       9.49129581
O       14.54220676      12.40924454       8.78066349
O       16.55360603      12.60359764       9.84076595
C       16.34581184      14.02789307       9.95138264
H       13.40594578      10.69006443       9.59111118
H       14.26852608       9.12664604       9.53977776
H       13.83189201       9.87568378      11.13130474
H       15.80129623      14.36163807       9.05458736
H       15.73669338      14.22991848      10.83967304
H       17.32577515      14.51282024      10.03586102
C       21.38140297      17.61990738       9.56110668
O       21.22839355      18.81881142      10.34262943
C       21.70489311      19.91709137       9.74794769
O       22.13572311      20.01876450       8.61230087
O       21.60472488      20.91866302      10.66147232
C       22.08885765      22.16376495      10.16127014
H       22.33200455      17.62815475       9.01278591
H       21.35309982      16.79503059      10.27768040
H       20.56733704      17.52513123       8.82891369
H       22.95698929      22.00194168       9.51079845
H       21.30934525      22.67491150       9.57370949
H       22.37506676      22.75176239      11.03934383
C        7.65466356      18.49689865      15.59495068
O        7.02868891      17.45529556      14.83814430
C        5.69030142      17.39866829      14.85886478
O        4.91411114      18.20425797      15.34844303
O        5.34412527      16.25057411      14.21842194
C        4.06482267      15.69334126      14.51614952
H        8.34352970      18.04633522      16.32003784
H        8.19483566      19.15993881      14.90728283
H        6.91484547      19.08237839      16.15146255
H        4.17516422      14.96605206      15.33301830
H        3.35289550      16.46915054      14.82686615
H        3.68804336      15.18990803      13.61603928
C       31.40006065      17.59348488      10.29511356
O       30.42504120      17.42723274       9.25417709
C       29.60306168      16.37614059       9.44622421
O       29.81415558      15.46751022      10.22160816
O       28.53979683      16.46631432       8.62094593
C       27.52455139      15.49296474       8.88768864
H       31.95430756      16.66749954      10.46505356
H       32.06610489      18.40035439       9.97427273
H       30.91408730      17.86687279      11.24051666
H       27.98075867      14.51623058       9.10325909
H       26.92788887      15.77936745       9.76222038
H       26.87707138      15.42191219       8.00202370
C       27.18583870      31.97043419      28.82636833
O       28.14093208      32.43618774      27.83861160
C       28.68197441      31.50529480      27.04310226
O       28.47970009      30.30770874      27.09399414
O       29.52099800      32.10338974      26.16711807
C       30.26164436      31.19032860      25.32979012
H       27.66305923      31.28309059      29.53751945
H       26.78603363      32.85853958      29.32868195
H       26.36709785      31.42263222      28.34463692
H       31.02423668      30.66681671      25.92020988
H       29.60918617      30.43305016      24.88093567
H       30.72247124      31.78411865      24.53428078
C       12.94527626       6.63351583      24.98952103
O       12.35311890       7.13748264      23.78322029
C       13.16620445       7.14197397      22.70448685
O       14.33578873       6.80862617      22.71457863
O       12.49183846       7.57422066      21.63697052
C       13.31817722       7.75425482      20.45641518
H       13.81769848       7.22511816      25.28819084
H       12.18087196       6.70377350      25.76957512
H       13.25494003       5.59076166      24.85970879
H       14.02540779       8.56781292      20.63638878
H       13.87686539       6.84101963      20.22083855
H       12.64995098       7.99953556      19.62421417
C       23.96819687      28.90489197      17.90721321
O       24.64529800      28.12223816      16.88694572
C       25.32169151      27.07734489      17.44263077
O       25.42163277      26.88978767      18.63867188
O       25.83594131      26.29908943      16.46401024
C       26.61839104      25.18705368      16.96188736
H       24.67932320      29.46843719      18.52515602
H       23.27556038      29.56635857      17.36847115
H       23.38716507      28.24857330      18.56792450
H       27.63595200      25.49731445      17.22680092
H       26.15834236      24.78256226      17.87254906
H       26.63775635      24.42486000      16.17446709
C       13.14727020      16.15797424       3.93083763
O       11.85276508      16.78252029       3.87288547
C       11.40969086      16.95655060       2.59693909
O       12.06823730      16.79231071       1.59076416
O       10.12644100      17.40806389       2.63613081
C        9.53054810      17.50067902       1.33159363
H       13.87520695      16.74022865       3.34700465
H       13.41056919      16.09630013       4.99145699
H       13.08830166      15.15680790       3.48738670
H       10.29603958      17.72924995       0.57898539
H        9.04288960      16.55486298       1.05856121
H        8.76542854      18.28054237       1.40027595
C       30.53157806       2.22693110      18.78962326
O       30.52770805       3.55071688      19.35216904
C       31.24870872       4.46212816      18.65626717
O       31.95191383       4.25628805      17.67872620
O       31.07585526       5.65649509      19.28953743
C       31.62719727       6.78980970      18.60633469
H       31.50982857       1.97104907      18.36351395
H       30.26499176       1.57039487      19.62255859
H       29.76991081       2.12685847      18.00420761
H       32.54323196       6.52720642      18.05851364
H       30.90808296       7.22271442      17.89145279
H       31.81360817       7.54367685      19.38111305
C        3.27853775      26.19869041      29.85440826
O        4.55284119      26.86793327      29.84502983
C        4.76267433      27.74997902      28.84149551
O        3.94906092      28.12485886      28.01335907
O        6.05689716      28.12595558      28.95076561
C        6.56633615      28.94625282      27.86786461
H        3.36267996      25.21722984      29.37535858
H        2.97745419      26.07240295      30.89705276
H        2.53361845      26.79559135      29.31183624
H        7.22794676      28.34152985      27.23003769
H        5.72013998      29.31445122      27.27480125
H        7.10958719      29.77682495      28.33580017
C       14.61359024      12.33114910       2.18802071
O       14.10004520      12.43199444       3.52963662
C       12.80741501      12.84947872       3.57366180
O       12.16505146      13.25331879       2.61790800
O       12.41767025      12.90580273       4.88020945
C       10.99491882      12.97690487       5.03828812
H       14.69574070      13.32151699       1.72739899
H       15.59239864      11.84629917       2.26871848
H       13.95143223      11.73236752       1.55084765
H       10.64317513      14.01528263       5.11088419
H       10.50393295      12.51106453       4.17281342
H       10.72773266      12.42628002       5.94672871
C       29.48872375      32.28680420      21.44573402
O       30.91935158      32.16427612      21.57574081
C       31.48117638      31.20021820      20.81386185
O       30.96347046      30.60225487      19.88758087
O       32.76261902      31.04110909      21.24909973
C       33.43959808      29.90148735      20.68910217
H       29.13384247      31.63353348      20.64027214
H       29.00786972      31.98548508      22.38269234
H       29.24775124      33.33352661      21.21793175
H       32.70940399      29.20161057      20.27134705
H       34.13386917      30.18675995      19.88754272
H       33.97734070      29.42507362      21.51645660
C       18.32980919      26.48379326      17.69765282
O       19.47861481      26.45421219      16.84010124
C       19.46724319      27.26909256      15.75668716
O       18.59779358      28.05054283      15.45567131
O       20.59412575      27.00906563      15.03295517
C       20.89776421      27.97710419      14.02330112
H       17.47789764      26.91370010      17.15119934
H       18.10097694      25.44024277      17.96462059
H       18.51316833      27.05699539      18.61453247
H       19.98292732      28.31616783      13.50619125
H       21.37915802      28.84209442      14.49216843
H       21.59753036      27.50841331      13.32070160
C       10.59508610      29.84818268      16.21728516
O        9.27839470      29.99052048      15.66265678
C        8.42074013      30.67231178      16.46378708
O        8.68903542      31.20350838      17.52943802
O        7.19829130      30.62335014      15.88319111
C        6.12511826      31.10118294      16.71641159
H       10.77212715      28.79422379      16.46984482
H       11.34821987      30.17453194      15.48069286
H       10.69841385      30.45856285      17.12339783
H        5.54365349      30.24207687      17.06936836
H        6.48888350      31.68558311      17.57396317
H        5.49036789      31.75190353      16.10545349
C       32.33603668      16.57364273      26.99726868
O       32.86430359      17.63055038      26.14837456
C       32.99330139      18.79011536      26.84516716
O       33.12158966      18.90833282      28.04420471
O       32.92581940      19.81471252      25.94517708
C       32.86509323      21.12498474      26.56631279
H       31.56674194      16.97924423      27.66216469
H       31.90653038      15.82148075      26.32829285
H       33.12996292      16.12559319      27.60314369
H       31.82854462      21.39335823      26.81428528
H       33.44380951      21.16455841      27.49776459
H       33.27002335      21.81824112      25.81508636
C        8.89111710      36.53637695      21.31627846
O        7.85915518      35.53990936      21.46750832
C        8.11519814      34.60489273      22.40330887
O        9.12893391      34.52301025      23.07601929
O        7.06581593      33.76872253      22.46039772
C        7.23137045      32.62156677      23.29652023
H        9.87792873      36.06033707      21.29556274
H        8.68290043      37.02756500      20.36160088
H        8.85365963      37.25075150      22.15124893
H        8.23338127      32.19903183      23.17609215
H        7.06129551      32.86690903      24.35433769
H        6.48349953      31.90120506      22.94715691
C       25.37731361      20.00165558      22.76068497
O       25.21784973      19.46165085      21.43694878
C       25.15312195      18.09753990      21.37645912
O       25.15727425      17.36020279      22.33362961
O       25.05426025      17.75967598      20.06572151
C       25.03512192      16.34746933      19.81850433
H       26.32201385      20.57045364      22.82156563
H       24.52849197      20.67067528      22.97348785
H       25.39719582      19.16694069      23.48101807
H       25.93381691      16.04887199      19.26752663
H       25.03645515      15.81204510      20.77601624
H       24.12989044      16.10060310      19.24392509
C       18.27276039       6.73668814       9.81406689
O       17.56774902       6.39045286      11.02987957
C       16.28749084       6.00601244      10.78807545
O       15.69815540       6.08621311       9.73484898
O       15.75799942       5.53667068      11.94996643
C       14.43070698       4.99101686      11.81913185
H       17.72173691       7.49311829       9.24395180
H       19.25363731       7.09755802      10.13800240
H       18.38339043       5.83925915       9.19352913
H       13.71916103       5.72655392      11.42273140
H       14.42233944       4.11571741      11.16052723
H       14.11605644       4.68447113      12.82323742
C       32.59781647      18.21732903      17.10198975
O       31.83854675      17.03097534      17.44546890
C       30.49898338      17.22388649      17.72351074
O       29.99715424      18.32433701      17.82921982
O       29.89980698      16.04363251      17.84817123
C       28.44683266      16.15575600      17.90657997
H       33.00109100      18.66821861      18.01656914
H       33.40804291      17.89717865      16.43199730
H       31.95402145      18.93729401      16.58516884
H       28.10845184      16.58366585      18.85747337
H       28.10160446      16.78663254      17.08182526
H       28.06600761      15.13328838      17.82354546
C       25.29139900      28.48059845       7.78602123
O       25.52752113      27.54877853       8.85314465
C       25.54128647      28.05947113      10.09244919
O       25.54327011      29.23541832      10.42649555
O       25.60719681      27.02089119      10.95487976
C       25.55294418      27.34069252      12.34396839
H       26.21181107      28.63580704       7.20392323
H       24.51668549      28.04085350       7.14214993
H       24.92516899      29.43483543       8.18678093
H       26.47987175      27.79749680      12.70557308
H       24.72428131      28.03309250      12.54202271
H       25.35091782      26.39826965      12.86664391
C       36.37987137      27.08868599      16.49693298
O       36.65192795      25.73584938      16.92383385
C       36.43921280      24.80261803      15.97617245
O       35.94344711      24.97668266      14.87339211
O       36.86629486      23.61082268      16.45967102
C       36.82149887      22.54085732      15.48822403
H       35.31121063      27.31921768      16.55848503
H       36.93018341      27.71947479      17.20100212
H       36.74213028      27.23813629      15.47317314
H       35.79235458      22.31962013      15.18205547
H       37.40694427      22.79006767      14.59165096
H       37.24776077      21.67483902      16.00134277
C        2.28918552      25.09278679      16.23255539
O        2.34087658      26.39843178      15.63918209
C        3.08154988      26.47598076      14.50492764
O        3.51646280      25.53289604      13.87396812
O        3.19885659      27.78316689      14.17305374
C        4.07994270      28.04701424      13.06210232
H        3.15013170      24.94261551      16.89201736
H        1.36326373      25.04033661      16.81384087
H        2.27645588      24.32090378      15.45456219
H        4.97046757      28.56120300      13.43424606
H        4.38575029      27.10463905      12.59255123
H        3.53711081      28.67397690      12.34298038
C       37.18033981      12.56184387      10.67933941
O       36.65966797      12.83928108       9.37948418
C       36.78247833      11.82088852       8.48654366
O       37.41334915      10.80203533       8.70728588
O       36.16243744      12.14915562       7.33709002
C       36.16057587      11.12533569       6.32755184
H       38.16028214      13.03761482      10.83123398
H       36.48271561      12.94391155      11.43133545
H       37.27093887      11.47687531      10.81683731
H       36.74482346      11.44965744       5.45573282
H       36.57592773      10.19755936       6.72978592
H       35.12295532      10.92885590       6.03269720
C       29.14934921      28.65992546      30.80100250
O       28.37814522      27.87389755      31.72435570
C       27.66981316      26.87557983      31.13844299
O       27.58481598      26.66022491      29.93754578
O       27.06188965      26.18195724      32.12041855
C       26.50832748      24.92728043      31.66947556
H       28.50674057      29.19281197      30.08945465
H       29.71187973      29.35929489      31.42654800
H       29.83057213      28.03240776      30.21670914
H       25.72640800      25.07742119      30.91209984
H       27.27818680      24.28161621      31.23165703
H       26.08470154      24.45991898      32.55898666
C       20.31624794      26.95990944       7.26212120
O       20.95323563      25.66729927       7.24017143
C       22.11751938      25.68629265       7.91343594
O       22.52693939      26.60421753       8.60161114
O       22.77294731      24.51496887       7.70754528
C       24.01573563      24.45488358       8.43499470
H       20.81004715      27.63776588       6.55359697
H       19.26995277      26.78695869       6.98629093
H       20.37685204      27.42865562       8.25189400
H       24.77328682      25.10673523       7.98148394
H       23.87524605      24.80205727       9.46590137
H       24.32452202      23.40513229       8.40486431
C        7.45443678       8.19616222      30.90144348
O        7.73276949       8.90220833      29.67678833
C        7.13679981       8.43040943      28.55805016
O        6.27267790       7.56852722      28.53153419
O        7.64716291       9.06667805      27.49233055
C        7.10530806       8.69279385      26.20318413
H        8.31972694       7.57821560      31.17414474
H        7.25509977       8.91215706      31.70797729
H        6.57123661       7.56116247      30.75027084
H        7.93334627       8.36701584      25.56465340
H        6.37574387       7.88570070      26.31452370
H        6.59734488       9.56499577      25.77881622
C       28.09869766      33.40646362      17.96168137
O       28.07231712      31.98364639      18.07987785
C       28.39750481      31.33337593      16.95368767
O       28.79923820      31.81893158      15.90674496
O       28.18375206      30.01339531      17.17878914
C       28.48995018      29.19671631      16.03491402
H       27.20110130      33.75761795      17.43626595
H       28.11035919      33.80920792      18.97780228
H       28.99476814      33.72472000      17.41009140
H       27.61323357      29.10009003      15.37822437
H       29.32034111      29.61903763      15.45255089
H       28.73042870      28.20138741      16.42504120
C       32.33901215      21.45572090      21.82875252
O       31.79749298      22.41524506      22.75149918
C       32.66349030      23.00331879      23.58363533
O       33.87353516      22.81174088      23.65388489
O       31.96084213      23.85626984      24.36618233
C       32.64865112      24.50462914      25.44105911
H       31.93139839      20.46833229      22.07758522
H       32.01081467      21.73484612      20.81669235
H       33.43243790      21.41937828      21.87623024
H       32.33220673      24.09193039      26.40573311
H       33.73539352      24.39505005      25.32355309
H       32.37065125      25.56848907      25.42352295
C       18.31499100      18.11333275      23.99799347
O       19.60986900      17.50478554      24.11549950
C       20.60272789      18.29015732      24.57486534
O       20.54540062      19.50057602      24.74528503
O       21.69211578      17.50496674      24.78657532
C       22.84241104      18.16703415      25.33729362
H       18.23069191      18.70871735      23.07631874
H       17.60527229      17.27811813      23.95862198
H       18.07666779      18.75094223      24.85416222
H       23.24605560      18.87411118      24.59937096
H       22.58018684      18.70433044      26.25617790
H       23.56565475      17.37688255      25.55441284
C       11.01507568      22.15357590       8.32547283
O       12.19784737      21.38197708       8.09759903
C       12.39616203      20.86494637       6.87679911
O       11.65630054      20.96302032       5.91505623
O       13.60474873      20.23683929       6.88706398
C       13.99463749      19.63508797       5.63995409
H       10.10958290      21.54963875       8.17751598
H       11.04248619      22.45819473       9.37772846
H       10.97403240      23.03375435       7.66861916
H       13.26582432      18.88678932       5.29977703
H       14.10329628      20.38242149       4.84724617
H       14.96191025      19.15129662       5.82090712
C       27.71189499      23.77107620      23.22379494
O       28.30916786      23.07545662      24.33665466
C       28.30891228      21.74414444      24.14105415
O       28.32802582      21.15753746      23.07905197
O       28.20382500      21.15149117      25.37472153
C       28.28268623      19.71651268      25.33584785
H       26.68720436      23.40598106      23.06337547
H       27.67324448      24.83361626      23.49883270
H       28.26481628      23.61425972      22.28586578
H       27.31903458      19.27882004      25.02066994
H       29.03949547      19.37792969      24.61639214
H       28.53294945      19.39774895      26.35445786
C       12.70523071       8.63092804       0.57569748
O       12.11464310       7.32148981       0.59314221
C       10.76450825       7.32364416       0.73031485
O       10.00465679       8.25103092       0.55494237
O       10.39612389       6.02633190       0.98725182
C        8.99576283       5.82475996       1.21401000
H       13.41741657       8.71328640       1.40535367
H       13.19283581       8.79675484      -0.39513209
H       11.91910458       9.38179016       0.74056840
H        8.79967022       5.61406803       2.26705456
H        8.42727852       6.72618866       0.94720072
H        8.66900063       4.97670364       0.59562933
C       21.04148674      14.05692577      25.10209846
O       19.75752640      14.43422127      24.58191109
C       18.68884850      14.06020927      25.30682755
O       18.68845940      13.38171673      26.31818771
O       17.58125305      14.55886078      24.69876671
C       16.32905579      14.14092922      25.26693153
H       20.91520309      13.53441238      26.05912971
H       21.53926277      13.38628769      24.39231873
H       21.63065720      14.97494030      25.21124268
H       16.46380234      13.21165276      25.83086014
H       15.91195965      14.89598942      25.94471359
H       15.64163589      13.96927166      24.43248367
C       13.34525967      25.08491516      11.09628010
O       13.97396660      24.95752144       9.81634903
C       15.29586411      25.24712372       9.81145000
O       16.00403214      25.35517311      10.80282402
O       15.69871521      25.37195587       8.52642918
C       17.04260254      25.85110474       8.34473705
H       12.98684502      26.11632156      11.22970390
H       12.50059128      24.38809395      11.12107086
H       14.05780029      24.86216545      11.90211105
H       17.01672745      26.87235832       7.93631268
H       17.56279373      25.87229347       9.31007862
H       17.54572105      25.17236710       7.64293432
C       21.71987343      12.36687851      11.35150337
O       22.75719070      11.59579754      10.70681381
C       23.90443802      12.27582836      10.56084824
O       24.19402313      13.35324574      11.05644321
O       24.73064613      11.55214787       9.73589325
C       26.07654190      12.09318447       9.65759373
H       21.92847824      13.43703651      11.23045826
H       20.77678108      12.12883568      10.84724617
H       21.62705612      12.14089870      12.42214489
H       26.05260277      13.11906338       9.27383518
H       26.52727127      12.12240314      10.65306377
H       26.67145157      11.43371487       9.01372528
C       13.55062008      36.14603806      12.57577133
O       14.37734032      35.99916840      13.73367023
C       13.86812782      36.49460602      14.88118172
O       12.76097584      36.98483276      15.02338314
O       14.83867455      36.46182632      15.84269619
C       14.39993382      36.55355835      17.20131111
H       12.60149765      36.61303711      12.87423229
H       14.06272793      36.78823471      11.83933258
H       13.33512783      35.16301346      12.13568401
H       13.29969025      36.54446411      17.25301361
H       14.78257179      35.69132996      17.76390648
H       14.77124786      37.46242142      17.68856049
C       17.63982773      12.90293884      32.97330856
O       16.95304871      14.12480164      33.28281784
C       15.73284245      13.94432640      33.87445831
O       15.07404900      12.91801739      33.76015854
O       15.41227722      15.04115772      34.56640244
C       14.23124886      14.92339134      35.38800049
H       16.97407722      12.19253922      32.47290039
H       18.50090408      13.14972305      32.34184647
H       17.97076416      12.44132233      33.91508865
H       13.47804165      14.30858517      34.87929916
H       14.46897793      14.46294308      36.35256577
H       13.81107235      15.92142963      35.54315567
C        7.01369858      29.34613228      35.80391693
O        5.60733747      29.62586784      36.07705688
C        4.76284933      29.26410484      35.08432388
O        5.02409697      28.71169472      34.03013992
O        3.53848314      29.72854805      35.48104095
C        2.42956996      29.40535545      34.60366440
H        7.30691385      29.76434708      34.83513641
H        7.57713175      29.80075645      36.62455368
H        7.16156054      28.26163483      35.79571915
H        2.75939226      29.40888214      33.55869675
H        2.03612781      28.41778564      34.86891937
H        1.67675090      30.17966461      34.78720856
C       22.34077454      35.61610794      23.15548515
O       22.14694214      34.32484436      22.53701782
C       22.84102631      33.29580307      23.08374786
O       23.67573166      33.38107300      23.96140862
O       22.42573547      32.15567780      22.46091080
C       22.93482590      30.93036461      23.02408981
H       23.00634003      36.22590256      22.53339767
H       21.34413719      36.06110382      23.25328827
H       22.79267120      35.50940323      24.14994812
H       23.71370697      30.49225044      22.38134003
H       23.34979630      31.10941887      24.02256966
H       22.08499718      30.24964523      23.10871124
C       20.55316353      30.00119019      19.46721268
O       20.24637604      30.93303108      18.42617035
C       20.53039551      30.47309494      17.17168236
O       20.81720352      29.31445885      16.92839241
O       20.43003273      31.46706009      16.27576256
C       20.13168716      31.01503944      14.92821026
H       21.46046829      29.43572044      19.22730446
H       20.69950104      30.56387329      20.39426613
H       19.73370171      29.28629875      19.61652374
H       21.04075050      30.84928131      14.32802677
H       19.54789352      30.08185768      14.96671486
H       19.53109550      31.78879547      14.43963623
C        4.06398630      24.13832092      11.05736065
O        4.81948948      24.91182327      10.09675312
C        5.99107790      25.39609528      10.55193806
O        6.39482641      25.29825974      11.69672012
O        6.65777540      26.00002480       9.54364967
C        7.84738636      26.69771957       9.99457836
H        3.62061954      24.76511002      11.84078026
H        3.27972651      23.62243843      10.49981880
H        4.70425367      23.41309547      11.56413269
H        7.59234238      27.50025940      10.69934368
H        8.52950478      26.01191521      10.50293255
H        8.31952095      27.10550880       9.09426498
C       24.96043205      13.70685196      35.50858307
O       25.13314438      13.36311531      34.12875748
C       24.02569389      13.11187363      33.41533279
O       22.89866447      13.06008911      33.88153839
O       24.32999039      12.88165951      32.11306000
C       23.19857788      12.60132313      31.25023270
H       23.98199272      13.36456871      35.86309433
H       25.75458717      13.22402382      36.09119415
H       25.01586723      14.79801655      35.63642120
H       22.36230659      12.15344238      31.79398918
H       22.85281754      13.52847004      30.77606201
H       23.53690529      11.91231728      30.46751022
C       32.46752167      16.33364105      30.30809021
O       31.19695473      15.80048275      29.87811089
C       30.14810371      16.62133408      30.02730942
O       30.14687157      17.76912689      30.44335365
O       29.02161789      15.95298004      29.62817001
C       28.03124809      15.97232819      30.67880821
H       32.72617722      16.01064301      31.32343102
H       33.22015381      15.94511700      29.61300850
H       32.43568802      17.42903328      30.27017403
H       28.50550842      15.73505783      31.63979912
H       27.52332878      16.93858910      30.77558899
H       27.28581238      15.20549297      30.43441963
C       23.70795059      28.42323112      26.48389626
O       24.30209541      29.04236794      27.63483620
C       23.74256516      30.25635147      27.85755348
O       23.05365372      30.86174583      27.05468941
O       24.06774521      30.69063950      29.10210991
C       23.61223221      32.02532959      29.32601357
H       24.07092476      28.85965538      25.54326630
H       23.92341042      27.35270691      26.54628563
H       22.62573814      28.57777977      26.51739883
H       23.96248245      32.68427277      28.52054977
H       22.51426697      32.04574966      29.33401489
H       23.99131584      32.34797287      30.30013275
C       36.45713806       4.83626175      27.59325409
O       36.84445572       4.40940142      26.27536011
C       36.39993286       3.19235396      25.92905235
O       35.62580109       2.53659964      26.61366081
O       36.93948364       2.80625987      24.75478172
C       36.82948303       1.37672102      24.50287056
H       36.80908203       4.13281727      28.35763550
H       36.88995361       5.83243608      27.74808693
H       35.36625290       4.88351536      27.66829300
H       37.17203140       0.84727108      25.40491867
H       35.78543854       1.10813129      24.30884171
H       37.44654083       1.14996874      23.62530136
C       10.32411575      34.36909866      13.55957508
O       11.14265919      33.23743439      13.23247051
C       10.43451786      32.14239120      12.84874630
O        9.23162746      32.06972504      12.71074772
O       11.34197044      31.13024139      12.63981152
C       10.75307560      29.83608818      12.49349213
H        9.26693249      34.06790161      13.50869846
H       10.56464005      34.71879959      14.57178402
H       10.49787998      35.15680695      12.81485558
H        9.66330433      29.95635605      12.37748241
H       11.18289089      29.32390976      11.62273312
H       10.96118832      29.25834084      13.40405273
C       26.73793221      14.86542797      24.83977318
O       27.42180634      15.89030457      24.10902786
C       28.57369423      16.29008865      24.70102119
O       28.87106133      16.10988998      25.86728477
O       29.32697868      16.96116447      23.78313828
C       30.63626862      17.30214310      24.29613686
H       26.76120949      15.07373905      25.91878510
H       25.70481300      14.84286880      24.47092628
H       27.22401810      13.89225483      24.65377235
H       30.57861137      17.40675545      25.38755989
H       31.35463905      16.50110245      24.07503319
H       30.93092918      18.25704193      23.83946991
C        3.87403107      15.42189026      18.28471947
O        4.00914145      14.10201073      17.70284081
C        4.41264534      13.16643906      18.57364845
O        4.74866390      13.34810734      19.72803307
O        4.36133766      11.96336937      17.95577431
C        4.54688644      10.84038830      18.86320496
H        4.59776878      15.57651138      19.08854675
H        4.04977369      16.13111305      17.46818733
H        2.86994886      15.54322052      18.71291161
H        5.50188112      10.94914246      19.40125847
H        3.73845029      10.80581188      19.60758972
H        4.52175474       9.93979073      18.23567009
C       26.12045670      33.56956482      35.33521652
O       25.00788879      33.96217728      36.16656876
C       23.84335136      33.35870361      35.82563019
O       23.62208557      32.76743317      34.77999115
O       22.94491768      33.57027817      36.82666779
C       21.77604294      32.73283768      36.69119644
H       25.89117622      33.71633911      34.27153778
H       26.97404289      34.18603897      35.63689423
H       26.33694077      32.50584793      35.46074677
H       21.09264946      33.09439468      35.91223145
H       22.07156181      31.70955086      36.43520737
H       21.27239990      32.72055435      37.66328430
C        8.94222832      17.94487381      26.53700638
O       10.21720886      18.62723160      26.65206146
C       10.48123455      19.08022881      27.87794113
O        9.72989082      19.08765602      28.83206749
O       11.74806023      19.54908752      27.90324211
C       12.20193005      20.04871368      29.17687607
H        8.13628006      18.66714096      26.35317230
H        9.03920364      17.26385880      25.68497276
H        8.72570419      17.39645767      27.46143150
H       11.60753059      20.91369820      29.50747299
H       12.12740803      19.28390694      29.96188164
H       13.25279617      20.33300972      29.02775002
C       32.73347855      26.50636673      30.74131012
O       33.35587311      25.49409866      31.55940437
C       32.52259827      24.79568291      32.37383652
O       31.31986046      24.91051102      32.42472839
O       33.26242065      23.92665482      33.09748840
C       32.56316376      23.06538391      34.02545166
H       33.02221680      27.48519135      31.14351845
H       33.06750107      26.37116051      29.70301819
H       31.64118767      26.39238358      30.76711273
H       32.93691254      23.24158669      35.04664230
H       31.48499107      23.28585625      34.01104736
H       32.71811676      22.01711082      33.73588562
C       15.96801758      25.68628120      27.14529037
O       17.22846413      25.03362083      27.31928062
C       17.52902985      24.21458244      26.26575279
O       16.77640533      23.97524452      25.33883095
O       18.78418159      23.74014473      26.45525932
C       19.15425301      22.72918510      25.49762154
H       15.24571896      25.00959396      26.67084694
H       15.59917736      26.01243019      28.12058258
H       16.11839676      26.56803703      26.49640274
H       18.25894928      22.40621758      24.95080185
H       19.90062714      23.12598610      24.79414558
H       19.56146240      21.86886406      26.03627968
C       34.98555374      31.79312325       7.69634104
O       35.02925491      32.65009308       8.84752941
C       34.00224304      33.51148224       8.96647644
O       33.10843277      33.65772629       8.14359856
O       34.10981369      34.15905762      10.13100529
C       33.01380539      35.03329086      10.47343540
H       35.60514069      32.20409775       6.88390589
H       35.38272858      30.82180786       8.01324749
H       33.95743561      31.66197014       7.34221220
H       33.28412628      36.07084656      10.22948360
H       32.10126877      34.74966431       9.94304085
H       32.82651138      34.93479538      11.54768085
C        4.76703739      20.95843697       6.11260986
O        4.10249138      19.74321747       6.49056530
C        3.62293243      19.02073669       5.45806360
O        3.50486922      19.38551521       4.29272223
O        3.26685333      17.82657051       5.97570562
C        2.47324324      17.00104904       5.10933304
H        4.04381371      21.68555450       5.71969938
H        5.25111246      21.35380936       7.01395226
H        5.52349091      20.74623871       5.34457493
H        1.80691278      17.61628723       4.49603987
H        3.09678340      16.38188362       4.45066977
H        1.90182889      16.35611534       5.78439569
C       27.55456161      24.78594971      10.03253460
O       28.85595703      24.25404358       9.78452969
C       28.92262650      23.25670052       8.85748768
O       27.95137787      22.75490570       8.31119537
O       30.21977425      22.90984535       8.74748802
C       30.50732422      21.68752098       8.04214668
H       26.85109711      24.41066742       9.27652836
H       27.17391777      24.48280334      11.01896381
H       27.59757233      25.87928009       9.98274326
H       29.62268257      21.37719536       7.47490120
H       31.35883904      21.85229683       7.36622334
H       30.75181389      20.91984940       8.78766823
C        9.39614868      16.05853081      35.70512009
O        9.36912918      14.73361111      35.13463211
C       10.12577534      13.85851669      35.83159637
O       10.90953064      14.12718201      36.71831131
O        9.85174179      12.60878563      35.36978531
C       10.50622654      11.54934692      36.09597778
H       10.35527706      16.23069000      36.20790863
H        9.23361874      16.76978111      34.88968658
H        8.60215187      16.15640068      36.45346832
H       11.52609348      11.83482265      36.36705017
H        9.95615196      11.33046150      37.01645660
H       10.47895908      10.65924740      35.45822144
C       27.27632904      23.07961464      13.43547344
O       26.01894379      22.89141083      12.76273441
C       24.97859383      23.09323502      13.59587288
O       25.04074097      23.58185577      14.71180725
O       23.86083794      22.65635490      12.98033333
C       22.78697777      22.53236580      13.94449902
H       27.33710289      22.42667580      14.31454277
H       28.05237770      22.80936241      12.70851994
H       27.38974953      24.10203552      13.81228828
H       23.07325363      21.80688286      14.71023750
H       22.58704758      23.47894669      14.45209408
H       21.89932251      22.18843651      13.40172768
C        1.65195203      17.63153076       9.20830154
O        1.02604926      17.93901634       7.95601130
C        1.19800282      19.21745682       7.52410698
O        1.52538300      20.14602089       8.24438095
O        0.80673230      19.27581596       6.23157740
C        0.89693177      20.57034683       5.60649776
H        1.19756186      18.18895721      10.03857136
H        1.49032927      16.55683136       9.35118008
H        2.72062874      17.87910843       9.16971397
H        0.72716355      21.36166382       6.34322309
H        1.88758767      20.69626617       5.14417410
H        0.10825271      20.59531593       4.84423876
C       36.22182083      32.02797699      16.20710945
O       35.80247498      31.04345894      15.26344585
C       35.21072388      31.50141907      14.14709759
O       35.09630203      32.67847061      13.86210728
O       34.77809906      30.46589661      13.41484165
C       33.97303391      30.80658150      12.26719761
H       35.43821335      32.77595901      16.37268448
H       36.41075516      31.50125885      17.15119362
H       37.14077377      32.53379822      15.87767029
H       32.92434692      30.91926575      12.56384373
H       34.32492065      31.73478317      11.81089973
H       34.04640961      29.97146797      11.55963230
C       16.22878647      24.99741364      21.35528946
O       15.15861607      24.02775192      21.17520523
C       15.45462418      22.84150124      21.75030899
O       16.43256950      22.59225273      22.42279053
O       14.47362804      21.95286179      21.42040825
C       14.68145466      20.62468910      21.95383644
H       17.20114326      24.49485970      21.31651878
H       16.12060547      25.70761681      20.53055573
H       16.14673996      25.48657227      22.33383751
H       15.72885704      20.32856178      21.84712601
H       14.43224049      20.62026787      23.02057266
H       14.02741051      19.95680237      21.38328171
C       33.04071045      14.34245586       7.22466183
O       32.21905899      15.26452827       6.50326967
C       32.37207031      16.58044815       6.76865816
O       33.27687836      17.08325958       7.42796373
O       31.36730957      17.21674156       6.15458584
C       31.20759392      18.60719681       6.45323610
H       32.46733856      13.95444679       8.07769394
H       33.26776886      13.51453590       6.53409147
H       33.97019958      14.81846809       7.56788015
H       30.55573463      18.72774506       7.32970095
H       32.17433167      19.08418465       6.68680096
H       30.73512459      19.03398323       5.55609226
C       24.47085190      32.07871628      20.17115784
O       24.95821762      32.19713211      18.82889175
C       23.99992371      32.18687057      17.85946846
O       22.81199837      32.25760269      18.08817291
O       24.58307838      32.04988480      16.66394234
C       23.66222000      32.05776596      15.54737949
H       23.37696648      31.95064545      20.14612389
H       24.92628860      31.19705582      20.64315224
H       24.68963051      32.97312164      20.77144051
H       22.62791443      31.96463013      15.89892864
H       23.76941490      33.01259995      15.01740932
H       23.89038467      31.19574928      14.90388203
C       19.09863472      33.15005493      28.91655540
O       18.61619186      32.64111328      30.18439674
C       19.49035835      31.77841377      30.75389290
O       20.50683784      31.36336899      30.23721886
O       19.01273155      31.43750572      31.97160530
C       19.88744736      30.56609154      32.72910309
H       19.02097130      32.38357925      28.13320923
H       18.44792938      34.00370407      28.69015312
H       20.15853882      33.42523193      29.00095749
H       19.91482925      29.56714630      32.27711868
H       20.90379906      30.97901917      32.73552704
H       19.46833038      30.53147316      33.73876953
C       30.10404015      10.39580727      36.28329086
O       30.76701736       9.60875225      35.26923752
C       32.05815887       9.24968243      35.45103455
O       32.77618408       9.45721817      36.40040588
O       32.39860535       8.59390259      34.29755020
C       33.69299698       7.98378515      34.21401596
H       30.70942688      10.42140961      37.19634628
H       29.94717979      11.40064812      35.87793732
H       29.14057732       9.91603374      36.48696136
H       34.21456909       8.12363148      35.16670609
H       33.54052353       6.91879225      33.99559021
H       34.26221085       8.46076870      33.40401077
C        7.13362408      17.79179001       4.37513065
O        7.12825203      16.81191635       3.30934572
C        6.27312899      15.80390167       3.54540825
O        5.49494982      15.76991940       4.47198629
O        6.40369844      14.83889294       2.59488130
C        5.51905823      13.71482277       2.77539062
H        7.42898130      17.35494804       5.33595943
H        7.85269594      18.56107521       4.07394981
H        6.13731480      18.23298264       4.51157141
H        5.30159092      13.55529690       3.83806324
H        4.56165123      13.89896107       2.27166128
H        6.00027227      12.83431435       2.33709145
C        6.93940210      35.59196854      11.48374176
O        5.80200863      36.34400558      11.02525997
C        5.05466318      35.77766037      10.07296085
O        5.22759962      34.67847824       9.57753181
O        4.04080343      36.61406708       9.74142933
C        3.19291282      36.18879318       8.67169380
H        7.75732660      35.57789993      10.75323486
H        7.28052568      36.08277893      12.40007973
H        6.65334368      34.55890274      11.70354366
H        3.62480903      36.44434357       7.69458008
H        3.04392076      35.10507965       8.72302723
H        2.24706769      36.72390366       8.80584240
C       18.23567390      18.38735199       5.37665844
O       17.80306816      17.92524910       6.67323303
C       17.35444641      18.86864662       7.52792692
O       17.26328468      20.06532860       7.30957842
O       17.00323677      18.25141335       8.67686653
C       16.28850555      19.02651215       9.65762043
H       18.32145309      19.47620773       5.37258625
H       19.19894981      17.92693138       5.13831758
H       17.50396919      18.08187485       4.61808443
H       16.54555511      20.09391212       9.61152267
H       15.20869064      18.95901299       9.45136452
H       16.48344612      18.61022568      10.65178204
C        5.63643980      22.33448982      30.94854736
O        5.77376366      22.97067833      32.23613358
C        6.55776501      22.26161003      33.07442093
O        7.07185984      21.18783569      32.79997253
O        6.66206026      22.89463425      34.25857162
C        7.37102413      22.15281105      35.26811218
H        5.71061850      21.24502182      31.04182243
H        4.64190006      22.59466553      30.57046509
H        6.42378950      22.67546654      30.26466942
H        7.17599344      21.08264351      35.12257767
H        8.45281696      22.31215668      35.19832611
H        6.99813700      22.47032547      36.24682236
C       11.41482544      30.06928062      23.34944725
O       10.45434093      29.52078629      22.44243050
C       10.93352604      28.56382179      21.62956429
O       12.07160282      28.10768127      21.69404411
O        9.99420357      28.17145538      20.75919914
C       10.40213966      27.08163261      19.90190315
H       12.19558048      30.61272049      22.79801559
H       10.87201500      30.75329781      24.01370621
H       11.88233852      29.27895927      23.95593262
H       11.08023453      27.42192841      19.10522079
H       10.91258049      26.30067825      20.48469925
H        9.48425961      26.67584229      19.45615578
C        3.11463380       1.13213134      27.39567757
O        3.30198431       1.61774719      28.75417137
C        2.20453048       1.67009723      29.51702690
O        1.08568096       1.29443574      29.20708466
O        2.50098014       2.21415329      30.72065353
C        1.44413698       2.29885221      31.67661858
H        2.17600298       1.51440012      26.98219490
H        3.97648931       1.48616242      26.81783676
H        3.09495258       0.02797683      27.38331223
H        0.58844334       2.87254643      31.29585266
H        1.09813344       1.29617083      31.95668793
H        1.85611081       2.79780483      32.56382751
C        4.98778296       6.57276773      15.96426392
O        6.02101183       7.43783188      15.45558357
C        7.27371788       6.94339371      15.48084259
O        7.61960125       5.88963318      15.99458408
O        8.09852982       7.81276226      14.85374546
C        9.47169399       7.36716604      14.71653175
H        4.89343834       6.67766571      17.04531097
H        4.06126356       6.89612532      15.46955109
H        5.21597290       5.52819300      15.71851921
H       10.04150391       7.66278744      15.60040569
H        9.50090408       6.27607775      14.60465622
H        9.85866928       7.89971495      13.83724594
C        3.14223361      33.11399460      22.19932747
O        1.97852552      32.32616425      22.55364609
C        2.12259793      30.98529625      22.32201195
O        3.04876709      30.48538589      21.71590614
O        1.08506787      30.33444786      22.87409210
C        1.13448715      28.90028191      22.73356247
H        3.23261476      33.30096436      21.12207985
H        3.00722671      34.07926941      22.73624802
H        4.06475592      32.66059875      22.57133293
H        0.92848891      28.57405853      21.70599174
H        2.11553955      28.51156235      23.02089500
H        0.36173069      28.52142525      23.40580177
C       14.59652233      26.61536789      17.74483681
O       13.87494087      26.80623245      16.51568604
C       14.70376205      26.88707733      15.43002415
O       15.91511059      26.87650490      15.49910545
O       13.97328472      26.97132874      14.30158234
C       14.74393845      27.58433533      13.23252583
H       15.40981770      27.35165787      17.82761192
H       13.88818169      26.76232719      18.57004547
H       15.01195621      25.59799385      17.79434204
H       15.39940834      28.35357666      13.64861012
H       15.33320522      26.84455681      12.67056656
H       14.00511837      28.02955627      12.55040932
C       10.61015797       7.48021317      11.32710171
O        9.81678104       8.32726192      10.48863411
C        9.68866348       9.62870216      10.91284370
O       10.24558544      10.12292767      11.87097645
O        8.82447147      10.20101357      10.05963802
C        8.53713036      11.59809971      10.33181858
H        9.94787598       6.87421703      11.96468163
H       11.19977951       6.81661606      10.68407440
H       11.26653004       8.08512306      11.97110844
H        7.58748865      11.69763184      10.86896324
H        9.32452106      12.05077076      10.95220757
H        8.46804905      12.09689713       9.35961342
C       27.03927612      14.71901798      13.70398331
O       28.15031052      15.41132832      13.10503578
C       29.05286026      15.79977989      14.03806686
O       28.86727524      15.75452423      15.24326134
O       30.19007111      16.23346710      13.45753002
C       31.17937279      16.60748291      14.44780350
H       26.31011200      15.40715408      14.15616417
H       26.54959297      14.15477276      12.90058708
H       27.39439201      14.03715038      14.48790836
H       30.74061775      17.25829124      15.21629143
H       31.55437851      15.70976162      14.95740032
H       31.99710083      17.10313416      13.90885925
C       28.34440613       8.81097794      18.76381683
O       27.74881554       7.93762302      17.79973221
C       27.07051659       8.54097462      16.79590416
O       26.82722855       9.72994900      16.72846031
O       26.62937546       7.57501841      15.95815372
C       25.95182419       8.06194115      14.79577827
H       28.03450775       9.84531498      18.55546951
H       28.02942276       8.48985291      19.76487923
H       29.43975449       8.78413391      18.68693161
H       25.81517792       9.15040588      14.86992359
H       26.52933884       7.81599426      13.88949585
H       24.97535133       7.55886507      14.73501205
C       15.49709797      19.27467346      15.22654629
O       14.20457649      18.64402962      15.32790565
C       14.12954712      17.50656509      14.60277271
O       14.79430771      17.22672272      13.61756420
O       13.17804623      16.70920563      15.18639469
C       13.27295017      15.34910393      14.71739197
H       16.01047897      18.92015839      14.32426453
H       15.33698559      20.35430145      15.19540119
H       16.11219978      19.03120422      16.10264397
H       13.49242592      15.30407619      13.64488029
H       14.07263565      14.81977940      15.25002670
H       12.30150032      14.88753319      14.92225742
C        4.99898672      27.41972923      18.08064651
O        5.34330893      27.16470528      16.71165657
C        6.35838509      26.31211853      16.50761604
O        7.00777674      25.76383591      17.38801956
O        6.53622246      26.14305687      15.18043804
C        7.44316769      25.07599640      14.86354923
H        5.77917719      27.97907448      18.60718155
H        4.07012892      28.00000954      18.06853294
H        4.81803656      26.48212814      18.61711121
H        8.48069382      25.43683052      14.84891891
H        7.37232113      24.31118774      15.64516640
H        7.18271732      24.67745972      13.87783337
C        7.60467339      36.22658539      16.28708649
O        6.32574224      36.27271652      15.60648441
C        5.79515886      35.05706024      15.39370537
O        6.29459906      33.99745941      15.70135117
O        4.59004927      35.18162918      14.77782631
C        3.91612482      33.93749237      14.53924656
H        8.32747459      35.62243271      15.73379517
H        7.94253969      37.26453400      16.35829163
H        7.50877476      35.78167343      17.28357506
H        4.47289848      33.28625107      13.85698605
H        3.76362824      33.40663528      15.48727322
H        2.95144010      34.19911194      14.09434509
C        7.86365414      11.36894512      14.89801025
O        8.92383957      12.31210613      14.65447617
C        8.83559799      13.14152908      13.57503796
O        7.88507795      13.27889919      12.83577919
O       10.02307034      13.76688671      13.50508213
C       10.10327816      14.85936832      12.56259155
H        7.54824877      10.83785629      13.99152946
H        8.32637310      10.64917088      15.59027386
H        6.99266911      11.84216213      15.37029266
H        9.82064247      14.52851295      11.55383492
H        9.43724632      15.67616940      12.85229301
H       11.15250587      15.17721176      12.58068562
C       34.96775818      25.17687416      19.74962997
O       34.21846771      24.67867088      18.64014816
C       33.56546402      25.58415031      17.87413979
O       33.55233383      26.79444885      18.04934883
O       32.93910217      24.91133499      16.88737488
C       32.07069397      25.70815277      16.06753540
H       34.49260330      24.87701035      20.69004059
H       35.97489548      24.74557686      19.68731499
H       35.01058197      26.27257347      19.70348167
H       31.03443909      25.39422226      16.24565697
H       32.18400574      26.77567482      16.30080795
H       32.31520081      25.52086067      15.01360321
C       28.05512619       7.46876955       6.15028811
O       28.22008133       8.64453602       5.37946987
C       28.56095886       8.45671558       4.07608032
O       28.61255836       7.39382076       3.49785376
O       28.73970604       9.67679119       3.48938465
C       28.95545578       9.60912609       2.07522058
H       28.73697853       6.68733025       5.79477930
H       28.27576256       7.74001884       7.19040346
H       27.01746941       7.10488939       6.10375118
H       29.54531670       8.72445774       1.81221819
H       27.99278259       9.56103897       1.53901410
H       29.49356270      10.52404594       1.80033433
C       28.53361511       8.63790512      28.06887245
O       27.86735535       8.11400223      26.90004539
C       26.68710518       8.69285202      26.65998459
O       26.21854591       9.62450886      27.32616997
O       26.07638931       8.13615990      25.60839272
C       24.84092903       8.81468010      25.26771736
H       27.94672775       8.40180492      28.97117996
H       29.52060127       8.16688728      28.15085602
H       28.62387085       9.72670078      27.98873520
H       24.20338631       8.93742657      26.15106964
H       25.05959702       9.80839348      24.85173035
H       24.34681892       8.18876457      24.51317406
C        8.21034145       1.47586584      34.52045059
O        9.48548222       2.04081726      34.87182999
C       10.25090122       2.40372610      33.82090378
O        9.88868618       2.41264343      32.65442657
O       11.45237064       2.77178478      34.28268814
C       12.36605453       3.25645924      33.25899506
H        8.32986164       0.64447278      33.81940079
H        7.77840471       1.11093807      35.45600128
H        7.54494143       2.22407937      34.07271194
H       12.69775581       2.43526578      32.61219025
H       11.87204742       4.00472355      32.63456345
H       13.21179485       3.68347740      33.80348587
C       11.36694050      15.92768383      28.10942268
O       10.80594158      14.65673923      28.55143929
C        9.59387970      14.29595661      28.12112045
O        8.78906059      14.96589184      27.49097252
O        9.45647907      13.01685810      28.50057411
C        8.12443733      12.41629028      28.45503426
H       10.77606487      16.74966240      28.53096581
H       12.37099171      15.94198132      28.54134941
H       11.36934376      15.96705341      27.01682854
H        7.41324806      13.01815414      29.03576088
H        7.75034809      12.31279278      27.43016815
H        8.25445652      11.43218422      28.91366196
C        7.83683634      26.27839279       3.31508780
O        8.37084675      25.10978127       3.95080113
C        8.67935085      24.10908127       3.11015081
O        8.60792923      24.14162445       1.89007759
O        9.03733444      23.02284622       3.85020375
C        9.17735767      21.81617737       3.08404231
H        7.04179382      25.99262238       2.61716390
H        7.39340162      26.86548996       4.12497950
H        8.61551380      26.84914589       2.78995180
H        8.22847939      21.55979156       2.59185314
H        9.94407177      21.90618134       2.30425978
H        9.42700958      21.03605080       3.81128263
C       16.71016693      19.40044975      36.58675385
O       15.96389961      20.63242340      36.57562256
C       14.87006569      20.63279533      35.78415298
O       14.52966499      19.78033829      34.99014664
O       14.17988110      21.79861641      36.01689911
C       12.82137489      21.73369980      35.53998184
H       17.67419052      19.53475571      36.07889938
H       16.84736824      19.09808350      37.63104248
H       16.14231300      18.63863945      36.03940201
H       12.66498470      22.42811394      34.70220566
H       12.59138012      20.71400070      35.20005035
H       12.14721298      21.99158478      36.36497879
C       29.08603096      27.14879799       3.11923122
O       28.45283318      26.01124191       2.51192117
C       27.24085617      26.29354858       1.97642291
O       26.74923325      27.40057945       1.92003107
O       26.68095016      25.13783646       1.54493773
C       25.30908012      25.23071289       1.13172233
H       28.36199188      27.74928093       3.67456841
H       29.82219887      26.75086784       3.82809472
H       29.56224060      27.78970337       2.36281633
H       24.86154366      26.15068054       1.52609754
H       25.23577690      25.21834755       0.03821161
H       24.77344894      24.36973000       1.55103087
C       30.79051590      23.38013458      13.25502777
O       29.99136353      23.17463303      14.43947983
C       30.33564377      21.99838638      15.02900791
O       31.46129036      21.53498459      15.06687641
O       29.20965767      21.43777847      15.51982212
C       29.46995735      20.28225899      16.34171677
H       30.56927490      22.60456657      12.50973701
H       30.50126457      24.36520386      12.88020802
H       31.85410690      23.32433510      13.51567745
H       29.64858627      19.38171959      15.73325729
H       30.34214401      20.46136856      16.98073006
H       28.58045197      20.13550758      16.96343613
C       18.94099808       3.83195829      28.50165558
O       20.07367134       4.38380194      27.78331375
C       21.21904182       4.53716993      28.49609566
O       21.38405991       4.22878981      29.65648651
O       22.13249779       5.10154152      27.66901398
C       23.48113251       5.20518112      28.18186378
H       19.08200073       3.93694234      29.58105469
H       18.04806328       4.38850594      28.19614220
H       18.82115746       2.77242970      28.24114609
H       23.51287270       4.90414000      29.23449516
H       24.14514160       4.55636168      27.59600639
H       23.80477715       6.24937201      28.08122635
C       11.04674721      32.21431732       9.78987217
O       10.42167282      32.85398102       8.67353725
C        9.98081875      34.12508011       8.94597912
O       10.14134979      34.72946167       9.98898411
O        9.30867290      34.54915237       7.86425543
C        8.86469936      35.91240311       7.95419312
H       11.08675289      32.90153503      10.64588356
H       10.44563866      31.34113884      10.07679462
H       12.06330872      31.88743210       9.53467464
H        9.22633934      36.38103485       8.87703228
H        9.25505447      36.44932175       7.07863426
H        7.76468420      35.92162323       7.96084499
C       33.72924423      21.78823853       3.76504278
O       35.01085663      22.15252304       4.30331945
C       35.03800201      23.33087921       4.98229122
O       34.16008759      24.17397308       4.96926355
O       36.20301056      23.40452194       5.64609528
C       36.36664200      24.44359016       6.60754585
H       33.00406647      22.59951591       3.91806316
H       33.82907104      21.56634903       2.69066715
H       33.37904358      20.88469696       4.28607512
H       35.55899811      25.18069077       6.50958586
H       36.31304169      24.02173996       7.61989737
H       37.33824921      24.92396164       6.44618893
C       16.20447731      35.54317093      31.14611053
O       14.80468559      35.28310394      31.38028908
C       14.34901714      34.04216385      31.08060646
O       15.03369904      33.11912918      30.61828804
O       13.04807281      34.00574875      31.39052010
C       12.35233212      32.76659393      31.20822906
H       16.25633621      36.46856689      30.55235100
H       16.72238922      35.66486359      32.10529327
H       16.65714264      34.71445847      30.58552933
H       11.46231937      32.96098328      30.58967972
H       12.98212814      32.02673721      30.70142555
H       12.05511856      32.36978912      32.18544006
C       24.94542885       2.21684957      33.44070053
O       23.55355835       2.09778929      33.81371307
C       22.75368690       1.59511328      32.84417725
O       23.10179901       1.14833105      31.76518440
O       21.46294403       1.66376352      33.28006363
C       20.51617432       1.15091634      32.31803894
H       25.11605453       3.12984657      32.85501862
H       25.50954819       2.25893664      34.37932587
H       25.26712418       1.35257947      32.84835434
H       20.49077606       1.77452767      31.41626358
H       20.75613785       0.12553099      32.01560211
H       19.54343605       1.15638363      32.81944275
C       12.23714066      25.49108887      34.40580368
O       12.17145634      24.62640953      33.26608658
C       12.61342239      25.13593864      32.08600235
O       12.86409760      26.31438828      31.87230492
O       12.67106724      24.11233902      31.19850159
C       13.69551086      24.28015137      30.18669319
H       12.13302994      26.53908920      34.09738922
H       11.41817379      25.21005440      35.07872391
H       13.19672966      25.36084557      34.92764282
H       13.49644470      25.16274643      29.57031250
H       14.66458511      24.42944908      30.67292404
H       13.70672512      23.36322784      29.58466148
C       31.36352730      14.01517582      21.74163437
O       31.25799561      12.92636299      22.65848160
C       30.37077713      13.11027145      23.64737892
O       29.59116745      14.04042721      23.78182983
O       30.35774612      11.99958134      24.44751167
C       29.52712631      12.15092564      25.60006332
H       31.27639198      14.97473526      22.26639366
H       32.33806229      13.92938232      21.23838425
H       30.57662201      13.96551704      20.97226715
H       29.37271881      13.21738815      25.81846619
H       28.53656960      11.69177151      25.43957520
H       30.02314568      11.66351604      26.44572639
C       28.21980286      32.51888657      11.33658123
O       28.14811516      33.83808136      10.70728207
C       26.92013359      34.29907227      10.42613792
O       25.86109734      33.77045822      10.72294235
O       27.00512505      35.43238831       9.69958878
C       25.71811295      35.96003723       9.28339481
H       27.70033264      31.77854347      10.70996761
H       29.27899933      32.26775360      11.44692707
H       27.72479630      32.53542709      12.31530285
H       25.24102211      35.25821304       8.57912254
H       25.04761696      36.08279037      10.14204121
H       25.93165207      36.91645432       8.79506874
C       15.68058300      29.98501968      22.79171371
O       16.46782875      29.48256493      23.88718987
C       17.62733078      28.89190674      23.46487045
O       18.02435684      28.86932182      22.31414223
O       18.21527290      28.34602165      24.54344177
C       19.43330574      27.62996292      24.25168610
H       14.91101646      29.24972916      22.51577759
H       15.19728279      30.90625763      23.13860512
H       16.32934761      30.14681816      21.91767502
H       19.23937225      26.55229950      24.19947624
H       19.83981895      27.94683647      23.28324127
H       20.13965034      27.86189461      25.05221748
C        4.44867134      36.25448227      34.11843109
O        5.67537928      35.73573685      33.55727386
C        6.59273338      35.31608200      34.44833374
O        6.41815472      35.23893356      35.65527725
O        7.71602964      35.01131439      33.79234695
C        8.86643696      34.74795914      34.62762070
H        4.62432814      37.22967911      34.59104538
H        3.74490905      36.33479309      33.28379440
H        4.05862474      35.55653763      34.86703491
H        9.17046547      35.66800308      35.14299393
H        8.62187004      33.99239349      35.37711716
H        9.67536736      34.39500046      33.98213959
C       19.18122864      17.64189529      31.65393257
O       19.35734177      16.65880013      30.62050247
C       19.75107193      17.15876961      29.42675781
O       20.15525055      18.28755379      29.23263741
O       19.60557365      16.19001389      28.49177551
C       19.77636719      16.63545799      27.13533020
H       18.73540497      18.55021477      31.22597885
H       18.50523949      17.22105217      32.40137863
H       20.11786461      17.93003082      32.13423157
H       19.72950745      17.73119926      27.05961800
H       20.73045540      16.27465820      26.72882843
H       18.97068024      16.18837166      26.53466797
C       17.46581650      36.95561600      13.75626564
O       18.18939018      37.24349976      12.54953766
C       17.71829987      36.66885376      11.42040920
O       16.65551376      36.08926392      11.30774879
O       18.61141396      36.84327698      10.41734695
C       18.14473534      36.64918137       9.07174587
H       16.92305946      36.01277542      13.62479496
H       18.19041061      36.88334274      14.57834244
H       16.70595360      37.71239471      13.97640705
H       17.79930115      35.62475204       8.90347576
H       17.33255959      37.35221481       8.85217094
H       19.00449753      36.82304001       8.41068077
