1344
Lattice="29.540000915527344 0.0 0.0 0.0 29.540000915527344 0.0 0.0 0.0 29.540000915527344" Properties=species:S:1:pos:R:3 pbc="T T T"
Na      29.18920517      27.79797554      20.00111961
Na       7.17868614      28.90341759      28.54386902
Na      17.79203796      23.03487206      11.65503597
Na       4.29538012      19.42049217       9.03840542
Na      18.07807159      10.21084404      26.02279854
Na      23.83068466      13.64306545      23.16329765
Na      25.26919556       4.13830233       2.38411093
Na       0.14609942      24.56550407      13.24005127
Na      21.81933594      20.04717064      23.25990105
Na      29.39993858       2.81159496      18.39599609
Na      16.97925758       0.08666455      29.63635445
Na      10.34281921      25.29408264      12.28254128
Na      18.32321358      18.80281067      20.04854965
Na       3.43195939       8.09227276      15.17331791
Na       0.54781884       9.66068077       7.12842178
Na      18.72324562      25.76273346      28.43752289
Na      17.46059036      14.89321995      18.10919571
Na      24.69025803      19.26503944      25.23127747
Na      13.84657001      20.27271461      21.36929512
Na      25.47502327      24.75095177       6.33655310
Na       3.86489177      15.17459869       4.37242651
Na      21.47077370      18.28515244       7.75703287
Na       7.00549221      10.91225719      27.00952530
Na      12.99622059       2.42522717      17.34664154
Na      19.93485260      17.16753387      12.38556767
Na      13.79567432      23.03998184       1.18676007
Na      -0.15035756      14.70382309       6.79823160
Na      26.17765808      24.16003227      10.38579273
Na       7.29406834      22.45512009      29.00035286
Na      10.56408882      17.94861603      17.27543449
Na      25.24055481      14.19106102       5.63063955
Na      19.29244995      27.48135185      13.13851643
Na      14.90637970      26.93204498      24.83751106
Na      25.47449112       6.47553015      27.34210014
Na       8.99868488      12.45283604       3.79968524
Na       2.91572571      28.41662216       8.04491425
Na      13.09649181      14.42581367       6.57029772
Na       5.67155504      18.20910645      26.48384857
Na       6.97788715      23.03177643      14.98010254
Na       0.71019858      18.51857567      18.19084930
Na       1.06314170       2.29148269      23.56427574
Na      25.67361832       2.45502949      22.10763931
Na       6.08585072       7.02248478      12.75707722
Na       0.37611926      23.79768181      18.68403244
Na      13.00462532      20.35893631      12.87558842
Na       9.66502571       8.09548378       9.39946270
Na      22.48541641      11.82923031       9.04307938
Na      20.28359985       5.61944675      13.27407932
Na      12.10526657      14.14841461      11.14844608
Na       5.58545494      19.16946030      13.83364773
Na       6.65467501      25.75171661      12.24364853
Na       8.21506596      10.89221668      11.65143490
Na      25.03424644      17.44633865      14.68906116
Na      24.41173553       7.40930939       2.46419907
Na      20.41099930       8.66486073      22.01329613
Na       7.13579559       1.05950618      25.47695351
Na       7.66941738      13.13870239      22.95662308
Na       8.08151245      16.60007095       2.57339621
Na      12.63255596      16.20507622      29.43878555
Na      22.01704025      22.25925446       1.36165929
Na      24.61847496      17.73200417      10.43484497
Na      16.38543510       3.40137291      21.93416214
Na       8.18820381      24.84806824       6.25886488
Na      27.32020569      19.47535896       4.83594036
Na      10.44284534      26.42009926      23.81560135
Na      16.87570000       1.73615861      25.05895996
Na      10.52616215      20.80105972      23.67523193
Na      26.92530060       5.85379934      20.37222862
Na      19.18264961      23.97916985       7.00757742
Na      12.23892975      22.89468002      19.41231346
Na       4.21651649      28.06333923      27.18105698
Na      16.20346260      13.94966984      23.10692024
Na      15.19392681      28.82137108      10.74988937
Na       1.40684879      12.19195271      27.67479134
Na       5.70432806      14.90917110      14.36271191
Na       8.38280010       9.70560265      17.40051842
Na      14.47947693       7.37912178      11.71922398
Na      25.24863815       1.93465674       7.94480848
Na       3.13748074      10.05345535      21.31673431
Na      16.24574852      12.75326347      29.09581566
Na      15.63544559      11.90013218      19.66935539
Na      26.92232513      27.18812943       4.39089489
Na      12.29273224      27.22683334      15.07751656
Na      20.50931931       3.04850626      18.82598495
Na      27.03633881      16.88068581       8.17210960
O        8.83723259       3.36709595      15.20092487
Cl      10.01116180       3.59989452      16.05828667
O        9.68343163       4.41984797      17.22474480
O       11.07854176       4.22775841      15.25501251
O       10.55714035       2.25733733      16.53854942
O       24.97569084      11.38951874      11.09915924
Cl      23.78632355      11.57651615      11.94989681
O       24.07257843      11.12308121      13.33918095
O       22.60710335      10.90965652      11.34856510
O       23.49055862      13.05794811      11.99501801
O       12.23064327       2.51579356      12.61616516
Cl      13.59309578       3.03963542      12.96653366
O       13.95263004       2.49430370      14.35751438
O       13.60875320       4.51736593      12.98808479
O       14.57005882       2.54369283      11.95033836
O       27.26180077      22.43963623      27.48550415
Cl      25.91352272      22.36536789      26.90207481
O       25.77329254      21.09589767      26.13839340
O       25.64121437      23.51391983      26.00966072
O       24.85598373      22.37135124      27.98052025
O        2.57025361       6.59186745       5.18588018
Cl       3.26492691       5.29555702       4.96251059
O        3.96589351       5.34138727       3.68192983
O        2.26870918       4.21185160       4.95980787
O        4.25118637       5.11028147       6.06628942
O        7.29574442      17.69486046      19.78116989
Cl       6.22762012      17.94410896      20.76388550
O        5.28978109      16.78760529      20.75118446
O        5.51008415      19.17889786      20.39391708
O        6.77983141      18.09452248      22.13456726
O       11.66545677       3.41866279      21.90408516
Cl      12.20681858       2.78352284      20.67899513
O       11.42582226       1.55825448      20.34608269
O       13.64235497       2.41293168      20.89883423
O       12.11753750       3.73498774      19.54462433
O        5.25072050      13.13500309      12.52392769
Cl       3.82900715      12.80857944      12.23863411
O        3.72727609      11.63408470      11.31426716
O        3.19413114      13.95584583      11.54365063
O        3.07965612      12.53998852      13.50054646
O       12.29136658      14.23973274      20.46068764
Cl      13.01840019      13.67807579      21.61734962
O       13.83168411      12.49400806      21.16224098
O       12.05076694      13.23645782      22.69324112
O       13.96018887      14.69067097      22.20305443
O       16.19563675       6.64536762      20.49697495
Cl      14.91249657       5.86910915      20.57176018
O       15.00422287       4.72687960      19.60612488
O       13.79129696       6.75040197      20.20196724
O       14.77565479       5.28994846      21.94974136
O       23.68135262       3.59748077       3.88472176
Cl      23.94109726       3.52853847       5.35111856
O       22.64473724       3.65372086       6.05375338
O       24.84903526       4.63184214       5.74729300
O       24.63221550       2.21811581       5.61807871
O        3.34130931       9.36276340      29.81682396
Cl       3.59940934      10.15299892      28.57380104
O        4.90255499       9.72384644      28.01884270
O        3.63223243      11.62797832      28.91195488
O        2.48228717      10.06151295      27.57355881
O       29.12467575      19.73928452       8.93302917
Cl      28.13382339      19.62582588       7.85125256
O       28.00411415      20.85685730       7.03221321
O       26.77758980      19.30514908       8.41472721
O       28.48241615      18.49457932       6.92837572
O       10.14022350       9.60207462      12.26694107
Cl      11.57207489       9.41371346      12.61032677
O       12.02419758       8.13367844      11.98519611
O       11.77819824       9.40732574      14.07833767
O       12.35961056      10.53480339      12.04238033
O       27.85801697      23.48194122      17.11387634
Cl      28.02437592      24.31079102      15.88543606
O       28.12292862      23.47691345      14.65460873
O       29.33979607      25.06210518      16.00116730
O       26.96273041      25.32930183      15.72308445
O        1.55573535      21.47644043       7.74027395
Cl       2.22385502      20.72883987       6.64877081
O        3.66076612      21.13695717       6.62248325
O        1.55839968      21.00646400       5.37810040
O        2.18846607      19.25936699       6.92499876
O        7.73271990      26.13031006       8.80375957
Cl       8.80596352      25.34417915       9.43416214
O        8.30271721      24.72308159      10.70868206
O        9.96269131      26.21322823       9.80184650
O        9.24670601      24.31749725       8.45782757
O       26.88269424      23.01692963      19.42831993
Cl      25.41486168      23.04492569      19.57719421
O       25.09172440      23.43467140      20.98522758
O       24.82060623      21.70223808      19.30663490
O       24.80672264      24.03189659      18.66729736
O        6.95025873      20.71143532      18.24442482
Cl       7.15939331      20.14126396      16.89888954
O        7.92013836      18.84963799      16.90558624
O        7.91592407      21.12862968      16.06282425
O        5.83021927      19.89431953      16.20964241
O        8.13231277      25.99211121      14.00523376
Cl       8.80167294      26.05297470      15.35535049
O        8.09657478      25.04881859      16.22976303
O        8.64839077      27.41946793      15.91044140
O       10.25120640      25.78442192      15.13634396
O        1.83891749       4.73079967      20.17775154
Cl       1.01665592       4.70313501      21.42612457
O        0.22877547       5.96853352      21.49252319
O        1.87655175       4.51743460      22.62571526
O        0.06615297       3.55303264      21.31655502
O       21.77799225      16.30697441      25.60435867
Cl      21.87485695      17.53013802      26.46953583
O       23.18286133      17.54649544      27.19433212
O       20.71642876      17.59309387      27.37897301
O       21.84953117      18.71623230      25.55677605
O        6.83882380      12.09033585       8.31131840
Cl       6.95598650      10.57899475       8.22581482
O        6.96300411      10.20293140       6.78662920
O        5.79896927       9.92575550       8.93080807
O        8.24584103      10.18859673       8.90206146
O       29.03342628      27.72341728       8.10888767
Cl      28.15777206      26.54620552       7.90517330
O       27.33325768      26.31488228       9.14083576
O       28.91443634      25.34408188       7.52256060
O       27.17391777      26.89348984       6.79019356
O       12.89452267      17.16707993      18.60385704
Cl      14.08578396      17.67926979      19.31917763
O       15.27251720      16.75104332      19.07534981
O       13.89398003      17.78732491      20.80726051
O       14.42607880      19.03648186      18.81502342
O       14.54046154      20.55549431      16.76641846
Cl      14.49212265      22.00279045      16.41214752
O       13.20959282      22.57036972      16.91714096
O       14.54873371      22.19334602      14.93580151
O       15.63640499      22.69555473      17.05323410
O        7.80087471      19.13934708      27.00027084
Cl       8.45157528      20.37951851      26.45905876
O        8.57269382      20.23913956      24.98694992
O        9.78803062      20.61738586      27.06682014
O        7.57860088      21.53948784      26.80363464
O       23.52744675      18.42679596       5.96423817
Cl      24.55945778      17.39477158       6.29719257
O       24.66444206      17.31331635       7.80404472
O       25.94067764      17.80653763       5.84987783
O       24.24573326      16.16675949       5.51567030
O       15.13609695      24.44876289       7.20213556
Cl      16.08495140      23.97159004       6.17205763
O       15.38360500      23.75042534       4.87995577
O       16.74341011      22.72025871       6.64810610
O       17.13718605      24.99726295       5.97396326
O       17.99667931      19.64244461      13.32651711
Cl      19.12795258      20.39989281      12.74982262
O       20.44747734      19.69796753      13.01757812
O       19.16380119      21.77279091      13.31975651
O       18.99073029      20.51091385      11.27985382
O        6.63931799      27.81879616       6.98358965
Cl       7.85842133      28.21781158       6.24622583
O        7.59335423      29.45850945       5.49820137
O        8.18993855      27.11108971       5.27821970
O        9.00868225      28.39960289       7.16202736
O       25.43085480      25.09548187       3.39022040
Cl      24.01503563      24.57533073       3.33552933
O       23.77453041      23.93358994       2.01966262
O       23.09193420      25.70194054       3.57112145
O       23.87831116      23.58520699       4.47651243
O       10.55151081      14.06601143       3.34237528
Cl      11.19174862      15.41753864       3.40894079
O       10.16501427      16.40120125       3.94194531
O       11.49588871      15.84214973       2.00460839
O       12.40376282      15.43578625       4.26829910
O       17.16908646       4.07608700       6.43321609
Cl      16.27225876       5.25908184       6.59834337
O       16.81104088       6.37163973       5.77807903
O       16.19813728       5.71013212       8.01060486
O       14.91629982       4.93522501       6.09485054
O       18.48260307      29.57898140      25.53374863
Cl      17.86131859      28.53960609      26.41755486
O       18.84887505      27.87829590      27.33594704
O       17.12550163      27.55225182      25.59266853
O       16.87554741      29.31294823      27.29957581
O       22.78416252      16.79080772      22.66054344
Cl      24.20244980      16.64164352      22.21803284
O       24.55493546      17.77703476      21.35976028
O       24.33206940      15.35869503      21.45089149
O       25.09315872      16.55521011      23.43198586
O       20.08901215      24.30837250      10.39458847
Cl      21.23995590      24.45318985      11.32648468
O       20.83696175      24.02541351      12.69683933
O       21.67620277      25.88930321      11.34253883
O       22.39000320      23.60794067      10.81363106
O        2.54467392      17.14567947      12.66744995
Cl       3.74146152      17.09930229      11.77646542
O        3.40664911      16.44299507      10.48344421
O        4.91540575      16.43809319      12.42326927
O        4.13004780      18.52180862      11.48257637
O        4.41259098      18.47870636      24.44819260
Cl       3.14146256      18.21631241      23.67328644
O        3.03524685      16.74880409      23.43210983
O        3.19295740      18.93383598      22.38918304
O        1.97763193      18.68697166      24.47546768
O       10.17220402       6.90282822      14.01636600
Cl       9.01373863       7.21855879      14.86920452
O        9.20911407       6.76331520      16.26561165
O        7.81139040       6.53766632      14.28249836
O        8.75449657       8.67984676      14.88172054
O       15.18468189      25.97133446      22.21252060
Cl      15.17966652      25.34524155      20.83775330
O       16.16558266      26.01251602      19.96350098
O       13.80739689      25.56538773      20.26650429
O       15.43859386      23.88743019      20.94651604
O        8.93933392       4.31034946      26.49402237
Cl       8.93168831       4.43536043      27.96280289
O        9.64688873       5.69350576      28.33537674
O        9.65185547       3.28224015      28.57715607
O        7.54762030       4.51246071      28.48109627
O       25.72386742      21.36786079      13.52948570
Cl      25.08977318      22.71953011      13.87460327
O       25.34118271      23.06153870      15.28380299
O       23.63829422      22.60960960      13.59332466
O       25.69782066      23.72400284      12.94651699
O        9.73199558      19.84520340      21.67128563
Cl      10.32052040      19.07687759      20.53091240
O       11.73138809      19.55780983      20.34125900
O        9.56660461      19.31830788      19.28653526
O       10.36303329      17.62446213      20.84131432
O        6.93524837      11.86401939      18.91683388
Cl       6.41183805      11.64086628      20.28840446
O        5.11386538      10.91904926      20.18734550
O        6.14920664      12.95553493      20.96559525
O        7.41748810      10.89073372      21.08667374
O       20.35654449      10.90158463       8.42694759
Cl      19.51463509      11.68611431       7.45706797
O       18.13714218      11.14497662       7.43485498
O       20.11682320      11.65245819       6.11486053
O       19.46012306      13.09900665       7.95542002
O       23.10197639       2.24607396       9.53211880
Cl      23.70656967       3.50707746      10.04085350
O       24.25908279       4.22181559       8.85029125
O       24.85011673       3.21788168      10.94678783
O       22.69865608       4.35561848      10.69160080
O        5.14220428      10.49815083      25.54214096
Cl       5.30950928      10.34015846      24.05186653
O        4.23605156      11.11438084      23.35043144
O        5.23821640       8.91669369      23.64440536
O        6.64042521      10.90015221      23.69116402
O        9.35284710      23.31091309      14.74184036
Cl      10.16501617      22.47295952      13.80786705
O        9.28596783      22.07986069      12.68046951
O       10.73506260      21.25094795      14.45965004
O       11.32102108      23.28145981      13.30124378
O       15.57172298      18.08063316       2.43254185
Cl      15.43641090      17.95959282       0.95544964
O       16.26142311      18.99375725       0.29675576
O       13.99601650      18.17815208       0.60222960
O       15.86012459      16.62133980       0.48635334
O       13.75559425      23.81589890      23.83786774
Cl      12.44301701      23.58080101      23.15789413
O       12.61565018      22.60112190      22.04043388
O       11.92910862      24.86857796      22.63351059
O       11.45019054      23.01757240      24.13994598
O       21.94671822      14.29184914       8.80523205
Cl      22.62849617      14.74036980       7.55138159
O       22.33249092      13.88698578       6.39125443
O       24.11381721      14.66776180       7.79900217
O       22.17315865      16.14323044       7.27365446
O       24.39931297       1.15248024      17.07056808
Cl      25.68166542       1.80559504      16.71541405
O       25.93665886       1.79070723      15.26984310
O       26.82026291       1.12230742      17.45321846
O       25.61275864       3.23903227      17.19809341
O       14.41348553      15.93595982       8.30257702
Cl      14.83514500      16.25874329       9.68516254
O       16.27124405      15.84620476       9.88503551
O       13.99349976      15.49856472      10.65441132
O       14.71961308      17.71062660       9.92654991
O       20.72484589      22.57699394       5.17349863
Cl      19.87868881      22.93176079       3.99281478
O       19.34778595      21.73572540       3.30152917
O       20.69973946      23.71564674       3.00745678
O       18.78730583      23.81859779       4.47023201
O       16.37013626      26.89699745       8.73348618
Cl      17.72829628      27.40295601       8.39732361
O       18.20430374      28.27679062       9.53137779
O       17.67205238      28.16284370       7.13501406
O       18.71372414      26.27773476       8.26402092
O       21.01058197       7.14940929      10.88063240
Cl      19.73606682       7.12936497      10.11448002
O       18.64054871       7.62796211      10.99832153
O       19.44109154       5.74615002       9.65008640
O       19.84707260       8.02162838       8.93817997
O        2.75932622      29.01408005      23.21953011
Cl       2.24251819      28.35131073      24.45865440
O        0.84400666      27.90937614      24.20632553
O        2.25361967      29.37600899      25.55628967
O        3.15172791      27.21606255      24.82723808
O        2.29571962      25.19933701       2.59044051
Cl       2.36191678      24.04368591       3.49873090
O        1.86398888      22.85385895       2.77979016
O        1.49264657      24.29780960       4.65688086
O        3.76018620      23.83989525       3.93289113
O        4.21804667       4.30868816      15.74641991
Cl       3.26988626       4.55646372      14.60689735
O        2.77665734       3.28882933      14.02689743
O        4.00802374       5.31961155      13.56054688
O        2.13606787       5.39274120      15.09047508
O       28.93156242       5.01492023      24.28453064
Cl      27.59129715       4.48442173      23.93030167
O       26.66690254       4.49684048      25.09886360
O       27.71144104       3.03267503      23.46343994
O       26.96046829       5.25203943      22.80759239
O       20.66073608      25.29564476      26.56793785
Cl      19.70346642      24.55396843      25.64447403
O       20.25634003      23.21555519      25.38018799
O       19.48251534      25.31991196      24.43111801
O       18.40608597      24.45316887      26.39346313
O       11.48243809      15.25279140       8.81413555
Cl      10.90954494      16.64749718       8.73144627
O       10.85322666      17.03820229       7.29878807
O       11.71369267      17.61150932       9.51124096
O        9.52349758      16.60205269       9.29740620
O       17.03746414       1.21074307      14.04265499
Cl      18.34013367       1.52186000      13.31416512
O       18.12274170       2.50328660      12.23968410
O       18.83828735       0.25248986      12.69163322
O       19.27620697       2.06143475      14.34378910
O       13.33133125      16.26266479      15.25898743
Cl      12.92048168      17.29150009      14.24936104
O       12.82188129      16.67832184      12.90464687
O       13.90799046      18.40710449      14.21303558
O       11.57977962      17.83727646      14.61885548
O        8.33639717      24.65754890      19.91159439
Cl       9.52547169      24.76961708      20.80431557
O        9.55825710      23.59870338      21.71652412
O        9.41884613      26.02972984      21.62037659
O       10.73896122      24.85166931      19.96791649
O        7.41131830      10.60065651      14.06635094
Cl       5.96801424      10.31697559      14.25109291
O        5.37180662      11.35933113      15.11887741
O        5.76479006       8.96030331      14.87821007
O        5.32756233      10.28461266      12.91017151
O       13.41545105      18.64524651      24.93115616
Cl      12.35584164      18.32351685      25.94698334
O       11.04887486      18.11283112      25.25848389
O       12.25004292      19.48984909      26.87995148
O       12.72400856      17.08143425      26.71116638
O       15.44651318      11.05910301      17.20208740
Cl      16.47193336       9.96142292      17.16644669
O       17.23045731      10.01676083      15.89988804
O       15.79382896       8.65044212      17.32287216
O       17.40386772      10.20384026      18.33053589
O        8.77541447      27.64788246       2.54241061
Cl       7.44513273      28.05193329       2.06295347
O        7.61938667      29.28397942       1.21782470
O        6.45415068      28.32478714       3.10120082
O        6.93084288      26.96529388       1.14053535
O        3.37788677      18.39584541      18.52513504
Cl       3.66357207      17.14908600      17.75545502
O        3.26930285      15.94314861      18.53420067
O        5.06106567      17.05058289      17.33083344
O        2.79425287      17.25256348      16.53070831
O       12.31023979      23.51321030      10.23525906
Cl      11.81903362      22.21509361       9.68770504
O       12.12039948      22.14347458       8.24055004
O       10.36196613      22.08508301       9.89522171
O       12.54758263      21.10853004      10.41282845
O       21.82738495       1.36629665      12.22620869
Cl      22.44346619       1.82227743      13.48838234
O       21.98682022       0.93042904      14.61410332
O       22.01893616       3.21497512      13.77337837
O       23.90522385       1.76362813      13.39066887
O        5.10702562      25.11863518      10.35867119
Cl       4.80144024      26.53602028       9.95038700
O        4.80388355      26.68284988       8.49022007
O        5.80055475      27.42894936      10.60637760
O        3.43596458      26.90279007      10.46741962
O       26.75458336      19.52019119      20.96068764
Cl      26.85907555      19.91264153      22.39296150
O       27.54430199      18.81775284      23.15073013
O       25.49760056      20.11294746      22.96411324
O       27.62630463      21.15275383      22.49501038
O       13.94058895      13.26813030       3.46173716
Cl      13.94287205      13.04546165       1.99855149
O       14.37174988      14.26303387       1.26089549
O       12.57011795      12.69555950       1.52633703
O       14.87482548      11.93116188       1.60140038
O       15.51009083      15.11929703      26.52924728
Cl      16.91385460      14.63793373      26.47417831
O       17.66070557      15.46244144      25.48092842
O       16.95477295      13.20932293      26.01939201
O       17.54125595      14.69420242      27.85193634
O        2.51877904      22.93062210      23.49828339
Cl       1.30001581      23.51115990      22.87608337
O        1.58407474      23.78312683      21.42282486
O        0.94711471      24.80558014      23.52198601
O        0.14472996      22.59152603      22.94541550
O       10.79783154      12.15743923       8.09359550
Cl      11.24354076      11.48702717       9.34479332
O       10.37498283      12.00366116      10.45843506
O       12.66653633      11.85844231       9.59447098
O       11.10556698      10.00747585       9.18642998
O       24.27480698       5.73462200      19.41915703
Cl      23.63817978       4.41589165      19.77420425
O       22.70275307       4.67318583      20.92026329
O       24.72797775       3.44942403      20.17262650
O       22.83767128       3.92228866      18.61267090
O        2.83563972      26.95382690       5.95500565
Cl       2.74780297      28.02626991       4.92615032
O        3.45695758      27.65143776       3.70549107
O        3.37908363      29.26000214       5.51215696
O        1.33253419      28.33078575       4.62157249
O       19.25102234      23.13308525      20.13271332
Cl      19.33802223      23.70661163      21.50374794
O       20.75973701      23.85291290      21.92663956
O       18.61382294      22.82728004      22.46380234
O       18.74478912      25.04473686      21.51217651
O       21.55733299       9.45466518      13.19197178
Cl      20.71922112       9.27033329      14.38724232
O       20.94284058       7.93455744      15.02154446
O       19.27838898       9.39985466      14.02009678
O       21.09038734      10.31796741      15.39777946
O        6.30335855       8.46069050      18.85894203
Cl       7.07618904       7.51793861      19.73123360
O        6.47052670       6.16133356      19.52563095
O        6.93126011       7.93310785      21.14053917
O        8.49657726       7.56962347      19.31150627
O       18.26896477      11.58894730      22.86908340
Cl      17.40664864      10.42470264      22.45261383
O       18.13541985       9.64149857      21.41132736
O       16.12023735      10.93409729      21.89169502
O       17.12589264       9.57825565      23.66941452
O       10.80540752       0.26040199      11.55113602
H        9.86448002       0.32966861      11.80133724
H       11.30248642       0.95306373      12.05036449
O       19.89851761      25.84648895       1.23387432
H       20.15516663      25.16610336       1.90175760
H       20.62104225      26.50232887       1.24350095
O       23.98059845       8.14168453      21.87375832
H       24.64198685       7.45963907      22.11758423
H       23.61132431       7.80478096      21.03208923
O       27.60034370      10.02980804      17.26159286
H       27.29519272      10.28738880      18.15053940
H       26.85163879       9.52817249      16.87496758
O        9.94489670      13.12807751      18.70615768
H        9.99905872      12.90826416      19.65651703
H        9.10145378      12.74502754      18.39809036
O        8.26666069       0.43809700      16.35673332
H        8.64279556       0.87429464      17.14594650
H        7.95298624       1.18689954      15.81399822
O       17.21539307      12.54642200      12.53003216
H       17.47144890      12.02166080      13.31543827
H       16.54969025      11.99793339      12.06824970
O       11.19686413      14.25357628      15.67647839
H       11.84865570      14.57944012      15.02207088
H       11.40775585      14.73242378      16.50249863
O       19.87127495       6.39085197      25.13886261
H       19.36137009       6.63959742      24.34753036
H       20.65908432       6.97467804      25.18362999
O       13.97207165       3.57082462       9.08199501
H       13.08360958       3.16302967       9.00664234
H       14.31683254       3.28426123       9.95204544
O       15.75112724       6.22626638      15.71442032
H       15.40310764       5.33971977      15.93529892
H       15.31553459       6.89204645      16.28085709
O        5.22498369      17.85039902       4.28118467
H        5.93240499      17.69327164       4.94621086
H        5.00265265      18.79560280       4.37281036
O       13.97235203      13.85604954      18.00153542
H       13.46236038      13.15308285      17.55773354
H       13.38651276      14.21633911      18.70084572
O       19.69256210       6.50998259       6.30133486
H       18.99328995       5.84753990       6.45665216
H       20.23400307       6.55071259       7.12017107
O       14.70023823      12.11477947      24.26202011
H       13.85032558      12.50531960      24.56243134
H       14.53345966      11.65976715      23.41227150
O       11.66614342       9.11651039      18.90309715
H       12.10545540       9.38517570      18.07177544
H       11.18118000       8.29347801      18.69039726
O        7.84913635      20.21258736       5.46313620
H        8.01193714      20.36532593       6.41759300
H        8.71268749      19.94982147       5.09204674
O       23.17614174       9.61068058       8.12204075
H       23.36236382       9.10978413       7.29058218
H       22.32543945       9.24954319       8.44351387
O       22.46206284       6.55961657       1.45568705
H       22.37969208       5.95688915       0.69226611
H       21.78166962       6.36275291       2.14035058
O       28.56180573      27.77422905      26.54521179
H       29.18638802      27.57156181      25.81335640
H       28.54897881      28.75082970      26.60618591
O       22.40551949      11.75952625      22.66819763
H       22.40098763      11.81907272      21.68778801
H       21.51563454      12.05637360      22.94189262
O       14.17772770      27.57451248      16.78477859
H       14.56451035      28.37462234      16.36555099
H       14.80406570      27.30666161      17.48476410
O       20.19375801      13.42936039      13.73455429
H       21.10580444      13.13992023      13.95693398
H       20.12562370      13.41452026      12.75701523
O       27.52862930      20.95635986       2.91152263
H       28.29900551      21.55596161       2.89642978
H       26.72899246      21.51438713       2.87753654
O       24.90821648      20.24722672      10.82150078
H       25.57120514      20.66309547      11.40722561
H       24.00608635      20.54863167      11.16558647
O       11.63387966      22.21387672      29.30029869
H       11.34413719      22.62644577      28.46164894
H       11.86570454      21.29564857      29.04727364
O        2.52950454      22.43561363      18.73992348
H        2.10532904      21.70030785      19.24503708
H        3.30031562      22.65544891      19.31921768
O       14.55990314       8.72944641      14.13660812
H       14.27159500       9.64517498      13.95156002
H       13.74250889       8.30503273      14.46053696
O        0.84854615      15.33491039      10.14409542
H        1.09905934      14.47738838      10.54715347
H        1.69641972      15.84491634      10.17134762
O       22.45527649      20.94453812      11.26875687
H       22.36713791      21.92804337      11.14149857
H       21.84010506      20.69196510      11.99063969
O        7.49112606      16.22532272      16.02260971
H        7.31358814      17.16293144      16.26705170
H        7.39903021      15.74883842      16.87017250
O       21.80234528      17.36947250      16.46872330
H       22.60783386      16.93632317      16.82427406
H       22.04448128      17.75850296      15.60143375
O       15.85448074      17.53588867      24.02759743
H       16.22558212      16.87671280      24.65233612
H       14.90314388      17.64445496      24.24621010
O        5.24003077      10.50671768       2.02556014
H        5.97921562      10.15007687       1.49761760
H        4.44657850      10.04741192       1.66519320
O       11.29878330       2.72266054       9.35900784
H       11.21045494       3.34175658      10.10871887
H       10.86814785       1.89179492       9.64192867
O       19.04744720       0.23933838       4.44630861
H       19.11008072       1.21930051       4.51922178
H       19.18861389      -0.10228211       5.34816456
O        1.88771498      10.00121593      14.36243439
H        2.32748556      10.87882710      14.35923386
H        1.54592478       9.91046715      13.44819069
O       26.75415802      14.25980663      28.11152649
H       27.73315811      14.20721722      28.15263939
H       26.53953743      14.59619045      27.21416664
O        0.52107811      13.83003616      15.12166119
H        0.40575960      14.32575703      15.95444965
H        0.13046506      14.37791443      14.41529655
O        1.44821799      28.94374084      11.08453751
H        2.26988626      28.40477562      11.12676716
H        0.81066358      28.42380714      10.55689526
O       14.86267757      28.68968201       5.92131662
H       14.50077438      27.96381950       6.46858072
H       15.82155800      28.69985771       6.14020205
O       20.06122780      13.27380371      27.96977234
H       20.75361824      13.53492451      28.61195374
H       19.31350708      13.89188480      28.10343170
O       16.70291138      16.32504463      21.54837036
H       16.05616951      16.41755867      20.81983185
H       16.36425591      16.89422417      22.27600098
O       17.77163315      17.67069244      17.27536774
H       16.84193230      17.53874779      17.00187111
H       18.06884003      18.49359512      16.84048462
O       26.63946152      23.31126213       7.90741777
H       27.56327629      23.19129753       7.60852957
H       26.17764854      22.44534683       7.79434061
O        6.18632936      22.28264236       9.90310001
H        6.83428955      21.69960403       9.44491959
H        6.06437874      23.05810547       9.31859589
O        9.37795067       5.97657108       7.36666393
H        8.61574936       5.70579767       6.81178570
H        9.76899242       5.14628077       7.69790840
O        2.94600701      23.34336662      12.32793236
H        2.34867358      23.32731628      11.55732250
H        3.74994349      23.81267929      12.01860046
O       26.89184570       1.19032204      10.14865875
H       26.31114769       0.84018153      10.84936142
H       27.23122597       2.02806044      10.51561642
O        5.23592091      13.58495712       1.50432050
H        4.63448620      13.69636345       0.74823177
H        5.17411089      12.62619686       1.72122633
O        3.80715775       7.11700201      21.13103104
H        4.48519325       6.77489614      20.51061821
H        4.33715534       7.50817394      21.85550880
O       19.72885704      12.04691505      17.14786530
H       18.82048988      12.12944317      16.79410172
H       20.14740562      11.34269810      16.58826637
O       21.77477264      13.11855984      20.23742867
H       21.90587234      14.07170773      20.06358337
H       21.56076813      12.70596313      19.38034248
O       15.93140602      15.38689423      16.37014008
H       15.93659973      15.26291466      15.39068985
H       14.99763393      15.31881237      16.65251541
O        9.98358059       6.73945141       1.43156481
H        9.96039009       6.30087757       0.55469000
H       10.88618565       6.62299967       1.77960324
O        9.82971764      18.15855789      12.17741966
H       10.07759380      17.81143951      11.29828644
H       10.36489105      17.71785355      12.86719131
O       17.17315292       3.41801739      18.65434837
H       16.49679565       3.99662519      19.07925415
H       17.04658127       3.53799725      17.67708206
O        9.30396652      28.75838280      22.51843071
H        9.85321331      28.48111916      21.75729179
H        8.45439816      28.27595329      22.47784424
O       22.25524139      13.77027893       0.77273917
H       22.51217461      13.15969276       1.49511755
H       22.62987900      14.62646484       1.04581380
O       28.27684593      26.34912872       2.68914676
H       28.14654922      26.38778496       1.71949792
H       29.05865288      25.78508186       2.86676645
O       25.32478714      28.89607239      23.33112144
H       26.12784386      29.06891060      23.86086273
H       25.19650269      27.92781830      23.35600281
O       27.63138771      15.10083389      25.11744690
H       27.31815910      14.39998055      24.52070618
H       27.47500420      15.94192410      24.64586449
O       22.58326912      21.80111504      21.90055084
H       23.35304070      21.90642357      21.31161499
H       22.12110329      22.66935921      21.95272827
O       10.23523140      11.34481621       1.65399504
H       10.27210999      11.91029549       0.85607576
H       11.16238308      11.40501499       1.98687482
O       17.90537453       9.03850555       4.58048725
H       18.26888466       8.64494324       5.40116787
H       16.93770218       8.89853764       4.64959812
O       20.06453514      20.44138908      15.90625954
H       20.70988846      20.11863327      15.24635029
H       19.99649811      21.40994263      15.73800087
O       11.29923153       3.36083674       1.36403024
H       10.67852020       3.44357204       0.60766906
H       10.71986198       3.20876431       2.13157630
O       17.92777634      19.29523468      23.17521095
H       17.08501434      19.16743469      23.66324425
H       18.25244331      20.18851089      23.39970589
O        7.87658453       3.32205677      10.36519432
H        7.70339870       2.89198542       9.50574017
H        6.99514484       3.39209747      10.79703617
O       25.36470795       8.51519299      16.13047600
H       24.88709068       7.72414303      16.45544243
H       25.03995514       8.68938828      15.22803020
O        4.05876923      27.56122208       0.53271174
H        3.64306235      27.90156746       1.34935820
H        4.92170000      27.19806862       0.82948369
O       16.98296356      12.52953434       4.18405342
H       16.51038170      12.96562672       4.92606020
H       17.38279343      11.74429989       4.60674429
O       17.53360176      10.40727425       0.46558094
H       17.79405975       9.47300529       0.61705619
H       17.53687477      10.80409718       1.35566247
O        5.95590401      26.14224434      20.73604774
H        6.79010487      25.71208763      20.43566895
H        5.85717773      26.92933464      20.16378784
O       16.98123741       3.60076451      15.96818066
H       16.67789459       2.84187746      15.42141819
H       17.72908020       4.03534842      15.50283623
O        1.79169869      26.17428780      19.94904900
H        1.82842743      25.51004219      20.67658234
H        2.68819237      26.57574463      19.90510368
O        1.83438504      12.52640057      20.55031586
H        2.60775661      13.01621723      20.20911407
H        1.14101505      13.19361305      20.70135880
O       14.95880795      24.98326111      26.43443871
H       15.54580784      24.28479958      26.01891136
H       14.09635639      24.54306221      26.51588249
O       15.51089573      13.35413837       6.86313629
H       15.33277321      12.43043613       7.18887949
H       16.20106697      13.70325947       7.45983696
O       22.25425720      23.97636986      28.44431877
H       23.12315941      23.60476685      28.18036079
H       21.91613960      24.50601006      27.68939209
O       18.90181351       7.79321623       1.61333513
H       19.71049118       8.34586716       1.61102867
H       18.63224411       7.80506945       2.55450773
O       12.50570011      28.08319855      20.95082664
H       12.80190182      27.25106049      20.51564980
H       12.76907158      28.84244347      20.39923477
O       28.63594627      10.78772259       9.02745247
H       27.73854256      10.59890747       8.69154358
H       28.49670410      11.47766113       9.72467804
O       23.40950584       3.29086471      24.08303452
H       23.71160126       2.38504958      24.28338432
H       24.15892792       3.89008355      24.29710770
O        1.66603041       9.72192860      11.37630558
H        2.37859893      10.40681458      11.30002975
H        0.95464098       9.99295235      10.76577091
O       13.08313179       8.85379219      22.14485550
H       13.45697975       9.67940331      21.77390289
H       13.09897041       8.22037220      21.39691162
O       24.29667664      26.33654404       7.90495872
H       23.59817314      26.71693993       7.32120037
H       23.74901962      25.94053268       8.61163139
O       14.79648781      -0.07664683      14.78652382
H       15.70828342       0.09320331      14.44484901
H       14.34030151       0.78629315      14.61107063
O        2.32383895       6.80472279      18.31795120
H        2.26713204       6.27453184      19.14153290
H        3.11963606       6.48970652      17.83324242
O       16.25070190      15.06015491      13.67293167
H       16.66984940      15.83767509      13.25340176
H       16.55887985      14.26290894      13.18941593
O        6.36924362      27.61907196      23.20050812
H        6.05620956      26.97731972      22.51414299
H        5.71136856      27.60181046      23.92718697
O       20.12500381      12.79517937      10.77528191
H       19.81190109      11.89997578      11.02773094
H       19.78276253      12.92743015       9.85956383
O       15.54166603       0.62243330       8.89334393
H       16.36053085       1.14353216       9.07299423
H       15.12923813       0.98377496       8.09055042
O       18.44529915       6.54423285      15.59196568
H       18.59215927       7.36888885      15.08265209
H       17.45240402       6.46862698      15.67271805
O       27.13503456       4.77835703      12.16173363
H       26.44162560       4.13370562      11.89818954
H       27.87095642       4.24934006      12.52826500
O       25.51768112      29.11187935       7.55252695
H       25.04084396      28.56105614       8.20433426
H       26.33854866      28.62438583       7.34144258
O       26.54356194      14.15364647      17.23556900
H       26.06336403      14.01485252      18.07591438
H       26.49109650      13.31014061      16.74366188
O        5.71977568      15.22836494      23.20142555
H        4.80260420      15.45680046      23.45309639
H        5.81740570      15.64537525      22.31549835
O        5.70636606       2.59469581      17.67826653
H        5.42771769       3.21410775      16.97056007
H        6.09338665       3.15153837      18.38490868
O       12.90284538       6.20968151       9.32456684
H       13.16078568       6.83089781       8.61536503
H       13.42770672       5.38677645       9.14135361
O       27.16744614       5.39329290      17.83316803
H       26.71729660       4.60963488      17.43847466
H       27.44416809       5.96194172      17.08921432
O       11.89325905      27.41719627      12.47901535
H       11.39675999      28.26464844      12.39839363
H       12.32346439      27.28066063      11.60930252
O       23.09109116      13.04043674      15.10781097
H       23.64508247      13.71701241      14.66125870
H       23.30472565      12.20373535      14.62283421
O       20.44520187       6.45073509      20.50546265
H       21.31823540       5.99981165      20.52941895
H       20.21578598       6.64700222      19.56428719
O       14.72241879      10.07653809      26.22115517
H       14.82259083      11.00036907      25.89865112
H       14.07401848       9.67536736      25.61804390
O       12.15327263      19.82797813       6.23132992
H       12.21553421      20.49009132       6.95121098
H       12.00372219      18.97644997       6.69020653
O       18.97427368      16.71522713       1.14007998
H       18.51222610      17.56906128       1.23900902
H       18.31438065      16.16291618       0.67890388
O       21.57239723      27.64234352       9.14462376
H       20.88467407      28.33284378       9.12914848
H       21.43620872      27.12779617       9.97070789
O       21.04758072       6.73740196       3.94793463
H       20.45669556       6.44222307       4.69079876
H       21.60502052       7.41781187       4.36922407
O       23.98204231      27.77227402      16.92523193
H       24.92329979      27.53370285      17.05225372
H       23.97916603      28.74342537      16.77684784
O        4.44221640      22.44404793      15.64998341
H        4.46543694      23.14300728      16.33600235
H        4.66179419      21.60068512      16.09975052
O        1.13561404      20.70173264      20.43363380
H        1.69441497      20.23626518      21.09544754
H        0.51707065      21.26767731      20.94251060
O       28.46889687      18.55392075      14.11108589
H       29.29432297      19.11829185      13.99488735
H       28.37750244      18.06409836      13.27372837
O       27.03547478       3.06951308      28.65776062
H       26.08982277       3.25722957      28.47622299
H       27.51606941       3.56746411      27.96618271
O        4.80674887      22.53489113      26.99813080
H        5.27272844      23.35091019      26.73212242
H        4.93590450      21.90966606      26.24830627
O       22.59506607      16.13201523      11.51836395
H       22.75748825      15.47465038      12.23068428
H       22.22423744      15.60280323      10.77648449
O        6.23019886       3.19242406      20.81657791
H        5.91168642       2.33077693      21.14484787
H        5.73407745       3.85976744      21.33224869
O       17.31317711      17.13578415       6.56220961
H       16.79212570      16.37119865       6.24675226
H       16.90131760      17.91002655       6.13618708
O       28.77585220       7.74361372      19.77050400
H       29.15197563       8.01686001      18.91423988
H       29.44971466       7.17298222      20.20536232
O        3.01392913      26.77825546      15.56835651
H        3.29144287      25.84163666      15.67446613
H        2.08295965      26.82876205      15.85729885
O       14.17488384       5.79885530      25.14059639
H       13.24525833       5.94747734      25.39328957
H       14.33028698       6.26226997      24.29197311
O       11.86381912       1.84602642      24.86419678
H       10.89115429       1.81698787      24.77317047
H       12.16276073       2.32356501      24.06352615
O       11.36999607      27.97467613       3.84794283
H       11.12210083      28.87387085       4.13287115
H       10.51986027      27.59070778       3.54540539
O       22.83946991       5.97279167      13.15891361
H       23.08956718       5.30725479      12.49354172
H       23.25919342       5.68333817      13.99884415
O        9.30617428      12.16252136      15.82251835
H        9.95467854      12.89625168      15.71655369
H        9.29757023      11.69191647      14.96949959
O        1.55209768      17.63018608      28.66168213
H        1.47227776      17.28540611      27.74953079
H        1.41413176      18.59627342      28.58731842
O       16.06625557      22.96831131      25.07657051
H       16.98652840      23.03044891      24.75594521
H       15.46746922      23.08565712      24.30931473
O       15.56807804      27.75321198       2.45418930
H       16.31369591      27.44437981       3.00742698
H       14.93589020      28.13985252       3.09344983
O       27.53384209       1.05577731      25.47693062
H       27.71365356       1.83010626      24.89800835
H       26.96364021       1.39742398      26.18739510
O       21.21273232      14.47725773      17.57885551
H       22.16383553      14.50889015      17.35036278
H       20.84925079      13.69217205      17.10282135
O        3.39858460      14.88906384      15.09036827
H        2.71365738      14.31049156      14.70522785
H        2.94793487      15.70790100      15.37792683
O        1.32498229      19.68918037      13.73892975
H        1.75927269      19.96417809      14.57504463
H        1.88309598      18.98547363      13.33980560
O        5.55502605      14.14594650       5.62460709
H        5.79763031      13.22690678       5.40045309
H        6.34860468      14.55348587       6.02971792
O       22.90205383       7.92046690      18.34895134
H       22.12829399       7.68254232      17.79951096
H       23.35505676       7.07506418      18.57858849
O       13.96701431      13.05088329      27.90371132
H       13.86040020      13.39657688      26.99421883
H       13.90980053      13.83637238      28.48918343
O       18.07568169       5.37521696      21.86707687
H       17.49643517       5.97249222      21.31526756
H       18.91367912       5.33974314      21.36077499
O        5.89347601       1.46250916       8.25136280
H        5.53474474       2.34298921       8.01609802
H        6.22851515       1.07147276       7.41795540
O       24.16167831       5.49555588      15.73553562
H       23.62182236       5.06277990      16.42867661
H       24.80635643       4.81307220      15.45678616
O       10.01973343      11.53520298       5.63564157
H        9.85603523      12.18108368       6.35442781
H       10.07524586      10.67447758       6.08818436
O       28.17826080      26.70293045      21.92841530
H       27.29953003      26.27132225      21.96684456
H       28.77859688      26.24391747      22.55291176
O        6.91428185       7.51434231       5.56001091
H        6.82427883       8.41383648       5.93662167
H        6.00305653       7.18042707       5.44360065
O        7.16988897       4.20080471       5.90987587
H        7.40968180       3.46222329       5.32356024
H        6.23662376       4.41503716       5.71275854
O        0.49312010      17.62678337      21.46024704
H        0.72355074      17.34276962      22.36833763
H       -0.26827300      18.22590065      21.57081795
O        6.55358839       2.62714744       2.73920703
H        7.39804077       2.19812703       2.50267649
H        5.85812998       1.96784687       2.51950026
O        5.29610109       3.29065871      11.75281525
H        5.49007463       2.94679356      12.64513302
H        4.75828886       4.09306240      11.91633606
O       28.04681969      12.49651146      11.31953430
H       27.75786591      12.04626179      12.13520718
H       27.31604004      13.10651302      11.08775711
O        5.14906263      25.00487900      16.76569557
H        6.00267839      25.33370209      16.40252686
H        5.10242796      25.40071678      17.66330910
O        9.58864403      18.60692978      29.24191093
H       10.23795223      19.02047539      28.62763023
H        9.08473969      17.95734596      28.71333694
O       23.35264397      11.64503765       2.85588813
H       23.13360977      11.63884068       3.80999541
H       24.32530975      11.52942276       2.79034853
O        2.16048050      26.57860565      27.93404007
H        1.82018614      25.90331078      27.31997299
H        2.58262038      26.09119606      28.67002106
O       25.19145393      26.04657555      22.01966667
H       25.15414429      25.09066391      21.75797653
H       24.84101295      26.52159119      21.24104309
O        8.09481907      20.23852921       8.72062016
H        7.86317873      19.45717239       9.26487637
H        8.89544010      20.63612175       9.12799931
O        8.56255436      13.91062737       7.13511610
H        9.19262981      14.29751110       7.77861929
H        8.05593109      13.23891354       7.65194464
O       25.88173294      26.60819435      26.73618889
H       25.91609764      25.70231628      26.36982536
H       26.65177155      27.08641815      26.35756493
O       13.25889301       4.82673597      16.83866882
H       13.05812836       5.29821920      17.66892433
H       12.47346783       4.96934319      16.25927544
O        3.33190870       1.98306537      19.39245033
H        3.24420452       2.94970775      19.52114105
H        4.03764105       1.88809788      18.70996857
O        7.66611528      19.59690475      12.70413208
H        8.04089928      20.49841881      12.67574692
H        8.46907234      19.01461029      12.55573463
O       16.74319649       8.95095444       8.67455864
H       17.66987991       9.24585342       8.52802753
H       16.68691826       8.02212620       8.36512566
O       28.38726616      10.55806160       5.48661375
H       27.47606087      10.26736164       5.28487253
H       28.30524254      11.49955273       5.78785753
O       20.47533607      13.04312515      25.19801140
H       20.33412933      13.27668953      26.15009308
H       19.62524796      13.23305893      24.75996590
O        4.37953663      27.49082184      17.99830437
H        4.02810383      27.45016670      17.08242416
H        4.97302246      28.26500320      18.03623581
O       27.53970146      16.30332947      10.44258118
H       28.48262024      16.09420204      10.63116550
H       26.98037720      15.57084560      10.78216743
O        3.48017740      13.35544968       8.31160831
H        3.58511043      13.33136272       9.28930759
H        4.37153149      13.57910156       7.97948599
O        7.24021435      17.20774460      24.84984779
H        6.85982513      16.69649124      24.10241699
H        7.71020269      17.95973015      24.43258476
O       24.37368774      11.44669819      17.89194298
H       23.97649765      11.84157753      17.08784103
H       24.32121086      10.47910976      17.74529266
O       14.91490364       3.09340143      25.32400513
H       14.60914516       4.01549816      25.16564941
H       14.48497486       2.81158662      26.15845680
O        4.58381891       8.06658554      10.81524944
H        5.01584959       8.93049812      10.64250183
H        3.67897534       8.27718353      11.11995983
O       18.11531258      13.02357292      19.74828911
H       18.60158920      13.31449795      20.56469154
H       18.61274719      12.28434753      19.34803581
O        9.73839855      18.95148849       2.55431867
H       10.03817558      18.71335983       1.65354097
H       10.28952694      18.43421173       3.17858458
O       19.62061501       7.45555305      18.05538177
H       18.95504761       8.14969349      18.23178864
H       19.31947327       7.02162552      17.21725655
O       25.77707481      11.09598541      26.74260902
H       24.83510780      11.23323631      26.96310616
H       26.26388931      11.63955116      27.39255524
O       19.16840935      14.57594872      21.74767685
H       18.91562462      15.47835350      21.47130585
H       19.34930801      14.68602180      22.70269203
O       18.06373405       1.65386987      20.60425377
H       17.73479080       2.09707499      19.78598976
H       17.85887146       0.70649004      20.51137924
O       22.67774391      11.05739498      25.85030556
H       22.26450539      11.91770363      25.61579895
H       23.39321518      10.89292049      25.20643234
O       12.33361340      13.16912270      25.42239761
H       11.97113991      13.34947300      24.52646828
H       11.59554482      12.95811081      26.02087021
O       14.30080605      20.72439003       3.15095878
H       14.89682770      20.02529716       2.80723596
H       13.66164207      20.25301361       3.71943331
O        1.24960279      22.98802948      26.33647919
H        0.98187786      23.79127502      25.84409523
H        1.73995411      22.45706177      25.67564392
O       18.40086746       4.97780895      27.11412239
H       18.85087204       5.74360228      26.69209671
H       18.41469193       4.28049660      26.43044853
O        3.30315208       9.36321640      18.91141891
H        2.88200498       8.48782063      18.73217392
H        4.26071167       9.18127918      19.03061295
O       14.84172821       8.25795364       4.98781538
H       14.62545490       8.75004482       5.80203819
H       15.22016525       7.39966631       5.27315140
O       22.65865898      26.16483879      14.74762726
H       23.31248665      25.97109413      14.05029297
H       23.14755249      26.69272995      15.42200565
O       16.61885834       0.27980411      17.95933151
H       16.94598198       0.33175832      17.03736115
H       16.40761375       1.19965196      18.23067474
O       17.10685921      20.44480896      18.55487823
H       16.21040154      20.38266754      18.16361618
H       17.29154778      21.39730453      18.64713097
O       11.24599075      20.23781013      16.93115234
H       11.05431175      20.74455452      16.11536598
H       12.20774651      20.30824661      17.08997536
O        9.95898151      15.40495586      25.42303467
H        9.95432949      16.33887100      25.72496223
H       10.08933449      15.45471954      24.45500755
O        8.70222187       1.72692955      23.48452568
H        8.98324871       0.96180832      22.93181419
H        8.57809925       2.48907065      22.89089775
O       26.93423080       1.64802361      20.04765701
H       26.36908722       2.35400939      19.65231133
H       26.96138763       1.00506413      19.30011940
O       14.24797821      21.61940193      27.78628349
H       13.59209633      21.07698822      27.30257988
H       15.12513733      21.26001358      27.53239059
O       12.07928467      27.98197746       9.43783760
H       11.44497204      27.30884552       9.11334515
H       11.52495003      28.65566635       9.87906170
O       21.78330421      26.12109566       7.02591276
H       21.74781799      25.15792274       7.17030764
H       21.36270332      26.56721306       7.80792332
O       11.06630421      -0.08436127      14.87377357
H       11.54308510       0.76322192      14.80054283
H       10.26641560       0.10116665      15.41200542
O       27.33775711       5.13231516       1.41852903
H       27.02467346       5.92356682       0.90529597
H       27.52218056       4.46764421       0.71932471
O       24.18295670      14.72879982      25.39738083
H       24.51136017      15.53197098      24.92980003
H       23.33825493      15.02539730      25.79889107
O        5.56655407      21.06257439      24.59586716
H        6.17090559      21.58431816      24.02776337
H        5.22050619      20.32636642      24.05263138
O       20.32374573       1.49091649      16.80053902
H       21.14998055       1.42878795      16.26010704
H       19.65466309       1.67492533      16.10094452
O       12.83876133      24.78848267       4.12893057
H       12.74302197      25.75621223       4.04128027
H       13.77263260      24.62356949       4.39603281
O        6.33089685      17.76629448       1.22997224
H        5.51238537      17.82189178       1.75621152
H        6.60514116      18.68536568       1.04345489
O       17.33991623      24.40389442       9.83966923
H       16.65745163      24.50578499       9.14655018
H       18.12959671      24.93167305       9.58272076
O       23.13016129      20.61006165      29.20361900
H       22.39737511      20.40919876      28.59235954
H       23.83033943      21.06090927      28.67955971
O       20.20207214      21.96334648       8.33219910
H       19.89381981      21.09261703       8.02625942
H       21.09108543      21.83794403       8.71335793
O       19.56097412      15.75073242      10.30117989
H       19.79288864      15.59622574       9.36637497
H       19.36602592      14.86959743      10.68273449
O        9.06465244      14.90468597      21.65364456
H        8.61962605      15.02219677      20.79226685
H        9.65101147      15.68739319      21.72021294
O        7.53587770      20.83676338       1.73807669
H        7.44369936      21.55217552       2.39417100
H        8.34447479      20.34829140       1.99856520
O       21.23975372      10.08879089      19.92134285
H       20.43659973       9.95730782      19.38448143
H       21.93930435       9.57410812      19.46713448
O        2.65724611       8.92258263       8.11950970
H        3.39389253       9.56604099       8.16846561
H        3.06915212       8.07268810       7.86638069
O       27.84861374      28.03130913      16.23226738
H       27.53621864      28.20340538      15.32510185
H       27.77529335      27.06155396      16.33391762
O       21.14046097       2.55892825      25.64450264
H       21.83587837       3.23556828      25.49857140
H       21.05202103       2.41756248      26.60379028
O        9.61026382      10.92523479      26.79420280
H       10.07239819      10.09811783      27.05322266
H        9.83554077      11.05067635      25.85199928
O        2.62668753      23.30639458      28.89328003
H        3.47221279      22.96112823      28.54997826
H        2.01197672      23.16181564      28.14589310
O       22.41382599       6.11063862       7.62014627
H       22.66708565       5.19264126       7.38951111
H       22.46141243       6.20611477       8.59114647
O       16.55583763       5.56064463      12.63595295
H       16.64603424       4.76577663      12.07346535
H       15.96414852       5.30269241      13.36932468
O       27.21808052      16.64527321      20.13809013
H       26.78598213      16.52767754      19.27618217
H       26.81349373      17.44960594      20.53101540
O       15.31930161      22.48484230      10.79142475
H       14.44012260      22.91629791      10.79399681
H       15.24291611      21.74156380      10.16370773
O        8.38780212      27.05577850      26.88534546
H        7.83586264      27.82754898      26.47034836
H        9.28856945      27.41974068      27.02005005
O       19.63258743      15.93583965      14.86509132
H       19.81128693      14.98461914      14.69097328
H       20.12677574      16.17291832      15.67370415
O       13.56027699       9.22334194       2.06892371
H       14.17016411       9.58547878       2.74206471
H       13.54341888       9.90224934       1.36734283
O       13.10041904      27.29273987      23.32290840
H       13.53570843      26.54792404      22.83861732
H       12.95388794      27.93186760      22.57530403
O        7.94126081      23.99178505       1.72549069
H        8.87552738      24.27234650       1.67111790
H        7.43723679      24.82393074       1.83193266
O       15.63617134      26.08886147      12.00152874
H       15.96515083      25.52467537      11.27108192
H       14.97342014      25.58130646      12.51450253
O       19.06104660       3.10966086       4.39924145
H       19.93553162       3.51024246       4.56887817
H       18.43982315       3.51076961       5.04363775
O       28.09221458      26.44958496      29.30625534
H       27.40510178      26.56350708      28.61768150
H       28.95263290      26.60612869      28.86962509
O        0.51664919      15.90697384      19.11157227
H        0.13841368      16.23777580      19.95358467
H        1.49198139      15.99060822      19.20224571
O       19.07842445       2.75314474      23.85769272
H       19.23540878       3.66818810      23.56241798
H       19.82910347       2.58187222      24.48789406
O       14.27821636       2.00969744      28.01498222
H       13.66497135       1.25414550      27.99161530
H       13.84997845       2.67799473      28.57841492
O        2.60997558      20.80562401      10.26607132
H        3.02374077      21.36880112      10.94682789
H        2.21233797      21.39640999       9.59584236
O        3.82109118       1.59854639       3.14215398
H        3.88734341       1.13702726       4.00499678
H        3.07667923       1.15568709       2.69905615
O        6.77776670      17.43201256       9.61497211
H        7.58944654      16.91357803       9.43217182
H        6.21896648      16.83274269      10.14782906
O        3.59106588       2.13621140      22.52549171
H        3.60836744       1.78417265      21.61067963
H        3.74084854       1.37739480      23.12761116
O       25.61807442      14.39375591      10.96191883
H       25.24076843      13.98426151      10.15743446
H       25.00886345      14.10076046      11.68460846
O        8.00342751      13.80257607      26.48488045
H        7.17152452      14.30256748      26.56378746
H        8.65611076      14.43333435      26.07334328
O       22.99102783      21.49487686      25.03797150
H       22.49781036      21.83472824      25.80918884
H       23.52040482      22.24248505      24.69579315
O        2.76329207       5.82876348      26.10611153
H        3.44901657       6.51489305      26.00297546
H        2.29050994       5.79460478      25.25386429
O        8.04985332      14.69038963       0.89121950
H        7.24555731      14.17939281       0.67892700
H        8.81233883      14.07932091       0.85130543
O       16.97854805       4.60074139       1.27581930
H       16.76733780       4.38238764       0.35156348
H       17.70266533       5.26055956       1.24964249
O       23.55417061      19.38007355      14.57817650
H       23.52467155      19.85245132      15.46045971
H       23.96128273      20.03923988      13.97305202
O       17.70502663      17.83456421      11.23726082
H       17.19779205      17.18586731      10.69960880
H       17.06343842      18.44819069      11.64141464
O        8.69023323       8.02640343      23.71751213
H        7.92751312       7.58141565      23.30317688
H        8.92423344       8.71088409      23.05957222
O       18.28704834      25.28041458      17.42608261
H       17.86581039      25.00042725      18.26125526
H       18.86107635      26.02585602      17.68292046
O        1.00002110       1.49817824      16.74222374
H        0.52147502       1.19734955      15.94309139
H        1.87870920       1.80408394      16.43592072
O        3.77329063      28.51415825      20.66574478
H        3.13355374      29.15155220      20.29403687
H        3.67320466      28.57982445      21.63989258
O       28.03365517      21.73143387      11.95543289
H       27.47798157      21.58757973      12.75251865
H       28.51527786      20.90434837      11.77774048
O        1.07312274       3.72350526      10.89571285
H        1.17369246       3.94152880       9.95384407
H        1.64989293       2.94492841      11.02922153
O       20.70631027      19.35654068      18.38533020
H       21.04628563      18.64168930      17.81403923
H       20.53163719      20.07970810      17.73925591
O        6.53248549      23.81315041      22.80947113
H        5.80066729      24.32440758      22.41430473
H        6.83081484      23.16790199      22.11158562
O       20.35567474       9.75214672      24.54222870
H       20.11787033      10.65662861      24.24386787
H       21.22906494       9.86156559      24.98851967
O       13.46295643      24.97372246      14.11691856
H       12.76143456      24.32058907      13.90237904
H       13.95536232      24.57655907      14.86194611
O       14.83938980      10.80604649       7.70262671
H       14.19477654      10.90779209       8.43146896
H       15.59103775      10.25783539       8.04639816
O       18.32196426       1.47654104       9.34602833
H       18.47789955       1.84753394      10.23881721
H       18.55187225       0.52351665       9.42862415
O       11.13655090       8.22793961      26.99828911
H       11.59836483       8.25955200      27.85807419
H       10.49403858       7.49140263      27.05446053
O       16.26002312      20.00020409      25.94050407
H       16.10459518      19.09865189      26.29155731
H       15.48568439      20.18745232      25.37360954
O        2.19103026      20.23071861      16.62096405
H        2.33649755      21.15096474      16.91459465
H        2.91434836      19.70788193      17.03398705
O        5.04701281       5.39497709       8.73599815
H        5.50152206       6.25776196       8.79623795
H        4.56958914       5.41802025       7.88017702
O       22.65946770       7.76700401      24.64504242
H       23.00441933       7.69727039      23.73119736
H       23.28973961       7.27454090      25.22774124
O        8.81468773       6.37264395      11.08710670
H        8.74588776       5.46287823      10.73486328
H        9.32680130       6.32820559      11.92533779
O       21.02878380      18.58815193      21.12211609
H       21.44999313      18.97811699      20.32752419
H       21.59222031      17.84027100      21.41745758
O        7.33547592      17.08392334       6.22947788
H        8.11347866      16.49994850       6.36935711
H        7.44730902      17.82743073       6.85140562
O       16.57735062       9.21040726      12.05410004
H       17.23882484       9.00486469      11.36180878
H       16.97786140       8.87784958      12.88433933
O       20.49949265      23.36066055      15.47859573
H       19.87337494      23.63192749      14.78041267
H       21.36928177      23.68646812      15.17009735
O       13.96682739      25.62509346       0.74938613
H       14.52998638      26.28488541       1.20677614
H       13.54741669      26.07525826      -0.00661015
O       24.60996819      21.36251640       7.96538448
H       24.80574799      20.82324791       8.76579475
H       24.56961441      20.74434471       7.21031570
O        5.46512604      23.69889641       6.73926878
H        4.80377293      23.05308914       6.41599655
H        5.01593256      24.56135178       6.63199759
O       20.44223404      21.95155907      28.93848610
H       19.49343681      22.15818596      28.90878296
H       20.94327736      22.72810173      28.58073235
O       19.25298691      28.11833954      17.44835663
H       18.60219383      28.61884880      17.98004341
H       19.93934441      28.76471901      17.18594551
O       10.09925270      22.48716545      18.27817917
H        9.92470837      21.58355904      17.95283318
H        9.23595524      22.85929680      18.53696060
O        7.45295858      21.88593674      21.06211090
H        8.41857052      21.81533623      20.92891121
H        7.05976343      21.04802132      20.74624634
O       27.10702133      16.40730286      15.52031517
H       27.20090675      15.73772812      16.23240280
H       27.88725471      17.00203133      15.54053879
O        7.13815498      14.46632862      10.24534702
H        7.68847466      14.30012226      11.03390503
H        6.91379118      13.58925819       9.87418175
O        8.51127338      24.40166283      24.68877792
H        9.13956928      23.66565895      24.53700447
H        7.82370758      24.32605743      23.96918678
O       23.37640190      20.80836105      16.94389343
H       23.93502998      20.79909515      17.75463676
H       23.38587570      21.75180244      16.68761444
O        7.64830732      24.47085381      27.44070053
H        7.87412214      24.35299301      26.48745346
H        7.85078335      25.41647339      27.61069870
O       16.81901550       8.52530670      27.58722115
H       16.17603683       9.26002502      27.68270302
H       16.40180969       7.90611029      26.95831680
O        4.41227102      22.25415230      20.85337639
H        3.89349437      22.39234161      21.67127991
H        4.53487492      21.28663635      20.78841972
O       19.73116875      16.74103165      23.52186775
H       19.24838829      17.56007576      23.74662590
H       20.53354645      16.71905327      24.09196854
O       20.53584099      10.17620945       2.33395743
H       21.47781181      10.43037224       2.30782557
H       20.18885994      10.48925781       3.18968320
O       24.41074562      20.93758011       4.22812796
H       23.90958786      21.72862816       4.51823711
H       23.92950439      20.15559769       4.54990578
O        4.80991840       6.81957912      16.79693604
H        5.21388960       6.01090384      16.42601204
H        5.49418545       7.29039764      17.31414032
O       18.97710609      18.83567047       8.57737637
H       18.70891571      18.97379684       9.51382732
H       18.28268242      18.26884842       8.18062305
O       23.59876633       7.79442739       6.09410763
H       24.46909904       7.36383343       5.99805307
H       23.04337502       7.11562252       6.61117792
