3208
Lattice="37.72999954223633 0.0 0.0 0.0 37.72999954223633 0.0 0.0 0.0 37.72999954223633" Properties=species:S:1:pos:R:3 pbc="T T T"
Na      18.34863663       6.19365072      16.75005913
Na       3.05118418      16.97500801      35.66133881
Na      14.68621731      21.96913147      24.62083244
Na      24.98751259       3.97365260      32.46126938
Na      31.34801292      31.08897018       5.56792831
Na      19.46219444      15.48639107       0.21604128
Na      22.32045937      29.73919487      33.24826050
Na       7.76042747       3.57352114      36.25331497
Na       5.59060574      19.79131508       8.51396465
Na      29.60563469      34.37201309      32.44693375
Na      30.63603973      12.12062550      23.01658821
Na       2.08124113      32.51252365      26.58125496
Na      23.68458557      23.27452087      31.81366730
Na       5.46884632       7.37219334      28.73732376
Na       5.65262508      13.10107231      17.41946602
Na      12.48650265      31.45806694      12.22626591
Na      31.43095016      29.20837784      31.40554428
Na      26.29383850       9.88741016       2.97387838
Na      21.29788589       0.90621376      11.78008270
Na      31.80813026      20.15829468      21.50975990
O       25.22132301       0.89642870      29.80717850
Cl      25.88343620       2.20770693      29.89777184
O       26.45021439       2.37939000      31.27309227
O       24.86288452       3.27946544      29.72250557
O       26.94102097       2.34887123      28.89355469
O       31.00191307       5.74954557      30.33221436
Cl      29.79849052       6.37199497      29.73088264
O       29.39284515       5.61754990      28.52317429
O       30.13511086       7.76714420      29.36256409
O       28.68866158       6.39411306      30.71877670
O       21.71082687      31.35916138      19.08477974
Cl      20.67509842      31.15188408      18.04188156
O       21.07175446      30.10063744      17.08461189
O       20.48172951      32.43592834      17.32906914
O       19.39563942      30.73461342      18.69793892
O       17.06957054       8.20168495      28.17434502
Cl      17.46648216       7.39008331      29.35386848
O       16.28985596       7.28861332      30.24030876
O       18.55173111       8.09587765      30.09608650
O       17.95355988       6.07214975      28.89206123
O       10.14842319      14.59930801      12.94646263
Cl      10.91081238      13.37534714      13.30941105
O       11.53035831      12.81500053      12.08684540
O        9.95539761      12.38447285      13.90881062
O       11.96181011      13.71135998      14.30616188
O       29.00411797      30.72064590      18.88776779
Cl      29.70453835      31.08752060      20.13868713
O       30.61355591      32.22094727      19.89866447
O       30.48744965      29.94159317      20.63593483
O       28.72130585      31.48309708      21.17304039
O       16.49909592      22.95552826      23.37148285
Cl      17.41035843      22.76490211      22.17045975
O       18.83174515      22.84823036      22.61977768
O       17.15155029      23.84376717      21.20398140
O       17.12537003      21.44994354      21.55468941
O       18.70471954      30.61298561      22.27150917
Cl      19.10179329      30.47607422      23.68980217
O       19.61152458      31.78618050      24.18088150
O       20.17221260      29.45382500      23.84405518
O       17.92335129      30.08553505      24.52005959
O       29.22497177      28.67107010       6.62844944
Cl      30.54141998      28.01326752       6.45343876
O       30.60630989      27.38512802       5.12009192
O       30.83630943      27.09379578       7.56822538
O       31.60157776      29.10440063       6.49084234
O       26.35823441      14.94623184      21.74614716
Cl      26.74487114      16.35875893      22.05379105
O       25.75520706      16.94720459      23.00494766
O       26.75296402      17.16433144      20.80518150
O       28.11751938      16.40671921      22.67851067
O        7.72760820       2.12556005      22.68740845
Cl       6.80374336       3.23964357      22.39115906
O        6.15976286       3.02404904      21.07944489
O        7.56282854       4.50849295      22.36107445
O        5.76572990       3.33338904      23.44608688
O        3.62121153      19.34873390       2.42225599
Cl       3.61046147      19.99404716       1.10629427
O        2.87944126      19.12850380       0.12402475
O        4.96901560      20.22357178       0.61062419
O        2.89762807      21.27719688       1.18960130
O       24.85194016       2.37523913       5.03725958
Cl      23.75886536       1.46434259       5.35787916
O       24.15025330       0.58045375       6.46735525
O       23.41722679       0.68142712       4.16236162
O       22.58221626       2.24672413       5.75986910
O       23.33587265       7.32338762       3.52721071
Cl      24.54344368       7.18725300       2.68427801
O       25.75249100       7.05069113       3.53150487
O       24.69836426       8.49071980       1.94468939
O       24.42762947       6.10722589       1.70000064
O        4.65686750      20.73019409       6.45971966
Cl       5.56325388      20.81826019       5.24823380
O        5.81166553      19.45631027       4.73180866
O        6.84580469      21.40604782       5.72352362
O        4.96673918      21.67497063       4.22676706
O       33.88509369      34.20763016      31.89061928
Cl      32.45275497      33.89120865      31.93826103
O       31.66222191      34.83983231      31.09441376
O       31.85166359      34.02834702      33.32308960
O       32.16119766      32.52374649      31.44417000
O       11.67703152      25.02205086      29.88538742
Cl      12.37106609      25.03462410      28.56551552
O       11.82195282      26.11744308      27.71265602
O       12.17885494      23.71047592      27.89094925
O       13.83313751      25.25700951      28.78767586
O       13.06536865       1.90601945      28.24591446
Cl      12.90322399       1.51999974      26.81863213
O       11.57352829       0.88536274      26.63911629
O       13.97401428       0.58887845      26.38901901
O       12.94980907       2.74044132      25.98498154
O       32.16439056      14.41649723       3.75068521
Cl      33.53447342      13.95627880       4.09858513
O       33.83906174      14.36709118       5.49480724
O       34.51025772      14.60439301       3.19480968
O       33.64545441      12.49703884       3.97233057
O       29.35657310       2.87479758       7.08016205
Cl      29.77755547       1.58572280       7.63949680
O       31.17442131       1.71138215       8.07676506
O       29.67250824       0.54044664       6.60533810
O       28.91705513       1.27285171       8.79620838
C        4.33227825      16.93169403      27.84497643
O        3.27812386      16.78331947      28.79915428
C        2.36372471      17.88507652      28.75459480
C        1.28560638      17.65746689      29.81319618
O        1.90998435      17.70160484      31.09890175
C        1.02502847      17.79460907      32.21636581
H        3.94420648      16.84154129      26.80944824
H        4.82813978      17.90828705      27.95106697
H        5.04388809      16.11146927      28.02317810
H        2.89121199      18.83010674      28.96629715
H        1.89076209      17.94507599      27.75310898
H        0.80774200      16.68236160      29.64042091
H        0.51024312      18.43915176      29.73265648
H        1.48095131      18.44350052      32.98216248
H        0.06302350      18.25349998      31.92435265
H        0.81069756      16.80030060      32.64457321
C       19.38184929      25.81885147      27.85645866
O       20.29324913      25.11884689      27.01180267
C       20.04589844      25.37040520      25.61656952
C       20.94892311      24.44289017      24.79782867
O       20.62319565      23.10214996      25.19682312
C       21.21878815      22.11375809      24.34916687
H       19.41530991      26.90571594      27.68498802
H       18.33717155      25.50963402      27.67130280
H       19.60466385      25.59822655      28.91144371
H       18.99343300      25.14722252      25.36248016
H       20.24539375      26.42821121      25.37259483
H       22.01466942      24.66269493      24.99384499
H       20.73958588      24.57936668      23.71932983
H       20.55118752      21.23840714      24.34430313
H       21.30326462      22.47407150      23.30709076
H       22.20946312      21.82275581      24.72497749
C        9.25559711      19.10572243       1.53525329
O        9.75976658      20.31762695       2.07833505
C        9.67208958      20.35046768       3.51413560
C       10.21761131      21.68470383       3.99381757
O        9.27530193      22.69698906       3.63810968
C        9.58386135      23.93173981       4.26190758
H        9.81760120      18.23852730       1.91887414
H        8.18924713      18.97604370       1.76857030
H        9.35733700      19.13866997       0.44556606
H        8.62898254      20.23786926       3.84862447
H       10.28564930      19.54483223       3.94822145
H       11.18829823      21.89383316       3.50829196
H       10.37217236      21.68079758       5.09064531
H        8.82324123      24.65262604       3.93346953
H        9.52028275      23.85719109       5.36134005
H       10.59320545      24.28077316       3.99214983
C       16.35456657       5.74217606      25.87283707
O       15.03577423       5.21999216      26.04059792
C       14.15150452       6.16178131      26.65567970
C       13.42190552       5.52664900      27.83234596
O       14.41128635       5.20016813      28.79951477
C       13.92965031       5.11398602      30.12621498
H       16.38594246       6.43203878      25.01206017
H       16.71521187       6.24226999      26.78097343
H       17.02132034       4.89449167      25.66208458
H       14.69483471       7.05115080      27.01950645
H       13.40349674       6.47872305      25.89746094
H       12.87593365       4.62412548      27.50500679
H       12.68072701       6.25058842      28.22946739
H       14.79197407       4.93028498      30.78749657
H       13.40642452       6.03261375      30.44927406
H       13.22485828       4.26764393      30.23589325
C        7.42792749      35.10686493      34.66252136
O        6.30041313      35.93304062      34.47717667
C        5.96807194      36.64793015      35.66752243
C        4.56478453      37.23464966      35.49964523
O        3.64646864      36.20063782      35.81666183
C        2.29887366      36.58677673      35.62853622
H        8.29362202      35.67932129      35.03796005
H        7.20961237      34.29766083      35.37814713
H        7.67267990      34.63191605      33.70428085
H        6.02616882      35.99533844      36.54978943
H        6.67798662      37.47582245      35.83440018
H        4.41413450      37.55015564      34.45293427
H        4.41608381      38.09766388      36.17034149
H        1.68674743      35.71218109      35.87130737
H        2.04325294      37.41734695      36.30901337
H        2.08967781      36.86124039      34.58318710
C       29.94285965      27.52979088      22.27501297
O       28.60713768      27.06121063      22.14061928
C       27.84160995      27.89063644      21.28136826
C       26.36038017      27.60153389      21.52995682
O       25.99406624      28.13953781      22.81253624
C       24.64978409      27.84500313      23.15341949
H       30.50381851      27.43161392      21.32849312
H       29.96923828      28.58906364      22.57842445
H       30.41810226      26.95400620      23.07750893
H       28.04093552      28.95670128      21.48724174
H       28.06793785      27.67997551      20.21689796
H       26.17101288      26.51313210      21.48008347
H       25.76497650      28.08213043      20.73319626
H       24.41542244      28.25263214      24.14321709
H       23.92914009      28.25456047      22.41963005
H       24.48147011      26.75335312      23.18688774
C       31.21049881      33.95648193      16.54359436
O       32.57708740      34.33548737      16.41824341
C       33.04581451      34.32973480      15.06448936
C       34.57316208      34.40214157      15.14695644
O       35.08293533      33.07338333      15.13984585
C       36.35108185      32.95029831      15.74778938
H       30.53178596      34.74292755      16.17166328
H       30.99644470      33.02568054      16.00077248
H       31.00843811      33.77586365      17.60708809
H       32.75412369      33.40518951      14.54102230
H       32.64027405      35.19471741      14.50840282
H       34.86934280      34.92425919      16.07396126
H       34.96662521      34.96166611      14.27565670
H       36.55567551      31.87137794      15.79334259
H       37.14268112      33.45203400      15.16042709
H       36.35470581      33.33964539      16.78030396
C       13.84140873      18.68871689      23.21998405
O       12.94060516      18.11456680      22.26523018
C       11.90120888      17.38882828      22.93861771
C       11.21654701      16.51725960      21.89714622
O       12.20661640      15.72249508      21.22461510
C       11.62459469      15.02171326      20.12748337
H       13.30845070      19.42654991      23.85711479
H       14.25451279      17.91923904      23.90040588
H       14.66409016      19.17467117      22.67590523
H       12.32970047      16.77517700      23.75221443
H       11.17506313      18.08484077      23.41043282
H       10.67164803      17.12969780      21.15510559
H       10.45612907      15.88131332      22.39302063
H       12.39254475      14.44243717      19.59226608
H       10.84192085      14.32246971      20.47818565
H       11.18173218      15.72204494      19.39900017
C       20.84747124       1.79944313      33.19778824
O       21.04285049       2.86493397      32.29952240
C       21.82728004       2.53514504      31.13891983
C       21.96037292       3.81678534      30.33839798
O       22.61017609       4.74254036      31.21929169
C       22.84220314       5.98493814      30.55301285
H       20.62924957       0.85986501      32.66506195
H       21.71549416       1.66695845      33.86685562
H       19.96154213       2.02224612      33.80483627
H       22.81365967       2.16067290      31.45687866
H       21.34411621       1.75804853      30.52556610
H       20.96085930       4.20252228      30.05404854
H       22.55117989       3.64356399      29.42004204
H       23.43821716       6.62622738      31.20727539
H       23.36507797       5.83406448      29.59360695
H       21.88176155       6.48849487      30.34981728
C       14.66193104      27.26963234      18.16436386
O       15.84246159      27.32339287      17.36818123
C       16.10582924      26.11000443      16.63447952
C       17.62489891      25.96610260      16.55837440
O       18.04082108      25.47433472      17.85016632
C       19.46331787      25.57690620      17.92711258
H       13.73518372      27.34704590      17.56073189
H       14.61923409      26.32039833      18.73226357
H       14.67230797      28.10216904      18.88721085
H       15.66824436      25.23560524      17.16316605
H       15.63143730      26.15318298      15.62711525
H       18.07764626      26.95536613      16.35589218
H       17.89198494      25.24868202      15.75870800
H       19.77035141      25.34783745      18.95732498
H       19.95459747      24.84020996      17.26262093
H       19.80884933      26.58852577      17.64558220
C       35.47934341      32.03751755      33.08328629
O       34.36725616      31.76937675      33.93964005
C       33.57217789      30.69904900      33.43573761
C       32.25740433      30.71188927      34.23250580
O       31.20760345      30.27938652      33.36041260
C       29.91159821      30.79294395      33.67383575
H       36.25254822      31.26325417      33.17505264
H       35.17532730      32.10074615      32.02703476
H       35.87985229      33.01342010      33.38172150
H       33.34562302      30.88524437      32.37427139
H       34.10303497      29.73592949      33.50043488
H       32.04886627      31.73950577      34.56512833
H       32.27518463      30.06309128      35.11604691
H       29.35470581      30.99264717      32.75008392
H       29.34706116      30.07318687      34.27976990
H       30.03644180      31.72036743      34.24522400
C       15.44291210      13.81168842      21.21738434
O       16.64576340      13.64117718      20.49122047
C       16.92756653      12.26575756      20.19206619
C       18.37131882      12.20637703      19.70957375
O       19.19134331      12.19455624      20.89723587
C       20.55116272      12.37467003      20.47903824
H       14.56594944      13.48204517      20.61798668
H       15.45408821      13.22064495      22.15021515
H       15.28400421      14.87538815      21.45735359
H       16.78239059      11.62619591      21.08363152
H       16.23970795      11.90454674      19.40201187
H       18.57944489      13.09280109      19.08740234
H       18.53947067      11.29797554      19.09737778
H       21.20121002      12.32060432      21.36308861
H       20.85036087      11.57353783      19.77965355
H       20.66307640      13.34740448      19.97034836
C        9.70396233      19.99997711      28.55574226
O        8.64289188      19.08864975      28.24267578
C        9.01261234      17.71961403      28.49617958
C        7.99343061      16.89089966      27.73389244
O        8.42656422      16.73514748      26.36127472
C        7.69367790      15.72260666      25.67187119
H       10.01592064      19.94240952      29.60960770
H       10.58976173      19.82647133      27.92018127
H        9.30739689      21.00672531      28.35486603
H       10.02745342      17.49606705      28.11935997
H        8.97425556      17.51234627      29.58219337
H        7.00320292      17.37231636      27.73754120
H        7.85674667      15.90102673      28.21171379
H        8.07777214      15.60942078      24.64433670
H        7.75666237      14.73736095      26.16944695
H        6.61634827      15.96633339      25.60219383
C       33.88914490      27.96039200      19.34712219
O       33.90883255      28.44058418      18.01347351
C       33.12341690      29.62051010      17.80784798
C       33.50783920      30.16717148      16.42639542
O       33.11383057      29.21193695      15.44448566
C       33.57129288      29.52826500      14.14296246
H       33.85300446      28.78216743      20.08492279
H       32.99922180      27.33378601      19.52888870
H       34.79212952      27.35127068      19.51821518
H       32.04774475      29.37216187      17.83527946
H       33.32618332      30.35126686      18.61087608
H       34.59500122      30.34031487      16.36963844
H       32.99491119      31.13704109      16.27721024
H       33.35530090      28.66779518      13.49661541
H       33.04603577      30.40988922      13.74089909
H       34.65596390      29.72091484      14.14879227
C       25.10868073       1.72433615      18.80764008
O       24.48193932       2.79882431      18.13552094
C       25.42640877       3.46883321      17.28116798
C       24.67469978       4.56884623      16.51369286
O       25.01374435       5.83398914      17.10236931
C       24.59233475       6.89695120      16.24588966
H       25.56597328       1.01478434      18.09475899
H       25.88130760       2.06000638      19.52342224
H       24.31820107       1.18670237      19.34900856
H       26.24255371       3.90848875      17.87421227
H       25.85636330       2.73305440      16.57662201
H       23.58227348       4.39766169      16.55431747
H       24.96615982       4.55615997      15.44256401
H       24.77853203       7.83765602      16.77681923
H       25.14599228       6.87852240      15.29216480
H       23.51674080       6.82389641      16.01107216
C       12.79050922      26.91164780      33.17640305
O       12.81130409      27.39991188      34.51001358
C       12.54070759      28.79015732      34.63411331
C       13.18810463      29.30311203      35.91642380
O       14.60049343      29.17643738      35.76052856
C       15.28682804      29.39768219      36.97954178
H       11.78825188      27.02170944      32.73114014
H       13.52110767      27.41448784      32.52705383
H       13.00925732      25.83633614      33.21195984
H       12.92924881      29.33995247      33.76004791
H       11.44731140      28.96837044      34.69010925
H       12.83835316      28.73102188      36.79134369
H       12.91261673      30.35977173      36.07826614
H       16.36397743      29.28106689      36.78528214
H       15.10147381      30.40816879      37.38004303
H       14.98541069      28.67311287      37.75392151
C       14.63024330      13.06818104      24.62941170
O       13.34498692      12.48913860      24.35954666
C       13.08879948      12.53703690      22.94036674
C       11.64449120      12.16506672      22.65429497
O       10.81607628      13.22887516      23.15872383
C        9.42831230      12.94875050      22.95932770
H       15.44171238      12.44471645      24.21423531
H       14.69608879      14.08011246      24.19418716
H       14.76926517      13.11823845      25.71742058
H       13.24159908      13.56048870      22.56151009
H       13.75197887      11.83082485      22.40195656
H       11.34770584      11.19324780      23.08366013
H       11.50048733      12.06809330      21.55522728
H        8.80956745      13.64622974      23.53763199
H        9.13805485      13.04088211      21.89402008
H        9.17625713      11.91841125      23.26704979
C        7.70218658      22.37665749      19.31795883
O        6.41068029      22.81760979      19.78706741
C        5.70674038      21.74439621      20.45311356
C        4.25916290      22.18981361      20.62158394
O        3.65206194      22.07786179      19.31019974
C        2.23945642      22.17797852      19.25062561
H        8.35136700      22.10453415      20.16441345
H        7.59894323      21.50933266      18.63839912
H        8.14709663      23.21272278      18.75806427
H        5.75530052      20.83403397      19.82621002
H        6.13246059      21.51763916      21.44775581
H        4.16452980      23.22219467      21.00054550
H        3.75374842      21.53764915      21.35033607
H        1.93552840      22.10353470      18.19672775
H        1.74650633      21.35848427      19.80194664
H        1.87431288      23.12917328      19.66671944
C       16.68899727       8.36677265      19.27447319
O       16.69234848       8.12907028      17.84719086
C       16.12669373       9.28390121      17.21337700
C       16.23802376       9.07729149      15.70543575
O       15.43276596       7.94661760      15.31558895
C       15.64197445       7.53359652      13.96015358
H       17.27830505       9.26350880      19.52797890
H       15.66237831       8.48096657      19.66009712
H       17.13044548       7.49588108      19.77936172
H       15.07586861       9.40094757      17.52920151
H       16.68089485      10.18892002      17.50974274
H       17.28697395       8.88364601      15.42095184
H       15.87085438       9.97821712      15.18117332
H       14.75414371       6.97213793      13.64311695
H       15.77535439       8.39147282      13.28616047
H       16.51430511       6.87075281      13.86539268
C       33.94154739      27.48183441      37.09780502
O       34.61075211      26.98380089      35.96422577
C       33.76913071      26.43937683      34.94502258
C       34.56008911      25.36742973      34.17176056
O       34.34831619      24.14385414      34.86515427
C       35.01052094      23.06358337      34.24524307
H       33.28712845      28.33711815      36.86278915
H       33.32754898      26.70368576      37.58663940
H       34.69562912      27.82361603      37.82357025
H       32.86243057      25.98842430      35.37798309
H       33.43975067      27.22845459      34.24349213
H       35.63198471      25.62609863      34.17358398
H       34.20352173      25.28995514      33.12771988
H       34.77626801      22.17104149      34.84385300
H       34.64792633      22.91538048      33.21243668
H       36.10235214      23.20996475      34.21788025
C       29.25339890      19.13543892      23.90990639
O       28.26620483      19.71153831      24.78099632
C       27.08234406      19.91756821      23.98875809
C       26.07683563      20.68092728      24.83528709
O       26.56493378      22.01717377      25.04692459
C       25.63064957      22.88423920      25.67792892
H       28.87571716      18.22686386      23.41073608
H       29.51209259      19.85933876      23.11380196
H       30.14509964      18.90099335      24.50222778
H       27.30497169      20.50494957      23.07901955
H       26.65006447      18.95837402      23.65793037
H       25.89397621      20.19100571      25.80837250
H       25.11088753      20.69734192      24.29271126
H       26.07426071      23.88693619      25.72042274
H       24.68584251      22.94058800      25.10345078
H       25.33550835      22.55505371      26.68841934
C        6.29144907       4.27211475      32.03559875
O        5.03023624       4.65256310      31.50562286
C        4.87890053       4.26520729      30.14737892
C        3.48811054       4.75673008      29.75135422
O        3.53118348       6.17857790      29.87965775
C        2.39958644       6.81228256      30.47101212
H        6.49054861       3.19931149      31.88953018
H        7.11320829       4.84244347      31.56983185
H        6.30369520       4.49704790      33.12245941
H        5.66112280       4.73589945      29.51402473
H        4.95713568       3.17623758      30.00857925
H        2.74868464       4.35543251      30.45942307
H        3.21667767       4.45816040      28.72331429
H        2.63642788       7.88117266      30.55784607
H        1.50050223       6.67599201      29.85389709
H        2.22969604       6.39350796      31.47727203
C        7.73529911      34.53794098      15.98532486
O        8.39179802      34.03855133      17.13479424
C        8.58658504      32.61985397      17.06933594
C        9.19384289      32.24663544      18.40957451
O        8.25189686      32.49409866      19.45709610
C        8.84018803      32.23974609      20.72118378
H        8.29859447      34.33839798      15.05951691
H        6.73777914      34.09104156      15.86220264
H        7.62996912      35.62030411      16.12845612
H        7.62955904      32.09507370      16.88747978
H        9.27618122      32.33446503      16.25212479
H       10.10556984      32.84271240      18.58673668
H        9.47636986      31.17866516      18.36133194
H        8.05378914      32.23369598      21.49037933
H        9.32071304      31.24759293      20.74061966
H        9.59792137      32.99396515      20.99256516
C       25.44786644      25.85094070      35.22199249
O       24.18417358      25.83932877      34.56853867
C       24.28866196      26.38339996      33.25896835
C       22.92420959      26.30082893      32.59576416
O       22.09198761      27.35293770      33.12522888
C       20.76933479      27.29000473      32.54276657
H       26.18703651      25.25900078      34.65642548
H       25.83768654      26.87632179      35.33143616
H       25.31200981      25.40066338      36.21509552
H       24.66664505      27.42323685      33.26956940
H       25.00495720      25.80210686      32.64535141
H       22.44537354      25.33249474      32.85026932
H       22.99045181      26.38425446      31.49745750
H       20.19642830      28.14938164      32.92199326
H       20.80090714      27.32904053      31.44066620
H       20.24023628      26.37634087      32.85184097
C       22.88272476       6.53993559      25.51311684
O       22.46146393       5.26987600      25.02186203
C       21.21938896       4.91321802      25.62543678
C       21.10643005       3.39268494      25.53527260
O       22.07089996       2.87824535      26.45825195
C       21.93596840       1.47147799      26.59989357
H       22.24111366       7.34542751      25.11449623
H       22.83839607       6.60183525      26.61234474
H       23.92640305       6.69753122      25.20844841
H       21.17769432       5.22943211      26.68828583
H       20.36437988       5.39543772      25.11842728
H       21.29167747       3.00398207      24.51258850
H       20.08279228       3.09833026      25.82569695
H       22.69171143       1.14567232      27.32967949
H       20.93100929       1.22678649      26.98351288
H       22.05976486       0.94727170      25.63401794
C        7.01641512      14.98443031      19.29259109
O        5.62989044      14.59704685      19.37525177
C        4.75270557      15.72982883      19.21185303
C        3.35537267      15.33394623      19.67999649
O        3.32680321      15.44391537      21.10997200
C        2.07801700      15.02305698      21.65374565
H        7.23468781      15.41674805      18.30033493
H        7.25558329      15.71978188      20.07591820
H        7.62014341      14.08185196      19.44341469
H        5.10723829      16.57729340      19.81819725
H        4.71142578      16.00509071      18.14187813
H        3.12856746      14.30366611      19.35718346
H        2.60089111      16.00036621      19.22949219
H        2.15171075      15.02264977      22.74975014
H        1.25385082      15.68932915      21.34879875
H        1.81248605      14.00662899      21.32534409
C       30.20672226      34.79096985      25.58243561
O       31.26706696      34.14120865      26.25378227
C       31.60370636      32.86664200      25.69496918
C       32.57065582      32.23413467      26.69802856
O       31.76059151      31.57772446      27.68265915
C       32.53644562      31.11128426      28.79068947
H       30.40544319      34.87513351      24.49985695
H       29.26271629      34.23881531      25.71975517
H       30.10641479      35.79063416      26.02573395
H       30.71682549      32.22682571      25.58050537
H       32.07644272      32.97781372      24.70157433
H       33.18886566      33.01387405      27.17293739
H       33.21423340      31.49841881      26.18812752
H       31.83395195      30.96141434      29.62328148
H       33.03995132      30.15769005      28.55513382
H       33.28307724      31.85101128      29.11430168
C       12.99301815      18.20137596      14.50586605
O       12.46600819      16.94833946      14.91861725
C       11.90974426      17.09734917      16.23471069
C       10.89178944      15.98796654      16.47186661
O       11.58401775      14.84322548      16.98478317
C       10.76129818      13.69043064      17.08496475
H       12.19430161      18.95208359      14.37081146
H       13.71257687      18.59983063      15.23933029
H       13.49451733      18.05482292      13.53678513
H       12.70601463      17.09423637      17.00598335
H       11.37449646      18.06693459      16.31867981
H       10.38154984      15.74598694      15.52063465
H       10.11124229      16.31590843      17.19199371
H       11.41605759      12.80738640      17.14122391
H       10.13187885      13.71716690      17.99313927
H       10.09140301      13.56292343      16.21496201
C       28.62713623      19.78801918      10.04847622
O       29.68641853      19.28438187      10.85366917
C       30.42990303      18.24300385      10.21164131
C       31.28579521      17.58540154      11.28581905
O       30.37588882      17.00171661      12.23454571
C       31.04818344      16.12559891      13.13090801
H       29.00740242      20.26650810       9.13125896
H       27.90942955      18.99814034       9.76777458
H       28.08665657      20.52519226      10.65645123
H       29.76183319      17.50515366       9.73577499
H       31.08160591      18.64444733       9.41394138
H       31.93423462      18.31131744      11.80763817
H       31.91267586      16.81401825      10.80588341
H       30.26525688      15.60371304      13.70067787
H       31.63885880      15.36561966      12.59018803
H       31.70298195      16.65671730      13.83689117
C       10.99919128       7.45759296      12.88968754
O       12.16886997       8.23677063      12.68322277
C       12.01060963       9.57924080      13.20616150
C       13.24199581      10.36347675      12.84199333
O       13.21054840      10.58142948      11.41532326
C       14.26519871      11.47339535      11.05240917
H       10.87473488       7.19768572      13.95333290
H       10.09057808       7.98723078      12.56168270
H       11.09443951       6.53204060      12.30644321
H       11.11328888      10.04389286      12.75769615
H       11.87316227       9.57685089      14.30143261
H       14.16605473       9.82346821      13.11306953
H       13.20880127      11.32437706      13.38802910
H       14.01009560      11.90291595      10.07132149
H       14.35178757      12.29647160      11.78024673
H       15.22781086      10.94398117      10.98553562
C       20.19795036      20.39885902      21.23378563
O       19.66781044      20.42576218      19.90919876
C       20.21640778      21.54913712      19.21154213
C       19.62550545      21.61429977      17.80443764
O       18.30756760      22.16688538      17.91738701
C       17.83622932      22.49654007      16.60803604
H       21.16089630      19.85427284      21.25650787
H       20.35227776      21.41103745      21.63934898
H       19.48184013      19.88362885      21.89347267
H       19.96906281      22.47439384      19.76710320
H       21.31663895      21.47119713      19.14009666
H       19.59464264      20.61717987      17.31823158
H       20.25762939      22.27326965      17.17228317
H       16.82799149      22.93176842      16.69579887
H       18.49501419      23.21598053      16.10919952
H       17.71458054      21.61111641      15.95613289
C       12.23316956      10.31001186      18.66185570
O       12.84098053       9.01649094      18.65110397
C       12.18349648       8.16509914      17.70083427
C       12.97971630       6.88388109      17.51293182
O       13.09021282       6.24082470      18.78804970
C       13.84522247       5.03682613      18.61938858
H       12.15913582      10.70902824      17.63302612
H       11.20829201      10.28084946      19.07094383
H       12.83427620      10.98472500      19.28332710
H       11.15604115       7.95531654      18.04030609
H       12.11494541       8.66406631      16.71243095
H       13.98020935       7.10458231      17.09972763
H       12.45931339       6.22779512      16.78657341
H       13.89192772       4.51920605      19.58510590
H       13.34072971       4.35334873      17.90770721
H       14.86633968       5.23778772      18.23890877
C       22.85445404      16.17582512       1.18422830
O       21.66195869      15.43200302       1.48507416
C       21.97692299      14.47464466       2.52442789
C       20.77103424      13.55977631       2.60863423
O       20.77614021      12.76122189       1.41692483
C       19.78164673      11.73946095       1.40739965
H       23.23731995      16.66762161       2.09248924
H       23.63306427      15.51709652       0.77167350
H       22.57442856      16.94146919       0.44730854
H       22.86258507      13.87955475       2.24165821
H       22.15862083      14.99426079       3.47878098
H       19.82626343      14.13204670       2.67496061
H       20.84130478      12.94759274       3.51857138
H       19.95783234      11.07662296       0.55555546
H       19.82246590      11.15884972       2.34394932
H       18.77068520      12.17218208       1.32521021
C        1.20375085      18.98178101      12.75986481
O        2.57875967      18.84889984      12.45086479
C        3.41150784      19.16184616      13.57653332
C        4.84496737      19.21311188      13.07451248
O        4.92585278      20.34680176      12.19817352
C        6.31273174      20.51253319      11.83166504
H        0.91568345      18.37391281      13.63198185
H        0.93119955      20.02636337      12.98948097
H        0.62302053      18.63192177      11.89756393
H        3.11598301      20.12976646      14.02073956
H        3.30153465      18.39398384      14.36025333
H        5.12121773      18.28274536      12.54110336
H        5.52670813      19.33513641      13.93772984
H        6.37709904      21.43338585      11.23636818
H        6.97912693      20.59055519      12.70992184
H        6.67090225      19.66372490      11.22650814
C       11.37933350      33.42477417      24.41157341
O       12.68316269      33.79315948      24.84046555
C       13.21821690      32.93393326      25.87435913
C       14.62499332      33.44596100      26.18131256
O       14.48099613      34.41942596      27.21442604
C       15.67591572      35.17188263      27.37519073
H       11.38051605      32.43079758      23.93126297
H       10.65683556      33.39109039      25.24120140
H       11.03934956      34.16683578      23.67752457
H       12.56099510      32.96755981      26.76728821
H       13.24375916      31.89667320      25.49649239
H       15.06171989      33.90206146      25.26668358
H       15.28376675      32.61435318      26.50176620
H       15.48885441      35.97369385      28.10272408
H       16.49524117      34.53467560      27.76006317
H       15.98946762      35.60485458      26.40766335
C        4.73240519      30.87778854      13.76541424
O        4.47473764      32.16127014      13.23278904
C        5.59098816      32.57460785      12.43684673
C        5.31490564      34.01478577      11.98801994
O        6.16518307      34.82973480      12.78656864
C        6.03614330      36.21425629      12.52674198
H        4.73333788      30.10995674      12.97224426
H        5.70496893      30.85368156      14.28090000
H        3.94456506      30.64586449      14.49405384
H        6.51530123      32.54954529      13.03985214
H        5.72366667      31.88744164      11.58078766
H        4.25247145      34.26608658      12.14942932
H        5.55249310      34.13770294      10.91456985
H        6.72441053      36.72019196      13.21517754
H        6.31247425      36.44368362      11.48397636
H        5.00452042      36.54395294      12.71914864
C       12.64601898      33.75318527       9.03995895
O       13.87121296      34.43733215       8.76753426
C       14.65526676      33.77772903       7.75274134
C       15.53243828      34.83222580       7.09754658
O       16.44636345      35.29201889       8.08142185
C       17.17789841      36.40283585       7.58095932
H       12.04918957      33.59278107       8.12074947
H       12.82824898      32.75347519       9.48947906
H       12.04313755      34.34600449       9.73613548
H       15.28462505      32.99867249       8.20981789
H       14.01299763      33.31467438       6.98368740
H       14.88276577      35.65118027       6.75015879
H       16.04332924      34.39825821       6.21757841
H       17.77685165      36.80395508       8.40665627
H       17.83707047      36.11347198       6.74294996
H       16.49202538      37.19323730       7.22830582
C       36.32664490      14.49153805      13.70739555
O       35.57151794      15.65824413      13.97665310
C       35.85168076      16.73479080      13.08706188
C       35.52732086      18.03400230      13.84186363
O       36.45088959      18.18150330      14.92341423
C       36.32363892      19.44335556      15.56707382
H       36.32813644      14.24054050      12.63281822
H       37.36204910      14.58224583      14.07732487
H       35.83439255      13.67217922      14.25288296
H       36.90915680      16.72091484      12.77691650
H       35.22650528      16.66673660      12.17587090
H       34.49233246      18.01778793      14.22646141
H       35.62564468      18.87415695      13.13205051
H       37.07876205      19.51857185      16.36279297
H       36.45689774      20.25819969      14.83406162
H       35.32799530      19.57029533      16.02932167
C       27.85639954      27.78820610      25.55711746
O       29.26010704      27.65520477      25.43323898
C       29.93772507      28.67977524      26.17112350
C       31.41733170      28.32981491      26.20352745
O       31.97015953      28.61840057      24.90879250
C       33.37134171      28.36515236      24.90483475
H       27.51569176      27.67959976      26.59936714
H       27.49025536      28.75220108      25.17188835
H       27.37304878      27.00546074      24.96175003
H       29.77450562      29.65165710      25.67359924
H       29.55151176      28.76356697      27.19838524
H       31.54454994      27.25820160      26.42981339
H       31.90285683      28.92750168      26.99294853
H       33.76509476      28.67744827      23.93046570
H       33.87987518      28.92591667      25.70481873
H       33.57857513      27.29232788      25.03600311
C       36.47824478      13.98974895      27.29660606
O       35.55544281      14.89678955      27.90520096
C       35.26048660      14.53795052      29.26486397
C       33.85404968      15.04171658      29.60855103
O       32.96114731      14.09502316      29.01772881
C       31.60848808      14.42355824      29.28384018
H       37.44050217      14.00514221      27.82875443
H       36.07958603      12.96222401      27.28752708
H       36.62741089      14.29476452      26.25192833
H       35.28701401      13.44279957      29.37493515
H       35.98694611      14.97940063      29.96997833
H       33.67316437      16.03661156      29.16146088
H       33.68288422      15.09921932      30.69621086
H       30.98195457      13.57087326      28.98811340
H       31.43027496      14.59900188      30.35477638
H       31.28753471      15.31350803      28.72119713
C       26.75289345       7.02612400      27.52536011
O       27.23055840       8.33826637      27.23032188
C       26.32419777       9.33651447      27.70466423
C       27.02951622      10.67559624      27.71377563
O       27.09930038      11.18872738      26.36233330
C       27.76054192      12.45538235      26.43911934
H       26.36943817       6.96958160      28.55741119
H       25.93963051       6.71874762      26.84916878
H       27.59389305       6.32711029      27.42834282
H       25.40191841       9.35630322      27.08843040
H       26.00646973       9.13727665      28.74626160
H       28.04461098      10.58806896      28.14295578
H       26.44999313      11.38853931      28.33922577
H       27.78051758      12.88914680      25.42832756
H       27.20991707      13.14375019      27.10801125
H       28.78345108      12.34843922      26.83412743
C       16.42831039      32.59819412      23.02731514
O       15.61272526      31.83106995      22.13095665
C       14.40371132      31.41966057      22.79360580
C       13.92004108      30.12692833      22.14483070
O       14.76144695      29.10497665      22.70220184
C       14.44201660      27.82551003      22.15988159
H       15.96139240      33.56944275      23.27052116
H       16.62711906      32.04594040      23.96501923
H       17.39369774      32.76948929      22.53305626
H       14.60027313      31.26732445      23.87339592
H       13.64475727      32.22217560      22.71714592
H       13.98976898      30.12091827      21.03472328
H       12.85353565      29.92764091      22.38695717
H       14.99876308      27.07025719      22.72582436
H       13.36036587      27.59803581      22.26322365
H       14.72871304      27.76814651      21.09145927
C       18.31364059      11.65008163      11.43332291
O       19.41317558      11.01960564      12.09014320
C       18.98271370       9.99630070      12.99984360
C       20.13281441       9.72789478      13.96363449
O       20.23356819      10.85966110      14.83602524
C       21.13956261      10.61862373      15.91166019
H       17.76483154      10.93172073      10.80270576
H       17.59059715      12.05368900      12.15998363
H       18.72463799      12.46038723      10.82011890
H       18.09110641      10.33107185      13.56295776
H       18.70063019       9.07729626      12.45282936
H       21.07777023       9.57028389      13.41222286
H       19.90368271       8.80859756      14.53108215
H       21.25255394      11.54274082      16.49406815
H       20.76450729       9.84224987      16.60018158
H       22.13258934      10.30801773      15.54386330
C       13.45507336       1.72855270      15.20407772
O       14.74446583       2.28770518      14.96053791
C       14.69379902       3.72598219      15.00169086
C       16.12979889       4.23561811      14.89169121
O       16.48507690       4.34176445      13.50114346
C       17.89359665       4.58557606      13.33714294
H       12.96857643       2.19279027      16.08226585
H       12.77303696       1.88848579      14.35313797
H       13.57323647       0.65566486      15.39979839
H       14.06920719       4.09156227      14.16704082
H       14.23468399       4.08139801      15.93861961
H       16.82073402       3.56065130      15.42938042
H       16.15941429       5.23033571      15.38119888
H       18.11512756       4.61681223      12.26004982
H       18.18782043       5.55262899      13.79476929
H       18.48897171       3.79156995      13.81290817
C        9.37181759      29.66489220      12.04264736
O       10.69809723      29.13216209      11.93247032
C       10.79771328      27.99777985      11.05566883
C       12.14250755      27.36312294      11.38615704
O       12.00457954      26.67829323      12.64558983
C       13.28894138      26.37156487      13.20136642
H        9.04529190      30.07650566      11.07408619
H        8.67379093      28.86427116      12.34318638
H        9.35921383      30.43898773      12.82081127
H        9.96795654      27.29973221      11.25000572
H       10.75480556      28.30775452       9.99643517
H       12.91872025      28.14806938      11.43665600
H       12.42481518      26.64954567      10.58930874
H       13.11532402      25.82959938      14.14431953
H       13.86294651      25.70752335      12.52560806
H       13.87984180      27.27833939      13.40205097
C       24.33478737      17.30919456      26.59390640
O       23.78540802      16.67388725      25.46059799
C       23.23877335      17.60757256      24.53622437
C       22.72419548      16.79746819      23.34716797
O       21.66375160      15.96560287      23.83244514
C       21.63747597      14.69355869      23.19686127
H       25.23847198      17.88767242      26.35308266
H       23.61550140      17.99055862      27.08351898
H       24.57934952      16.53359413      27.33254433
H       22.42213631      18.18786049      25.01540947
H       24.01324081      18.30582047      24.18000603
H       23.55408096      16.20651817      22.92351341
H       22.35422516      17.46893311      22.54755020
H       20.82913589      14.11567974      23.67979431
H       21.40994263      14.77199841      22.11532402
H       22.57397079      14.12570667      23.33357811
C       34.00735474      11.11028767      15.45398140
O       34.67348480      11.06377316      14.19281483
C       33.86292267      11.65832424      13.16934681
C       34.59977722      11.52983189      11.82612991
O       34.17775726      10.32759094      11.17495823
C       35.03370667       9.94260502      10.10528469
H       33.71402740      12.13747501      15.72638798
H       33.08899689      10.50122643      15.44216156
H       34.67829895      10.71960545      16.23001099
H       32.88917923      11.14741516      13.08915997
H       33.65630722      12.71113586      13.43380737
H       35.68680954      11.51620865      12.00264835
H       34.35062408      12.40347862      11.19663811
H       34.70998383       8.95362568       9.75846577
H       34.94927597      10.64066792       9.25899506
H       36.08403778       9.88257790      10.42417240
C       10.72196674      36.53487778      11.47936440
O       10.05566597      35.63747787      10.59312057
C        9.60089970      34.49382782      11.33601856
C        8.98471737      33.54057312      10.32522392
O       10.04292011      32.83334351       9.65316200
C        9.56411076      31.83570480       8.75459480
H       10.03959465      36.92079163      12.25550747
H       11.56913280      36.05776978      11.99324036
H       11.09799957      37.36368942      10.87050533
H       10.44652367      34.01840210      11.86856651
H        8.86401081      34.80076218      12.09832191
H        8.40274906      34.09803772       9.56892872
H        8.30065060      32.84735107      10.83079433
H       10.41670990      31.26774025       8.36376953
H        8.87402630      31.14718819       9.26914501
H        9.01250362      32.29172897       7.91845179
C       23.09348297      23.63936615      28.91120338
O       22.99260139      25.05544662      29.11184502
C       23.84177399      25.74851418      28.17798233
C       23.50522041      27.23013306      28.32129288
O       23.91539764      27.64285278      29.63613701
C       23.64363670      29.02959442      29.85733032
H       22.98192596      23.35006905      27.84836006
H       24.07521057      23.26512909      29.27479553
H       22.26272202      23.17088318      29.46929932
H       24.90512657      25.55853081      28.40213966
H       23.62806511      25.40389061      27.14653778
H       22.42094994      27.38908195      28.17652321
H       24.05769730      27.79272079      27.54930687
H       24.14085960      29.33453178      30.79197693
H       24.03396606      29.64144516      29.02777290
H       22.55594444      29.20374298      29.92962074
C       35.42960739      14.40552616       8.00279236
O       34.07683563      14.52050304       8.46723843
C       33.24541092      13.38716602       8.15347672
C       31.88528442      13.90109062       7.66152716
O       31.37588692      12.90686417       6.77659655
C       30.24478340      13.30435562       6.02151060
H       36.03792572      13.81771374       8.70957088
H       35.46499252      13.92461967       7.01229429
H       35.83306122      15.42140198       7.91203451
H       33.68180847      12.73254108       7.38307762
H       33.10453033      12.78841019       9.06949425
H       32.03544998      14.85623455       7.13776302
H       31.17686844      14.07862854       8.49739838
H       30.03147316      12.50811100       5.29228115
H       29.33201790      13.40472221       6.62491703
H       30.41009712      14.24419689       5.47669792
C       25.60204697      11.29356956      13.22608376
O       25.93386841      12.11249065      12.10877514
C       26.97782135      11.56988621      11.27899361
C       27.15457153      12.47926426      10.07219791
O       27.57791519      13.73932934      10.61191654
C       27.70116997      14.69602585       9.56034184
H       25.75932884      10.22675896      12.99932289
H       26.19126892      11.52911854      14.12407780
H       24.53579712      11.41976261      13.46099281
H       27.91550446      11.51446056      11.85058784
H       26.72391129      10.55940723      10.92067242
H       26.19766426      12.57727718       9.51767635
H       27.91114044      12.05378056       9.38266182
H       28.12167931      15.60778141      10.00520515
H       28.35516167      14.33125210       8.74666405
H       26.71124268      14.92288780       9.11512280
C       33.86685562      16.03358078      36.59521103
O       33.34206772      14.72316551      36.69075394
C       32.68287277      14.33921146      35.48257828
C       32.36008072      12.85577106      35.53813553
O       31.12674904      12.69831753      36.26214600
C       30.45609856      11.48490906      35.92560959
H       34.53155899      16.13514519      35.71525192
H       33.06022263      16.78051186      36.52294540
H       34.42812347      16.24149895      37.51733017
H       31.74896240      14.91418362      35.36380768
H       33.32403183      14.52175999      34.60187531
H       33.17443848      12.29557991      36.02475739
H       32.24771118      12.47586918      34.50979233
H       29.52494431      11.45304298      36.50612259
H       30.19125366      11.42983055      34.85735703
H       31.05724335      10.59644222      36.18097305
C       16.54940414       2.48683143       8.36058617
O       15.45013809       3.18540239       8.92912483
C       15.67862797       3.49361444      10.30640507
C       14.42145729       4.16274548      10.85687733
O       13.43319511       3.13232017      10.95928383
C       12.23544121       3.63924503      11.51424313
H       17.46797562       3.08908820       8.40667915
H       16.72581291       1.53323638       8.87924767
H       16.31077194       2.25328755       7.31600666
H       15.89689922       2.57752943      10.88186741
H       16.52317810       4.19037104      10.43662167
H       14.06840801       4.93516922      10.15093040
H       14.61270618       4.63202667      11.83475971
H       11.63953781       2.79974198      11.89876461
H       12.41863441       4.32317638      12.35904312
H       11.64078140       4.19380999      10.76919174
C        7.17342329       4.39497566       4.85743904
O        7.95144510       5.02497625       3.86562610
C        7.32083559       5.11379433       2.58305287
C        7.60764313       6.49154615       1.99594986
O        8.86518764       6.42590332       1.29676533
C        9.27158737       7.76258850       0.99324673
H        6.19647646       4.89400482       4.98042107
H        6.99982882       3.33138919       4.62869310
H        7.70858192       4.46513271       5.81476450
H        7.70149899       4.31869698       1.91119158
H        6.23514605       4.98727560       2.68837404
H        7.65990639       7.23976374       2.80708551
H        6.80313730       6.78724909       1.29706097
H       10.28231525       7.71708012       0.57561344
H        8.57538414       8.22122002       0.27260110
H        9.28748798       8.38106918       1.90442264
C        1.92562377      22.41711998      27.42896271
O        1.90295136      21.90046883      26.11797333
C        0.91800761      22.50430107      25.28489876
C        1.10762239      21.93294525      23.87477684
O        0.84715706      20.53409004      23.91342163
C        1.20220959      19.88677597      22.69945908
H        2.01147270      23.52050591      27.42788124
H        1.03256750      22.12945938      28.00790977
H        2.80541277      22.00166702      27.94292641
H       -0.09940881      22.31574821      25.66757774
H        1.08467317      23.59659386      25.25746727
H        2.14420342      22.13167191      23.55253220
H        0.41289535      22.43120956      23.17224884
H        1.04652977      18.80931473      22.84295273
H        0.57073563      20.23412704      21.86371803
H        2.25572133      20.07409096      22.44611740
C       18.98628616      35.12460327      25.37945175
O       17.86008835      35.33258820      24.53944397
C       17.83801651      36.69123840      24.08268929
C       16.63574791      36.84460831      23.14501190
O       15.49789715      36.38510132      23.88020897
C       14.27274513      36.54932404      23.18278313
H       19.92851257      35.25058746      24.81636238
H       18.99170113      35.82204437      26.23883820
H       18.92875481      34.09238052      25.75437927
H       17.76399422      37.37352371      24.95068741
H       18.76726151      36.91398239      23.52569962
H       16.76527023      36.23374557      22.22557068
H       16.49976540      37.89730072      22.83698082
H       13.45821571      36.26308060      23.86631393
H       14.13949966      37.59099579      22.83233070
H       14.21606445      35.87741852      22.30396652
C       18.51073456      36.02182388      16.33098602
O       19.66128731      36.62342834      16.90287018
C       20.65531158      35.63677216      17.22007751
C       21.63330841      36.24359131      18.22886848
O       20.87875175      36.76236725      19.34541702
C       21.61036110      36.98558807      20.53756523
H       18.70713806      35.63991547      15.31083775
H       18.16927147      35.17799759      16.95752335
H       17.68513298      36.75124741      16.29154778
H       20.18150139      34.72659302      17.63477516
H       21.17821503      35.30880356      16.29344559
H       22.22830963      37.05759811      17.77201080
H       22.31333542      35.43719864      18.55332184
H       20.91567039      36.90457916      21.38545227
H       22.39267349      36.21942139      20.67351341
H       22.07875252      37.98336792      20.55746078
C       29.27577591      11.29884434      16.19032288
O       28.79920959      10.02335644      16.62700844
C       28.63171577      10.08407497      18.05413246
C       27.84789848       8.86355114      18.53616905
O       28.73728943       7.73361731      18.60824585
C       28.13575363       6.64078808      19.30130386
H       28.52038383      12.07987976      16.39341545
H       30.20266724      11.58150673      16.71550751
H       29.46157646      11.23999500      15.10789299
H       29.60740089      10.15207481      18.56743240
H       28.05525780      10.98876953      18.33288002
H       27.00735474       8.63077450      17.85246086
H       27.40832710       9.08495998      19.52956390
H       28.83438873       5.79305267      19.28379631
H       27.91452408       6.89609432      20.34982109
H       27.19408417       6.33570862      18.81038666
C       28.26685143      16.34597397      28.87126350
O       27.72720528      17.66535759      28.94796753
C       26.83361626      17.81131744      30.06203651
C       26.14302826      19.16036224      29.94564056
O       25.25924492      19.04135323      28.82341385
C       24.47633743      20.22056198      28.69223404
H       28.88801575      16.12570381      29.75140381
H       27.46232605      15.59427452      28.82026100
H       28.86827850      16.26641464      27.95635605
H       26.06321716      17.02654839      30.03870964
H       27.36233330      17.76083946      31.02868652
H       26.88779640      19.95830917      29.77846909
H       25.58572388      19.39451981      30.87416840
H       23.78360558      20.08696365      27.84209442
H       23.86224937      20.38791466      29.59711456
H       25.11627579      21.10563278      28.53059006
C       11.52070236      12.20891666      31.25771141
O       11.88387966      12.90177155      32.46796417
C       10.93188572      12.60933876      33.51064301
C       11.51619434      12.90756321      34.89035034
O       11.28711224      14.28716183      35.23290253
C       11.65122509      14.60330963      36.56241989
H       11.50061798      11.11730099      31.40086555
H       10.52125072      12.50824451      30.90366745
H       12.25829029      12.42851162      30.46802330
H        9.99778938      13.17876148      33.34107208
H       10.65697289      11.53777790      33.46480942
H       12.59547234      12.69614220      34.92666626
H       11.00970840      12.28486824      35.64987183
H       11.58880234      15.69267750      36.68560028
H       10.95073605      14.14657211      37.28334427
H       12.67401981      14.27279949      36.80346680
C        9.74337101      13.19680977      27.34332275
O       10.62718773      14.31448555      27.38989830
C       11.67365837      14.24896526      26.40818024
C       12.22149563      15.65422535      26.25098419
O       12.90195084      16.08786964      27.44680405
C       13.44062996      17.39223862      27.17347527
H        9.46258068      12.92653751      26.30493736
H       10.14426327      12.30692005      27.85884285
H        8.80449486      13.47755051      27.85362053
H       12.46080685      13.53265095      26.70280457
H       11.28415012      13.92141151      25.42757797
H       11.39105225      16.35097694      26.01390839
H       12.93277264      15.62742233      25.39725876
H       13.87763977      17.79655266      28.09636688
H       14.21256542      17.34501648      26.38156700
H       12.63527584      18.06543159      26.82036972
C       33.45436096      26.29213142      29.37700081
O       32.58448792      25.25858498      28.92369080
C       32.40690994      24.28873253      29.96198463
C       31.16679192      23.47208786      29.63452339
O       31.43420792      22.59155655      28.54489136
C       30.33619499      21.74586678      28.27433395
H       33.24557114      26.57720375      30.42520332
H       34.51763535      25.99199104      29.32902336
H       33.28314209      27.16762352      28.73462868
H       33.29770660      23.64124107      30.04404259
H       32.23954773      24.79367447      30.93532944
H       30.33358765      24.15538788      29.39390755
H       30.88157654      22.91536713      30.54111862
H       30.60101509      21.02859879      27.48752785
H       30.05079079      21.17054176      29.17109108
H       29.44831848      22.30576515      27.93807220
C        2.02114463      29.51043320      25.81515121
O        2.05474234      30.45777893      24.70185089
C        1.04523301      30.22437286      23.66361618
C        1.27941000      31.28870583      22.55709839
O        1.72542059      30.62320900      21.37177277
C        2.22885776      31.49260712      20.36971474
H        1.10078073      29.64909554      26.43040276
H        2.04951954      28.47746468      25.43834877
H        2.94777536      29.69690895      26.39215279
H        1.18701470      29.22519493      23.21652985
H        0.03001296      30.27921104      24.09777260
H        2.06482029      32.00122833      22.89217758
H        0.32247919      31.81380272      22.37944031
H        2.87322330      30.89069176      19.71371269
H        1.43248868      31.96003532      19.76829338
H        2.84570217      32.29790878      20.79871368
C       16.40567589      13.00508690      36.52957916
O       15.35944653      13.38880157      35.63615036
C       15.87215042      14.04842663      34.46092987
C       14.78794193      14.99354935      33.96072006
O       14.52705765      15.94446659      35.00373840
C       13.38916683      16.74215317      34.67360687
H       17.14795876      12.35616302      36.03637695
H       16.93550301      13.90379620      36.91059113
H       15.97308350      12.46596241      37.38304520
H       16.78580856      14.61963081      34.70319748
H       16.11593819      13.32095146      33.66224289
H       13.87260628      14.43962193      33.67886734
H       15.15419960      15.50526047      33.05058289
H       13.13890648      17.39381218      35.52001572
H       13.57011700      17.35322762      33.77334595
H       12.50193310      16.11023521      34.48300171
C       14.06599903       5.62322330       6.98984432
O       15.39966011       6.10201263       7.11421394
C       15.58165359       7.22336006       7.99070120
C       17.05197906       7.21995306       8.41250706
O       17.83532906       7.23185253       7.21417761
C       19.21967506       7.22415209       7.51839209
H       13.79320335       4.97468662       7.83932972
H       13.32773495       6.42992306       6.89322090
H       14.01052284       5.01187706       6.07786798
H       15.34672260       8.15371799       7.43962383
H       14.92505455       7.18710041       8.87543583
H       17.26990318       6.31427956       9.00469017
H       17.26261520       8.10450459       9.04627419
H       19.77151299       7.45052385       6.59526682
H       19.47368240       7.98658371       8.27506161
H       19.52542305       6.23230076       7.89420938
C       10.00019455      35.75764084      26.94744873
O       11.06085968      35.26154327      27.73748779
C       10.77284050      35.21678162      29.13331985
C       12.05714035      34.79011917      29.84051323
O       12.74366379      35.97515488      30.24086761
C       13.94764423      35.68059921      30.92419434
H        9.10974979      35.11117172      27.03190994
H        9.73776436      36.78622055      27.23754883
H       10.32744503      35.74704361      25.89801216
H       10.43836880      36.20458984      29.50477028
H        9.96620369      34.48820114      29.32683754
H       12.68669701      34.18511581      29.16212845
H       11.80383682      34.18655777      30.73117447
H       14.48061943      36.62437439      31.10196114
H       13.76154995      35.17740250      31.89210892
H       14.59944439      35.02224350      30.32484436
C        1.77264583      12.77288723      34.38980484
O        3.13818789      12.41742897      34.52802277
C        3.75742722      13.04269028      35.64444351
C        5.18351793      12.51277924      35.66087723
O        5.84011173      13.04455185      34.50820923
C        6.97378778      12.27978325      34.11398315
H        1.18042481      12.43899727      35.26063919
H        1.65148878      13.86606979      34.29739380
H        1.37382996      12.29107666      33.48458099
H        3.76810718      14.14687443      35.49786758
H        3.23077059      12.83113670      36.58732605
H        5.17128038      11.41235638      35.59880066
H        5.68607712      12.81479168      36.59498215
H        7.38453484      12.75232220      33.21031189
H        7.73746204      12.25332260      34.90593338
H        6.68057442      11.25163174      33.85056305
C       33.20343399      21.29755402      13.97390747
O       32.01488876      21.66556740      14.68365002
C       30.86425400      21.05857849      14.05717850
C       29.61843872      21.62419128      14.73405170
O       29.27918434      22.84157944      14.04027176
C       28.21925926      23.57498360      14.67510033
H       33.34678650      20.20419312      13.96742058
H       33.15395737      21.63325882      12.92357826
H       34.05709457      21.75790977      14.48951435
H       30.84066391      21.28382492      12.97692394
H       30.90265274      19.95991135      14.15775585
H       29.76405907      21.82346916      15.81203556
H       28.78267097      20.91136742      14.63653755
H       28.11520576      24.52862167      14.14475822
H       27.26807785      23.02066422      14.62291336
H       28.40405655      23.76754951      15.74388027
C        5.69730186      23.80719566      23.32370949
O        4.83995533      22.69532967      23.64436531
C        5.60996675      21.72462273      24.37975121
C        4.77220249      20.46759033      24.47744942
O        4.57068396      19.96786118      23.13382912
C        4.22427893      18.58176041      23.06017113
H        6.08563519      24.30638885      24.22530937
H        6.55808020      23.50601006      22.70065880
H        5.07672262      24.50856972      22.74944305
H        6.52287626      21.48088455      23.80724144
H        5.90548992      22.11137199      25.37277031
H        3.79747319      20.65390015      24.96025085
H        5.31355762      19.71882248      25.08793831
H        4.15070629      18.27677155      22.00490379
H        4.97150040      17.95448494      23.57251167
H        3.24713230      18.38822746      23.53399849
C       18.89734268      14.45958138      25.86053848
O       20.05459213      13.63698864      25.98542595
C       20.84224892      14.08364677      27.10235214
C       22.03057289      13.13422489      27.25299644
O       22.95292091      13.40104389      26.17791557
C       24.17744064      12.68555260      26.34435081
H       18.24407768      14.36983871      26.74510956
H       19.16606331      15.52128506      25.72062302
H       18.30211258      14.11476803      25.00226974
H       21.20095062      15.11641121      26.92334557
H       20.22848129      14.09559345      28.02336502
H       21.69002533      12.08498859      27.18927383
H       22.49163246      13.29052448      28.24813271
H       24.87546158      12.97899342      25.54461861
H       24.63133621      12.89171600      27.32848740
H       24.00846291      11.59416485      26.27756119
C       18.57575607      17.55182838      34.39636993
O       18.11955833      18.83947372      34.82723999
C       17.05555153      19.31179237      33.98094940
C       16.34702301      20.44893265      34.69453049
O       17.23592377      21.55870819      34.80923462
C       16.78032303      22.52837372      35.73056030
H       17.73704910      16.83530617      34.34967041
H       19.03813553      17.57455635      33.39188766
H       19.31949615      17.19984818      35.13354492
H       17.45101166      19.62319374      32.99468231
H       16.30552483      18.52532387      33.79709244
H       16.00711632      20.12799263      35.69569016
H       15.45356846      20.71679688      34.10435104
H       17.55058289      23.30808640      35.81453705
H       15.83374310      22.98670578      35.39437103
H       16.60305214      22.10809898      36.73486710
C       18.96947098      12.76199150       6.07483959
O       18.58776474      11.80882359       5.08121109
C       17.83646202      10.75545216       5.69466925
C       17.57975197       9.66544533       4.66203356
O       18.83664322       9.09265614       4.28276491
C       18.66611290       7.90216494       3.52244687
H       18.11231995      13.03719139       6.71673298
H       19.76630974      12.39074135       6.73658752
H       19.30256653      13.66413498       5.54717541
H       18.38479614      10.34264088       6.56105852
H       16.86382866      11.13849831       6.06297731
H       17.04781914      10.05210400       3.77360106
H       16.92820168       8.91615295       5.14019823
H       19.64906502       7.43542767       3.41226101
H       17.99501610       7.21937132       4.06483841
H       18.23111725       8.11723137       2.53349686
C        3.21942425      33.09975815      35.37474060
O        2.44357944      33.60978699      34.30792999
C        3.27780151      34.02637100      33.22246933
C        2.38251543      34.36455536      32.02695465
O        2.04122400      35.75223541      32.14102554
C        1.16272008      36.17416000      31.10958672
H        3.82257533      32.23870468      35.04158020
H        3.87813330      33.86175919      35.81270599
H        2.51398039      32.75646210      36.14343262
H        3.87342215      34.89545441      33.54203033
H        3.96490836      33.21140671      32.94561005
H        1.47271156      33.74067688      32.01350784
H        2.87939000      34.16713333      31.06114960
H        1.00048661      37.25103378      31.24566078
H        1.59611094      35.98575974      30.10673714
H        0.18777752      35.66164398      31.15936661
C        7.95319605      16.63174248      14.32663536
O        8.69438839      17.83390808      14.54489803
C        8.14012814      18.68301201      15.57041740
C        8.91180325      19.97876549      15.64727592
O        8.81651688      20.53900719      14.33238888
C        9.55085087      21.76405334      14.28937626
H        7.66487074      16.16372681      15.28561115
H        7.02945137      16.82873344      13.75913811
H        8.58065414      15.92672539      13.75999165
H        7.08202600      18.90605164      15.35498905
H        8.16544533      18.20587921      16.56744766
H        9.97158909      19.82700539      15.93778133
H        8.45202923      20.65079117      16.40480614
H        9.42417812      22.15312576      13.26751232
H        9.15658569      22.49045944      15.01824379
H       10.62052345      21.60538673      14.49828243
C       12.06111526      30.83053207       3.03549027
O       10.74325180      30.80368614       3.58501792
C       10.77192783      30.08040047       4.81817770
C        9.32284260      29.89487076       5.25564432
O        8.66109848      29.13996887       4.23908329
C        7.35490799      28.79219055       4.64775372
H       12.73819637      31.37076187       3.71328735
H       12.45452499      29.81573677       2.87657142
H       12.01028728      31.35290909       2.07188272
H       11.25475502      29.09738731       4.66675711
H       11.31837177      30.63683128       5.60303640
H        8.80729866      30.86332893       5.39661455
H        9.29496288      29.37154007       6.22483253
H        6.92396402      28.10649872       3.91119504
H        7.37110662      28.27491379       5.62381887
H        6.70880461      29.68494225       4.73047447
C        7.29590511      11.10429096      20.43385124
O        8.39349842      10.40798187      21.05158615
C        7.93118286       9.34996128      21.90653229
C        9.12802410       8.51661301      22.33063126
O        9.89214134       9.21122360      23.33676720
C       10.88128853       8.32029152      23.84483337
H        6.65616989      10.40476036      19.86923409
H        6.66203022      11.61273575      21.17800331
H        7.72538853      11.84295464      19.74211311
H        7.38324594       9.76446342      22.77536011
H        7.22502184       8.69990540      21.35425949
H        9.77413464       8.28111553      21.46382141
H        8.74220848       7.56245375      22.73067474
H       11.54137993       8.86118126      24.53343391
H       10.40065384       7.48791504      24.39110756
H       11.48755836       7.88443375      23.02725029
C       21.88808060      34.86730576      12.99221706
O       20.58555984      34.29944992      13.20911503
C       20.50457954      33.03454971      12.51753426
C       19.07453156      32.54272461      12.65564919
O       18.21386719      33.38780212      11.85301590
C       16.82911682      33.04530334      11.98700047
H       22.68788147      34.13322067      13.19319439
H       22.00136185      35.18025589      11.93089581
H       21.99754143      35.72117233      13.67070580
H       20.78060150      33.15297318      11.44777107
H       21.20347404      32.31187439      12.97987366
H       18.73339462      32.55967712      13.70548248
H       18.99524879      31.49891281      12.29713821
H       16.24795914      33.64681244      11.27193069
H       16.65817833      31.98311424      11.73968697
H       16.44802856      33.20972443      13.00894737
C       26.79510880      18.18204689       2.40788889
O       27.75659180      17.14349747       2.41121912
C       28.31659508      16.88995171       1.11430347
C       29.14061546      15.61150932       1.24018490
O       28.18921280      14.54332066       1.15293097
C       28.86560249      13.28297997       1.17719936
H       27.23911667      19.13204002       2.06655097
H       25.92663765      17.92550468       1.77771962
H       26.42413330      18.30825043       3.43417263
H       27.51321411      16.72884560       0.37463793
H       28.95158195      17.73765373       0.81047660
H       29.67852974      15.57615185       2.20274210
H       29.87678909      15.52226543       0.42353898
H       28.09593010      12.51176739       1.03152204
H       29.61886024      13.20832825       0.37442949
H       29.37120438      13.10979939       2.14218211
C        9.25846577      17.82775497      34.83782196
O        9.80684662      17.06366158      33.77360535
C       10.34593678      17.88601112      32.72918701
C       11.03857231      16.96464348      31.73248100
O       10.03577232      16.09312630      31.21254730
C       10.56592655      15.26866055      30.16922951
H        9.83719540      18.74555206      35.02201080
H        8.21911049      18.13197899      34.63114548
H        9.24633884      17.21555901      35.74994278
H        9.53361702      18.43085670      32.21809006
H       11.04894638      18.62067795      33.15250778
H       11.84967327      16.38801956      32.21291733
H       11.46758842      17.56650162      30.90120125
H        9.73456192      14.66452694      29.77387619
H       10.98478127      15.85691929      29.33863640
H       11.33596706      14.57996082      30.54662132
C        1.87283528      19.11253738       8.63493252
O        2.13973379      17.73726082       8.43042469
C        3.35647249      17.29412651       9.02328777
C        3.45519614      15.81601810       8.66604710
O        3.89468598      15.73479652       7.30579519
C        3.62612820      14.50047970       6.67120981
H        2.19302821      19.44445419       9.63733482
H        2.36828709      19.72560501       7.86238098
H        0.78093505      19.24062157       8.57118130
H        4.21285057      17.81317902       8.55016041
H        3.35444355      17.47393608      10.11212158
H        2.46089101      15.36060333       8.77768993
H        4.16510296      15.31666565       9.34336758
H        3.94048572      14.57104969       5.62292051
H        4.18402004      13.68764877       7.15875721
H        2.54881310      14.27326488       6.70275593
C       10.02382946       6.75222111       5.48441219
O       10.85441780       7.47486019       6.37771368
C       10.16052246       7.92731285       7.55516434
C       11.11104774       8.77551651       8.37880611
O       11.33136082       9.96199322       7.60806561
C       12.44794655      10.67844200       8.14160156
H        9.56117630       5.89110041       5.99205256
H        9.20480347       7.37528229       5.09449768
H       10.61737728       6.38478041       4.63917494
H        9.27908802       8.52077961       7.25893402
H        9.79590893       7.08043003       8.15730858
H       12.05888653       8.23824787       8.55965805
H       10.66497231       9.02674770       9.36213303
H       12.45637608      11.66573048       7.66231394
H       12.35661030      10.80860329       9.23225212
H       13.39381409      10.14638996       7.94352055
C       20.47837830      33.53039932      21.60868073
O       19.24249840      34.08477020      21.15732384
C       18.67603874      33.30220032      20.10140038
C       17.30219269      33.85015488      19.77336311
O       17.47360611      35.16675568      19.22026443
C       16.21047592      35.76794052      18.93430519
H       20.38431168      32.44524002      21.77246857
H       21.28342056      33.70001602      20.86930275
H       20.72923851      34.00205612      22.56961632
H       19.33194351      33.35475922      19.21015930
H       18.58306694      32.24507141      20.40875053
H       16.62855530      33.89326096      20.65429306
H       16.79682732      33.18949509      19.02477646
H       16.40091515      36.76702118      18.52485657
H       15.63234138      35.19001007      18.18696594
H       15.57374096      35.84612274      19.83484077
C       16.59438324      29.95025253      19.35608292
O       16.75572395      28.85687065      20.23550034
C       18.00938034      28.21560097      20.00649261
C       18.41053963      27.47488785      21.26718140
O       17.27647781      26.72563362      21.73829842
C       17.58525848      26.19142342      23.02623177
H       17.37888527      30.69991112      19.51240540
H       16.62953568      29.61588097      18.29889107
H       15.59061718      30.38065338      19.51563835
H       17.88555717      27.53874207      19.12884331
H       18.79604530      28.96183586      19.77023125
H       18.74253845      28.17002869      22.05516434
H       19.24788094      26.78700638      21.02638817
H       16.69714355      25.62023163      23.33979225
H       18.43207741      25.48554230      22.97132301
H       17.79084206      26.98282814      23.76948929
C       32.32659912      18.39476013      16.28522873
O       33.06875229      17.19055176      16.46302605
C       33.90346527      17.25424957      17.64414024
C       34.51805496      15.87285805      17.83708763
O       35.92613983      15.96561337      17.55672455
C       36.58758545      14.71114540      17.62816811
H       31.76289558      18.68085480      17.18992043
H       32.98210907      19.23448563      16.00327110
H       31.57520294      18.21499825      15.50132084
H       34.69606781      18.00600243      17.50379944
H       33.29885483      17.55883980      18.51735497
H       34.04312134      15.15702820      17.14416885
H       34.35416794      15.52183914      18.86801910
H       37.64401627      14.86780453      17.36589813
H       36.51235199      14.28613377      18.64056778
H       36.14072800      13.99401760      16.91584206
C       17.68876648      20.62986565       6.94217968
O       17.80035400      21.17650223       8.25581264
C       19.15167999      21.21488190       8.75759983
C       19.08516502      21.16281891      10.28755856
O       18.98796463      19.78152084      10.68519115
C       19.02288818      19.62329674      12.10497189
H       18.22784805      21.24579430       6.20850849
H       18.05021095      19.59319305       6.89778566
H       16.61740112      20.61070824       6.69967937
H       19.73024559      20.36787415       8.35334301
H       19.63393211      22.15802193       8.44972229
H       18.19397545      21.70732880      10.64366055
H       19.96803474      21.63442612      10.74796009
H       19.33773041      18.59676933      12.33873653
H       19.71995735      20.33059883      12.58590221
H       18.03018570      19.79149246      12.56323147
C        5.73077774      14.44764519      22.98593712
O        6.48843527      13.57454014      23.83659172
C        5.76161861      12.38124561      24.12503433
C        6.52060986      11.63872814      25.20875168
O        6.49959183      12.41502762      26.42188454
C        6.78625107      11.55822182      27.54247475
H        5.29360294      13.91462898      22.13027763
H        4.89114428      14.91036797      23.52967834
H        6.40199471      15.22454643      22.60000801
H        4.73835754      12.60835934      24.47610664
H        5.66041136      11.74367142      23.22027397
H        7.56772089      11.45854473      24.91008949
H        6.02758741      10.66095257      25.33963776
H        6.80438232      12.15191460      28.46695900
H        5.98700047      10.79920101      27.64359856
H        7.75617743      11.05351925      27.42435074
C        6.89332676      28.31599808      28.85412216
O        8.23902035      28.76124763      28.98274612
C        8.89994240      28.42805862      30.21334839
C       10.40246201      28.47365570      29.96953201
O       10.72629738      29.78862953      29.49301147
C       12.13979530      29.97958755      29.61427689
H        6.54311085      27.84106636      29.78637314
H        6.22747707      29.16158867      28.63612747
H        6.79510307      27.57861328      28.04346275
H        8.61048317      29.15136528      31.00555801
H        8.59725666      27.42299080      30.54645348
H       10.69802761      27.72189713      29.21496582
H       10.93410110      28.24115181      30.91078186
H       12.36268711      30.97354507      29.20294380
H       12.48379421      29.91448021      30.65783501
H       12.69820786      29.21925163      29.04006767
C       11.34838581      29.59209633      25.93092728
O       12.11682224      28.39588928      25.86603546
C       13.53282070      28.65150070      25.96084976
C       14.25135422      27.32056427      26.05166626
O       13.80386543      26.51945305      24.94723892
C       14.36334324      25.21082687      25.01326180
H       11.39025497      30.05813408      26.92870331
H       11.66909504      30.31292725      25.15435982
H       10.29955196      29.31736183      25.74048996
H       13.85500050      29.18723679      25.04807091
H       13.75757408      29.27045822      26.84935379
H       14.05973339      26.82238579      27.01625443
H       15.33826733      27.50853157      25.94416428
H       14.07598114      24.70459175      24.07360268
H       15.46834564      25.23253059      25.07495117
H       13.95477486      24.65862846      25.88232613
C        3.53779793      11.66138172      31.22009277
O        4.40847826      12.77139282      31.05349541
C        3.77604294      14.07483864      31.10713959
C        4.76614380      15.05737305      31.73193550
O        6.00762892      14.97274780      30.97732353
C        7.19122553      15.22571468      31.76467323
H        2.48020792      11.95511723      31.08948326
H        3.74631858      10.89226723      30.45647812
H        3.62495279      11.22568417      32.23100662
H        3.49074650      14.37229061      30.08495712
H        2.86233211      14.06678581      31.72616005
H        4.92889214      14.79759026      32.79461288
H        4.33473969      16.07122231      31.67335510
H        7.93032980      14.43656254      31.57184982
H        7.64898586      16.18947411      31.50495338
H        6.97404814      15.22461319      32.84288406
C        8.69307137       8.78893280      17.38871956
O        7.28795671       8.76195621      17.13732719
C        6.88135195      10.04327774      16.64735222
C        5.38052797       9.98761177      16.36969757
O        4.73495626      10.55671215      17.53067970
C        3.34341931      10.27371025      17.61306190
H        9.26568985       9.07909489      16.48739052
H        8.94576454       9.48489857      18.20778465
H        8.97409344       7.76594019      17.68462944
H        7.11766768      10.82997036      17.38951111
H        7.43742132      10.29284477      15.73030472
H        5.07311010       8.94321918      16.22969055
H        5.10146570      10.54807281      15.46242523
H        3.01099300      10.47170353      18.63649559
H        2.76989388      10.88185120      16.89317894
H        3.16396546       9.21087074      17.38376808
C        8.10532856      10.90619659      30.70511627
O        9.04658604      10.65849304      29.66248322
C        9.31964874       9.25932598      29.45964622
C       10.10652924       9.11792183      28.16143417
O       11.30711842       9.89821434      28.29113197
C       11.93146992       9.90486526      27.00340080
H        7.15921402      10.37454414      30.51189232
H        8.47482491      10.58822441      31.69466019
H        7.86940956      11.97742367      30.73639107
H        9.85412025       8.85454369      30.33335686
H        8.36373329       8.72067451      29.34548950
H        9.48276615       9.49005508      27.32018471
H       10.34418488       8.06086636      27.93870163
H       12.86277771      10.47526455      27.08570290
H       12.17858219       8.87942219      26.67048645
H       11.26827431      10.36333847      26.24388695
C       13.95194435      24.41217804      20.74335480
O       12.95887756      23.40005302      20.48344231
C       12.99757099      22.43084526      21.55484009
C       12.17127705      21.25643730      21.05731201
O       12.91067314      20.62282181      20.00277138
C       12.19854069      19.56599617      19.38978004
H       13.76848030      24.94656563      21.69356918
H       14.98401546      24.02408409      20.77916145
H       13.84563923      25.12756538      19.91062355
H       14.05081558      22.14324188      21.76650620
H       12.55258179      22.87162018      22.46984482
H       11.18540001      21.59527779      20.68407059
H       11.95966625      20.55333519      21.89027214
H       12.85762882      19.00638199      18.70424652
H       11.81878567      18.84536362      20.13600731
H       11.34995556      19.94684601      18.78949928
C       32.09733582       7.75490570      34.10558701
O       30.77816391       8.23970222      33.95365524
C       30.48798943       8.68259335      32.62305069
C       28.97566986       8.88551998      32.56068039
O       28.69360352      10.05061245      33.36713791
C       27.55183029      10.02651882      34.20218658
H       32.34662628       7.02037144      33.32017899
H       32.83015442       8.57469845      34.05020142
H       32.16220856       7.27375174      35.09532547
H       30.98520279       9.64527607      32.42413712
H       30.80333328       7.95314741      31.85945511
H       28.45541954       7.99597692      32.94214249
H       28.66979218       9.04432774      31.51115417
H       27.50689697      10.97319031      34.75670242
H       26.61906433       9.93065929      33.61999512
H       27.58937263       9.20155907      34.93379974
C       23.31605339       9.25061417      33.41177368
O       23.37989235       8.93175220      32.03224182
C       23.31856728      10.08673286      31.17789078
C       22.86093140       9.63859844      29.78390121
O       21.42769241       9.59318829      29.80868149
C       20.89994621       8.95482159      28.64488411
H       24.05987358      10.00747490      33.70234680
H       22.31402206       9.61744499      33.69673157
H       23.51359749       8.33308315      33.98491669
H       22.60653305      10.81578636      31.59640312
H       24.31037903      10.56579685      31.11526489
H       23.29093170       8.65802002      29.51652145
H       23.19468880      10.36378860      29.01677895
H       19.80657196       9.01254368      28.70077896
H       21.23027802       9.43895149      27.70903778
H       21.16858482       7.88558149      28.60676575
C       25.09128380      29.76339531       7.97483921
O       24.52895737      31.04764938       7.73010540
C       25.41555977      31.77969551       6.86935425
C       25.01580238      33.25699997       6.91965914
O       25.37637138      33.73936081       8.20777035
C       25.37458611      35.16303635       8.28920746
H       25.31886673      29.23584175       7.03317070
H       26.01760292      29.84587479       8.56835842
H       24.33250618      29.20611954       8.54468727
H       26.44428825      31.68362045       7.24477673
H       25.37051201      31.36856651       5.84250879
H       23.93119240      33.37797165       6.73739910
H       25.56566620      33.79169464       6.12387991
H       25.92216682      35.45209885       9.19593048
H       25.86399841      35.59538269       7.40379477
H       24.35266495      35.57102203       8.35263824
C       17.70444107       4.59756565      32.45690155
O       16.95610809       3.81877518      31.55249214
C       17.64834785       2.64868188      31.11074257
C       16.82147980       1.98271835      30.00578880
O       17.34821510       2.47230625      28.76244545
C       16.65209770       1.93057561      27.64063644
H       17.78829575       4.12038946      33.45228958
H       18.72236061       4.79789400      32.08488846
H       17.18319893       5.55517673      32.57963562
H       18.64013863       2.93936133      30.71952438
H       17.78558540       1.96170771      31.97068405
H       15.74886417       2.22366405      30.11858177
H       16.92304039       0.88506544      30.05644226
H       17.13387108       2.27250099      26.71366882
H       16.64643478       0.82787204      27.64857101
H       15.60111237       2.25897837      27.63466454
C       20.54705048      31.79974174      31.15797234
O       19.63987160      32.76168060      30.61134720
C       18.62431335      33.18373489      31.54460144
C       17.31435776      33.34897614      30.78032303
O       16.85611343      32.01573181      30.50389481
C       15.50543022      31.96070290      30.07412720
H       21.06138039      32.20730209      32.04859543
H       20.00873566      30.87106514      31.43478203
H       21.29495811      31.54792213      30.39012337
H       18.46661186      32.42707062      32.33098221
H       18.90909767      34.13153458      32.02719116
H       17.45363808      33.87856674      29.82332230
H       16.58593369      33.90306473      31.39383888
H       15.25346947      30.90648651      29.88115692
H       14.81752205      32.32931137      30.85566711
H       15.34368515      32.55754852      29.16112137
C       20.69478226      15.65464783      10.54165363
O       21.11343002      14.31798840      10.33327007
C       22.51325226      14.22717381      10.06147385
C       22.92547035      12.78714371      10.30842209
O       22.31777382      11.95778656       9.29870510
C       22.51845551      10.57579803       9.54418755
H       21.34997559      16.16549492      11.26790428
H       20.68630981      16.22842026       9.60201359
H       19.67610359      15.62278080      10.95289135
H       22.71658516      14.49885464       9.00769329
H       23.08224678      14.88336468      10.74254036
H       22.58477592      12.48880100      11.31637287
H       24.02251053      12.70365524      10.27559757
H       22.14162254      10.01796627       8.67652416
H       23.58441544      10.33830738       9.68863583
H       21.94381523      10.24742603      10.42400169
C       26.83787727      33.49613190      31.09801102
O       27.39005280      32.18894196      30.93697739
C       27.19870758      31.68319130      29.61326599
C       27.90472794      30.33875275      29.52863121
O       27.29003525      29.45354843      30.47614861
C       27.92169571      28.17142487      30.41987801
H       27.22895622      34.16532516      30.31123352
H       25.73877907      33.49187469      31.04652596
H       27.09134102      33.85560608      32.10942459
H       26.12184143      31.56986809      29.40432930
H       27.64472008      32.36041641      28.86552048
H       28.97353745      30.47011948      29.77018547
H       27.82226753      29.92036819      28.50711060
H       27.33684349      27.49051285      31.05157471
H       27.94235802      27.77447128      29.38821602
H       28.95831680      28.23252487      30.79465675
C       18.54115486       8.12862396      22.80695343
O       19.27336121       7.71867609      21.64985275
C       20.05419159       8.81751823      21.15410233
C       21.15948677       8.28585148      20.24496078
O       20.57601547       7.86661148      18.98328209
C       21.53807259       7.30350733      18.08999252
H       19.17963028       8.26277828      23.69509125
H       17.97752190       9.06399155      22.63677979
H       17.79952812       7.35281515      23.04012680
H       19.38909531       9.50359249      20.60734177
H       20.51177979       9.37543297      21.98691750
H       21.67305756       7.43841839      20.72358894
H       21.88985443       9.09646606      20.08308983
H       21.02590179       7.05794764      17.14521599
H       22.36752129       8.00212193      17.88721466
H       21.97515488       6.37254190      18.49152946
C       16.02754402      19.43384361      15.89652538
O       15.15935802      20.54543114      16.05298996
C       15.01974010      20.90825844      17.44204712
C       14.06984234      22.08875847      17.53799629
O       12.81392097      21.71750832      16.94648933
C       11.83406925      22.67323112      17.35468483
H       17.02213097      19.64702415      16.32829475
H       15.61128330      18.54817390      16.41788864
H       16.12391663      19.19500923      14.82653999
H       14.62360287      20.05211449      18.01391602
H       15.99004745      21.18382263      17.89509201
H       14.47749233      22.95277786      16.97108841
H       13.92118740      22.41445732      18.58669472
H       10.85127163      22.34197617      16.98078156
H       11.76721287      22.76829910      18.45134735
H       12.06184292      23.66919518      16.93848610
C       31.13561440      12.64289570      32.04883194
O       32.53342438      12.91479492      32.08671188
C       33.36227036      11.75730705      31.94256973
C       34.76891708      12.18413162      32.35642624
O       34.77231216      12.47992897      33.74892426
C       35.98974991      13.09722137      34.13204956
H       30.82825279      12.22745895      31.07181168
H       30.81866074      11.92389297      32.82193375
H       30.60175896      13.58813572      32.21657181
H       32.99106216      10.94815636      32.59138107
H       33.36022186      11.39727974      30.89419746
H       35.02794647      13.08208752      31.77813911
H       35.49030304      11.38483620      32.10924530
H       36.01284409      13.14205933      35.22985458
H       36.85731125      12.51765156      33.78563309
H       36.06196594      14.12095165      33.72944641
C       13.17039490      35.18426132      14.71341705
O       13.38524914      34.79909515      16.07951164
C       12.53552055      33.67496109      16.37282562
C       12.93211937      33.16492081      17.74675369
O       12.43534660      34.02477264      18.78572273
C       12.84772778      33.51318741      20.04971886
H       13.46117210      34.37319565      14.02161598
H       12.10893726      35.39693832      14.50741196
H       13.78893089      36.06681442      14.51444721
H       11.46952057      33.96961594      16.33624649
H       12.67224979      32.86005402      15.63352013
H       14.03272724      33.08624649      17.81878853
H       12.50689793      32.15183258      17.84848976
H       12.39661980      34.09162521      20.86501312
H       12.51873779      32.46409225      20.16228867
H       13.94650269      33.54357147      20.16162872
C       17.19800949      36.36808014      36.27575684
O       18.20872307      35.38379669      36.32892227
C       18.01088333      34.33678055      35.37478256
C       19.02585983      33.22674561      35.68412018
O       18.48220062      32.47924423      36.76885986
C       19.34324646      31.40825081      37.09992981
H       17.11186218      36.80409622      35.26553726
H       16.21582603      35.94557571      36.54475403
H       17.45985222      37.14660645      37.00409698
H       16.98938179      33.92926407      35.43061447
H       18.16883469      34.70611572      34.34729385
H       20.00124931      33.66619492      35.95462799
H       19.17279816      32.57469177      34.80082703
H       18.82305908      30.83041000      37.87815094
H       19.51773071      30.74138832      36.23259735
H       20.31808281      31.76408195      37.47923660
C       28.54724503      19.34440994      33.62555695
O       29.27051926      20.56027222      33.58625412
C       28.83749771      21.44239426      34.62907791
C       29.58473396      22.75500107      34.51090240
O       28.90526390      23.52541542      33.51848221
C       29.47144127      24.82673836      33.43543625
H       28.55640411      18.90968132      34.63838196
H       27.49847984      19.50040054      33.32477951
H       28.99634552      18.63352776      32.92125702
H       27.75550842      21.63740730      34.53517914
H       29.02806664      21.00563622      35.62331009
H       30.63054085      22.57593536      34.21200943
H       29.58706474      23.29110527      35.47925186
H       28.84934044      25.40140915      32.73396301
H       29.46799850      25.32660484      34.41987610
H       30.51102448      24.79936790      33.07022095
C        2.95717311      26.08284187      19.79325676
O        3.38331890      25.94730759      21.14075661
C        3.25339055      27.18944168      21.85340309
C        4.00001049      27.13137054      23.18066978
O        5.39159393      26.91345215      22.89046669
C        6.22257900      27.24502754      24.00479317
H        1.87378037      26.28900146      19.75698471
H        3.51047230      26.88326836      19.28533936
H        3.13257337      25.13145447      19.27297020
H        3.66188073      28.00825310      21.24238777
H        2.19061613      27.40715790      22.04726028
H        3.61857796      26.30895233      23.81155205
H        3.84713912      28.07287598      23.73597527
H        7.24105787      26.89537048      23.77583313
H        6.23175144      28.33033943      24.19886208
H        5.89252520      26.72812080      24.92169380
C        1.83893037      15.38982296      25.62221146
O        2.04710245      14.00893211      25.88069153
C        3.12212586      13.79922199      26.79763031
C        3.05149007      12.35031700      27.23307037
O        3.12101793      11.53175735      26.05636787
C        3.04303122      10.14403439      26.36315536
H        1.88031137      15.97554111      26.55445480
H        2.59703636      15.79436874      24.92832947
H        0.83141249      15.49060059      25.19144058
H        4.09902096      13.98340607      26.30736160
H        3.04754782      14.46010590      27.68164825
H        2.10013390      12.16513157      27.76172829
H        3.87943959      12.15563297      27.93624115
H        3.12224817       9.55937958      25.43838882
H        3.86795139       9.86716461      27.04672432
H        2.08650947       9.90268898      26.85680580
C       31.43373680       5.53118277       8.54433346
O       31.45914078       6.55987120       7.56725264
C       32.00917435       6.13785410       6.31754160
C       32.30522919       7.42113256       5.54074907
O       33.20129013       8.16920090       6.33953142
C       33.48194504       9.43716717       5.75615501
H       31.30206299       4.54314756       8.07201481
H       32.35117722       5.53847551       9.15665054
H       30.57643509       5.70620537       9.20694542
H       32.93487549       5.55971146       6.46718121
H       31.29051590       5.51827621       5.75144958
H       31.36414146       7.98233795       5.36998844
H       32.73243713       7.16964245       4.54891777
H       34.24401474       9.91978550       6.38640833
H       33.86294937       9.33538723       4.72449636
H       32.58840942      10.08520317       5.72549200
C       30.26256561      20.77217484       1.99354613
O       30.83817673      19.74769020       2.78098845
C       31.92356300      19.07178307       2.14549613
C       32.65439606      18.30495644       3.24776816
O       31.69057465      17.53207970       3.96378493
C       32.33934021      17.03965187       5.14039230
H       31.00613976      21.56053734       1.79081309
H       29.85719299      20.37484550       1.04995787
H       29.43031120      21.18403053       2.57891917
H       31.55597687      18.39946938       1.34651387
H       32.63940048      19.79621124       1.71249354
H       33.14153671      19.02328491       3.93437195
H       33.42701340      17.65108109       2.80737686
H       31.66552734      16.28676605       5.56966734
H       33.30799103      16.57431984       4.91026163
H       32.50818253      17.82988167       5.88873386
C       14.01801682       7.58221865       1.21298456
O       14.07687283       8.65673161       2.14164257
C       13.25487137       8.45589542       3.30040860
C       13.15818024       9.78750134       4.03544331
O       12.29029083      10.61382389       3.24560213
C       12.29479790      11.94600391       3.71352506
H       14.38665199       6.65327549       1.67133355
H       12.97936153       7.41354418       0.89045632
H       14.63433933       7.83435869       0.34173200
H       12.24826145       8.12935829       2.99242091
H       13.68363857       7.70867968       3.98645687
H       14.15422630      10.25516891       4.10388422
H       12.74444580       9.66375637       5.05045557
H       11.64615440      12.52135849       3.03995156
H       11.89931202      12.02082729       4.74031067
H       13.31412315      12.36601257       3.70389819
C       25.69186974       5.62914419      35.04871368
O       26.10568047       4.27469921      34.84140778
C       27.26316833       3.95762825      35.61915207
C       27.48832893       2.45752549      35.43866730
O       28.32727432       2.29151726      34.30076218
C       28.37466049       0.96020597      33.79591370
H       25.67232895       5.87209940      36.12237549
H       26.36379814       6.32355976      34.52392578
H       24.66933250       5.71508455      34.65196228
H       28.14320946       4.49705935      35.23447037
H       27.08582687       4.24495077      36.67280579
H       26.51111603       1.97229934      35.26651382
H       27.94437790       2.02242398      36.34976196
H       29.00023842       0.97579771      32.89554214
H       28.82165909       0.28013596      34.54557037
H       27.37170219       0.60522103      33.52417374
C       16.63424301      26.02661896       2.82763505
O       16.07664490      24.75138474       2.56679273
C       14.77406979      24.69490814       3.15582943
C       14.32006931      23.24372482       3.09351492
O       14.83484459      22.59104156       4.27048206
C       14.61760139      21.18901443       4.20960426
H       15.99955940      26.81935883       2.39348221
H       16.73026848      26.22013855       3.90551353
H       17.63459015      26.04594612       2.37149096
H       14.79145241      25.07923698       4.19301414
H       14.07039452      25.32495499       2.58071661
H       14.70026970      22.74317551       2.18296766
H       13.21917725      23.19417572       3.07852960
H       15.13805580      20.74432373       5.06781197
H       13.54166985      20.95864105       4.28289938
H       15.00202656      20.75702095       3.26847911
C        7.69069815      16.40535927       9.20574188
O        7.60261393      17.77671623       8.79841042
C        8.67315292      18.05995369       7.87547302
C        8.39426613      19.43836021       7.27942705
O        7.93169832      20.26750565       8.35503006
C        8.16788006      21.67446899       8.27580357
H        7.64263964      15.73331547       8.33100796
H        8.63028622      16.22137451       9.75157547
H        6.84293795      16.20546722       9.86625290
H        9.62334824      18.06404495       8.42955971
H        8.72194099      17.29722214       7.07875395
H        7.64267302      19.36671448       6.47605848
H        9.32786846      19.83003044       6.84715986
H        8.22787189      22.04261017       9.30833530
H        9.12421894      21.87390709       7.76795816
H        7.35975409      22.18187523       7.71947813
C       34.26006699       7.58153963      14.10416222
O       32.84380722       7.49772978      14.14693642
C       32.27265549       7.75736427      12.86949921
C       30.76652527       7.47945690      12.97892475
O       30.16079903       8.56425858      13.70711517
C       28.76561165       8.35401249      13.93672562
H       34.67225266       6.93578911      13.30515480
H       34.58971786       8.61492825      13.92288685
H       34.64601135       7.23115063      15.07099438
H       32.43964767       8.80491066      12.56801987
H       32.69836044       7.09648323      12.08955669
H       30.61455154       6.53732204      13.52419472
H       30.30927086       7.38707256      11.97561359
H       28.40638542       9.06641674      14.68749332
H       28.18735695       8.48683167      13.00357533
H       28.56331253       7.34222794      14.32034588
C       18.70719337      34.77059174       4.48713207
O       19.20808983      34.01078033       5.57579422
C       18.61010551      32.71384048       5.59965181
C       19.16576958      32.00012589       6.81796646
O       18.73520279      32.66003036       8.02113914
C       19.20402527      31.92855453       9.15742493
H       18.98943329      34.31908417       3.52059746
H       17.60691071      34.84113312       4.54415512
H       19.13354874      35.77540588       4.58278799
H       17.51070595      32.79991531       5.67454910
H       18.84606934      32.14031219       4.67901707
H       20.26701546      31.95330048       6.78727627
H       18.77565765      30.96813774       6.78951073
H       18.82544708      32.44238281      10.05458069
H       18.80268669      30.89864731       9.15611076
H       20.30651474      31.87154007       9.19666290
C       33.41345215      17.51862717      25.17948914
O       33.12680054      16.13626862      24.95321465
C       32.12818527      15.73344135      25.90312958
C       31.81674004      14.26300240      25.66426849
O       32.96165466      13.46982956      25.98578835
C       32.62497330      12.17863274      26.49433708
H       32.50166321      18.12048531      25.02701378
H       33.78271866      17.70277786      26.20163155
H       34.17639923      17.81548500      24.44775772
H       32.48517227      15.89600658      26.93693733
H       31.19869995      16.32348633      25.76100540
H       31.53520584      14.06906986      24.61252403
H       30.93831825      14.00805187      26.28468132
H       33.45551682      11.81163406      27.11168861
H       31.71560669      12.20742416      27.11890984
H       32.43574905      11.46489525      25.66930962
C       28.67690086       9.21086025       7.66509438
O       29.49238205      10.14883900       8.35921478
C       30.14732552       9.56397343       9.50350761
C       31.00020409      10.64438915      10.18520927
O       30.19254112      11.80220318      10.41925240
C       30.71101570      12.69446373      11.39382458
H       29.24029541       8.29684830       7.42114115
H       27.80004692       8.92781925       8.27243996
H       28.31493950       9.69064331       6.74984455
H       29.38507843       9.19520378      10.21302319
H       30.76463318       8.70935631       9.17301369
H       31.85361671      10.89985085       9.52807713
H       31.40863991      10.26853561      11.13854027
H       30.04207611      13.56909561      11.40926838
H       30.70982933      12.24111366      12.40317345
H       31.73652649      13.03013802      11.15502453
C       22.85567093      30.59113312      11.14706326
O       23.44558525      31.80489159      11.59289074
C       24.82455826      31.88405418      11.19584846
C       25.29583359      33.30664444      11.48432732
O       25.41828728      33.49685669      12.88828850
C       25.85797882      34.80399704      13.21042919
H       22.74717903      30.58566666      10.04890156
H       23.44340515      29.70858765      11.45732975
H       21.86105919      30.52089691      11.60922813
H       25.41975784      31.13813972      11.74991703
H       24.90391731      31.67484856      10.11058617
H       24.55628967      34.01228333      11.05847645
H       26.26251602      33.45352173      10.97057819
H       26.02426147      34.84751511      14.29778004
H       26.79455376      35.04637527      12.67868710
H       25.10416031      35.56438446      12.94387436
C       33.54300308       8.59908772      28.57094574
O       34.41107559       8.04205322      27.58956528
C       34.52458954       8.90585327      26.45796585
C       35.46185684       8.23361492      25.43918610
O       34.64603043       7.46994972      24.54750824
C       35.36719894       6.59385872      23.70985031
H       33.82253647       9.63185883      28.83021545
H       32.49185944       8.60267258      28.24421883
H       33.58382416       7.98806953      29.48332024
H       33.53453064       9.05823421      25.98938370
H       34.91364288       9.88718414      26.78049469
H       36.17872620       7.58085537      25.96091652
H       36.02388763       9.00798512      24.88660431
H       34.62776184       5.99385977      23.16463470
H       35.98171616       7.14327288      22.97681618
H       36.00471878       5.91031504      24.29025269
C       21.15504265      24.64508438      14.38788223
O       20.04786873      23.73248291      14.33984184
C       19.24611092      24.04891205      13.18869972
C       17.98441315      23.18656921      13.12209702
O       16.96223831      23.76425934      13.96140766
C       15.75677395      23.00610352      13.90257645
H       21.74469948      24.59767151      13.45320511
H       20.80106926      25.68090057      14.52318478
H       21.78767014      24.37194633      15.24344063
H       18.96479607      25.11533928      13.17846107
H       19.83057022      23.83039093      12.27274513
H       18.19451332      22.14559746      13.41915035
H       17.60845375      23.16525841      12.07896137
H       15.01527786      23.46234703      14.57508564
H       15.33433056      23.01340485      12.87617111
H       15.88652802      21.95447731      14.21555138
C       21.56960106      31.01558495      26.68862343
O       20.47813416      30.27773476      27.23549843
C       19.40422249      31.16159821      27.57378960
C       18.12768173      30.36165237      27.77011871
O       18.40198898      29.22266960      28.61652374
C       17.25322723      28.37194252      28.66494942
H       21.21274185      31.71764946      25.91414261
H       22.09700012      31.57304764      27.47818565
H       22.26469994      30.29817963      26.22474861
H       19.64669991      31.77897644      28.45885658
H       19.19253349      31.84156418      26.72506523
H       17.73272514      30.03023148      26.79335785
H       17.35749435      31.00441360      28.23264313
H       17.55217743      27.40297127      29.09537315
H       16.44024086      28.79239845      29.28099251
H       16.83599854      28.19435883      27.65664291
C       18.39813042      15.50401306      22.24582481
O       18.89320755      15.65029526      20.92021561
C       19.09427834      17.03519821      20.62508011
C       19.65349579      17.11451149      19.19907951
O       18.55658340      17.27928352      18.27488136
C       19.04994583      17.25844193      16.93791771
H       19.07500648      15.93950081      23.00355721
H       17.39346123      15.95282936      22.37418938
H       18.29096794      14.42546940      22.43787193
H       18.13437080      17.58613586      20.70445061
H       19.78031731      17.48536491      21.36271858
H       20.19992065      16.18578339      18.95203209
H       20.34578896      17.97271729      19.11662674
H       18.19616699      17.41492271      16.26092148
H       19.79703331      18.05326843      16.77756310
H       19.49470139      16.28343582      16.68295097
C       28.37446404      24.15479469      23.11225319
O       29.74726677      24.37269020      23.43143272
C       30.60577583      23.64882660      22.54931831
C       31.99133110      23.61207771      23.19421196
O       31.91566086      22.69566917      24.28520966
C       33.21947861      22.49340057      24.82637978
H       28.16906357      24.26275444      22.02933121
H       28.03096008      23.15713501      23.43851662
H       27.77263641      24.90991211      23.63851547
H       30.23738289      22.61802483      22.39118195
H       30.65918732      24.14070892      21.56121635
H       32.29518890      24.61129951      23.55206490
H       32.71141052      23.25818825      22.43166351
H       33.11170578      21.82217407      25.68883133
H       33.87694168      22.03030014      24.06934929
H       33.67203903      23.44093895      25.15362358
C       17.80583382      21.53282547      25.68264580
O       16.51124763      21.57202530      26.30188942
C       16.53280830      22.32941055      27.51934814
C       15.09520245      22.45790291      28.02427864
O       14.49956894      21.15093422      27.98577690
C       13.15769768      21.12287140      27.47799683
H       18.07815361      22.52460289      25.29655075
H       18.56735611      21.16976166      26.39082146
H       17.75293159      20.83643913      24.83080482
H       17.19177818      21.82349396      28.25158691
H       16.90908241      23.35252953      27.33215332
H       14.53237343      23.13066292      27.35887337
H       15.05404663      22.89496231      29.03324509
H       12.87549782      20.06962204      27.32173538
H       12.43535709      21.57566643      28.17293549
H       13.06507587      21.66417885      26.51484108
C       25.86189079      28.77926826      15.62583065
O       24.88701057      28.68132210      16.66233635
C       24.94490051      27.40191460      17.29966736
C       24.06398582      27.56573296      18.53381348
O       22.68733788      27.53398132      18.13904953
C       21.91805267      28.07592392      19.20859528
H       26.86888504      28.64403915      16.04709435
H       25.70011139      28.03150177      14.83319569
H       25.75718307      29.78342438      15.20299530
H       24.60485840      26.60188484      16.61553574
H       25.97572899      27.17020798      17.62780571
H       24.27682114      28.53614998      19.02511406
H       24.25054550      26.74986076      19.25301552
H       20.86485100      28.04828835      18.89207649
H       22.00075912      27.45788383      20.12336922
H       22.19577217      29.11612129      19.44444084
C       31.32869148      22.27368164      18.81966209
O       32.63511276      22.09386063      19.38908195
C       33.35326004      21.08359337      18.65244865
C       34.61134338      20.80167198      19.46355820
O       34.15932083      20.17498779      20.66994858
C       35.25292969      19.93321800      21.56390190
H       31.40136719      22.62727356      17.77585793
H       30.76211166      21.32061768      18.82431221
H       30.78947258      23.00073242      19.43753624
H       32.73998642      20.17016220      18.55775642
H       33.59278107      21.42137718      17.62779617
H       35.14628601      21.73238754      19.70277786
H       35.26104355      20.12068748      18.89028168
H       34.82697296      19.47969246      22.47109985
H       35.96590424      19.22707748      21.10679245
H       35.77419281      20.86588287      21.82990456
C       24.39531517       7.78344154      20.47488403
O       24.12107468       8.99290085      21.18877983
C       24.38794518       8.83849525      22.60491371
C       23.79071236      10.01737309      23.37333488
O       22.36811638       9.77893543      23.45531845
C       21.73946381      10.59658813      24.43532944
H       25.45779800       7.50433111      20.54176521
H       23.79312134       6.94891787      20.87714958
H       24.11638260       7.91743755      19.42022896
H       23.92408562       7.90929508      22.96587563
H       25.47410965       8.78597355      22.78112602
H       23.96548271      10.97274208      22.85131645
H       24.21649361      10.09489250      24.38718987
H       20.66347504      10.36477852      24.42372131
H       22.09215927      10.38796902      25.45970154
H       21.86619949      11.67412567      24.24464226
C        6.04651117      29.75055122      20.64688683
O        5.84021807      28.45357132      20.13262177
C        7.01823807      27.64321709      20.20817757
C        6.63423538      26.26595116      19.68801880
O        6.08087063      26.46127701      18.37405014
C        5.79873610      25.24813271      17.68614769
H        6.28761435      29.72990799      21.72363091
H        6.86138058      30.27133369      20.11554718
H        5.10519695      30.30235863      20.51877213
H        7.79782152      28.06225967      19.54015160
H        7.39782381      27.59767342      21.24575043
H        5.91002655      25.77543831      20.36265182
H        7.52859974      25.61806679      19.63878822
H        5.19607735      25.49052811      16.80046844
H        6.72112799      24.74907112      17.34270859
H        5.24259949      24.52529526      18.30741119
C       19.25352859       4.73965883      19.34294128
O       19.05592155       3.80049086      18.26866722
C       20.29529381       3.31146073      17.69327354
C       19.98414803       2.05133939      16.89440155
O       19.46588135       2.45155454      15.60593414
C       18.86592484       1.36087394      14.88482475
H       19.93191910       4.35362148      20.12036324
H       19.67083549       5.68884230      18.96748352
H       18.28111458       4.93914938      19.81187057
H       20.71854591       4.08430529      17.03356934
H       21.01141357       3.11065221      18.50272560
H       19.24829674       1.43955517      17.44315720
H       20.88795090       1.43442416      16.75098419
H       18.65264893       1.68782067      13.85666752
H       19.51450348       0.46778294      14.85865688
H       17.91220093       1.06368852      15.34993458
C        6.23553562      22.91143990      14.72129822
O        6.01340580      21.63768578      15.33175945
C        5.15363884      21.78014183      16.47281456
C        4.85622883      20.36427116      16.95005798
O        6.06230927      19.80568314      17.51959419
C        5.80032587      18.46552658      17.95735931
H        5.27215195      23.35381889      14.41242886
H        6.73040676      23.60281181      15.41795254
H        6.86778593      22.75082970      13.83338261
H        5.60559845      22.39927673      17.26711273
H        4.19892502      22.26579094      16.18432426
H        4.52976561      19.73653603      16.10436440
H        4.04960823      20.39778519      17.69894409
H        6.71967840      18.05965614      18.40289116
H        4.97781515      18.46517563      18.69611549
H        5.49079323      17.83179283      17.10009575
C       31.63384819       5.05657482      17.12929535
O       30.79315186       5.05261135      15.99912930
C       29.40174103       4.90714264      16.31616783
C       28.69250107       4.50483704      15.03019333
O       29.01486969       3.14944792      14.72223473
C       28.62868309       2.81276274      13.40030098
H       31.43753242       5.91615915      17.79048538
H       31.52888680       4.13409662      17.72978592
H       32.67348099       5.12799597      16.77764511
H       29.26176643       4.14498615      17.10226440
H       28.99240875       5.85699081      16.70275497
H       29.02956009       5.16106319      14.20970631
H       27.60201645       4.64403772      15.15095043
H       28.93828011       1.78084779      13.19155884
H       27.53594017       2.87921190      13.27529144
H       29.09294319       3.47880149      12.66051769
C       13.82962322      14.93426800      30.42839050
O       15.22471523      14.87436485      30.67698288
C       15.99318504      14.65712643      29.47373199
C       17.40960121      14.32823563      29.93971443
O       17.50850296      12.89945030      29.90458298
C       18.70323753      12.36967468      30.43925858
H       13.52450275      15.89581299      29.97885895
H       13.49552631      14.12897873      29.74263000
H       13.28735924      14.79641056      31.37778854
H       15.58463860      13.80687046      28.89645958
H       15.94116402      15.55832005      28.83720207
H       17.57835197      14.71033096      30.96064568
H       18.15951920      14.77053070      29.26149368
H       18.75791359      11.31356144      30.13216400
H       19.59920120      12.89428902      30.06370926
H       18.70749855      12.39495564      31.54104805
C        8.98600292      29.19609261      15.58212662
O       10.27136421      29.77547073      15.38262653
C       11.29646778      28.76317024      15.33134460
C       12.65157604      29.43934822      15.26564312
O       12.89509678      30.10859299      16.50577354
C       14.29619312      30.38698769      16.57383728
H        8.78522301      28.40181732      14.83828735
H        8.89865971      28.73878670      16.58207893
H        8.22682476      29.98113441      15.46526051
H       11.24133873      28.12265778      16.22774124
H       11.14176655      28.14098549      14.43052769
H       12.69037724      30.16972542      14.42800426
H       13.40746784      28.65940285      15.05534840
H       14.52914619      30.89723969      17.51893044
H       14.87767124      29.44511604      16.57087517
H       14.62824154      31.01200294      15.72564507
C       23.09369469      19.55872726      10.84596252
O       24.07308769      19.51009178      11.86716461
C       25.01229286      20.58362389      11.80762768
C       26.11872101      20.23546410      12.80056763
O       26.71983528      19.02268982      12.33270359
C       27.57283974      18.44818115      13.31629276
H       22.69723129      20.57846069      10.72714996
H       23.47843361      19.20257568       9.87385368
H       22.26869965      18.89622498      11.13907909
H       25.42193794      20.66839218      10.78598404
H       24.53689003      21.53856850      12.09386539
H       25.69294167      20.10425758      13.81066895
H       26.85802269      21.05270576      12.84149456
H       27.93539238      17.49105072      12.92145252
H       28.43793678      19.09440422      13.51974201
H       27.03775597      18.26375198      14.26526833
C       29.78107834      30.73273659      10.36125660
O       29.57635117      31.82512093       9.46277618
C       29.33926392      31.35653305       8.13384819
C       29.26577377      32.56776047       7.20724249
O       30.63233948      32.91086960       6.86042118
C       30.68667030      34.22694778       6.28477287
H       28.95063591      30.01391411      10.28981972
H       30.70783424      30.18480301      10.13609314
H       29.81488037      31.12905693      11.38258076
H       30.13282394      30.65989685       7.81644297
H       28.39141846      30.80402756       8.06886864
H       28.76321411      33.41180038       7.71070051
H       28.70886803      32.33253098       6.28267097
H       31.74144745      34.50465012       6.17368698
H       30.19124222      34.23220825       5.29946280
H       30.18824959      34.96160507       6.93024492
C       25.19393730      15.98505497      12.11389351
O       23.96727562      15.85315323      12.86129093
C       24.19707870      15.21416092      14.12686825
C       22.83699608      15.10218048      14.80777931
O       22.05234337      14.18388748      14.02736378
C       20.72143555      14.07176685      14.50762463
H       25.91637039      16.58850479      12.67947006
H       25.63638878      15.00411224      11.89112854
H       24.95673943      16.49577522      11.16864204
H       24.64703941      14.21802711      13.96538448
H       24.86184120      15.81229115      14.77785683
H       22.33653259      16.08706284      14.84285831
H       22.95563126      14.75061417      15.84563255
H       20.23627663      13.23229790      13.98959064
H       20.68489647      13.86115170      15.58973122
H       20.13036728      14.98780632      14.33991432
C       18.69525146       9.33463097      32.80632782
O       17.38296509       9.78461075      33.16156387
C       17.01393509       9.34113979      34.47313309
C       15.50872803       9.51750374      34.60440063
O       14.91573048       8.51403236      33.77618790
C       13.54179859       8.31691742      34.04009247
H       19.45155334       9.75472546      33.48519135
H       18.75087929       8.23408985      32.80121231
H       18.88363075       9.65022087      31.77339935
H       17.28793335       8.28058910      34.60194397
H       17.50818825       9.95304394      35.24934387
H       15.20162964      10.52273560      34.27297974
H       15.20313835       9.40918636      35.66031265
H       13.24842262       7.33529234      33.64837646
H       13.32807827       8.33999729      35.12443924
H       12.91627693       9.08543015      33.56047440
C       12.06879139      23.37241936      12.49386406
O       11.89788532      21.99887276      12.15831089
C       11.15158558      21.90121460      10.94666290
C       10.92107105      20.43247795      10.63046074
O        9.92700005      20.02064896      11.57646370
C        9.76262760      18.60888481      11.63779736
H       12.61571884      23.91807175      11.70660496
H       11.09134865      23.86808014      12.62039280
H       12.60972500      23.45617867      13.44812393
H       10.17993736      22.42089653      11.05469322
H       11.70063782      22.35827446      10.10273266
H       11.85043907      19.85599899      10.75852585
H       10.56808567      20.29249382       9.59244156
H        8.78562355      18.42342949      12.10788059
H        9.74433231      18.14630127      10.63084793
H       10.54320240      18.13264847      12.25498581
C        3.29759264       9.69654942       2.61637664
O        4.31365013      10.57536888       3.04461527
C        5.55913401      10.29388809       2.40041852
C        6.62562370      11.15998936       3.07451653
O        6.95888186      10.62331581       4.34176302
C        7.85456657      11.49556160       5.01689529
H        2.90259862       9.98410034       1.62813318
H        3.67422390       8.66308880       2.55323553
H        2.47631001       9.72019196       3.34647155
H        5.82012796       9.23054790       2.50655460
H        5.50445890      10.51996517       1.31988776
H        6.25407553      12.19329166       3.17958760
H        7.50933027      11.15112305       2.41146660
H        7.99797583      11.12174320       6.03943920
H        8.83340168      11.53489017       4.51303864
H        7.43994522      12.51582050       5.08038855
C       34.74260712      16.17185974      22.04407310
O       34.74638748      14.78528595      21.69634056
C       34.84082031      13.98583126      22.89443588
C       34.92329407      12.53810024      22.44511032
O       36.21932602      12.30676746      21.86023331
C       36.39957047      10.95544338      21.47285461
H       33.87046051      16.41707993      22.67590904
H       35.65211105      16.45864296      22.60224724
H       34.68365479      16.73415375      21.10017395
H       35.72549057      14.28122330      23.48657417
H       33.95804977      14.13757229      23.54057312
H       34.12954330      12.31507111      21.70597267
H       34.74888611      11.90102482      23.32981682
H       37.43798447      10.82385826      21.14355087
H       36.20905685      10.27527905      22.31892204
H       35.71555328      10.67793560      20.65380096
C       24.86167526      21.15285301       7.71211100
O       25.92873764      22.08743858       7.65195131
C       25.44403458      23.43766594       7.64957666
C       26.64332581      24.34185410       7.45249939
O       27.07304001      24.15620422       6.10151196
C       28.35068893      24.77011871       5.91118431
H       24.18637085      21.37828445       8.55801296
H       24.23199844      21.17462540       6.80480194
H       25.29882050      20.15301704       7.84910011
H       24.72899628      23.56852722       6.81824160
H       24.91536522      23.67638588       8.58896255
H       27.45059395      24.10044098       8.16411781
H       26.33587837      25.38807869       7.63130760
H       28.61662102      24.69373703       4.84958506
H       28.31730461      25.82833862       6.19971514
H       29.11849785      24.26121902       6.50727177
C       15.74742794       3.57061815       1.95345032
O       14.35278130       3.65326881       2.19301534
C       13.99838543       2.81261206       3.29758644
C       12.49828911       2.99028516       3.51233816
O       11.83504868       2.40066409       2.39872622
C       10.44604969       2.70952868       2.36782479
H       16.32033730       3.85568094       2.85349107
H       16.04783058       2.55556321       1.64341998
H       15.97887325       4.27026510       1.13925183
H       14.25061417       1.76543283       3.06423450
H       14.52962399       3.12053537       4.21396208
H       12.25402927       4.06300163       3.60171652
H       12.20426750       2.51185584       4.46095133
H       10.03933716       2.42187381       1.38551056
H        9.88654137       2.16086459       3.14262414
H       10.25548172       3.77867937       2.51782537
C       23.14609146      34.31301880      29.80467987
O       23.36091995      33.83763123      31.12493134
C       22.97776413      34.80410004      32.11213684
C       23.37091064      34.30621338      33.50124741
O       24.66172218      34.82096863      33.84239197
C       25.07747841      34.46168900      35.14170837
H       22.07380486      34.49082184      29.63303947
H       23.71702194      35.23251343      29.62222099
H       23.46221733      33.52460480      29.10814857
H       23.48283577      35.76549530      31.92673683
H       21.88411331      34.95571136      32.06669235
H       23.39875603      33.19966125      33.49496841
H       22.62903595      34.61414337      34.25648117
H       26.07635880      34.89372253      35.31057358
H       24.39022446      34.85600662      35.91872025
H       25.13180923      33.36458969      35.26734924
C       16.58124733      33.31473541      15.61013317
O       16.73465347      31.93885994      15.26058865
C       17.86139297      31.38342094      15.97008133
C       17.97601128      29.92903900      15.56210232
O       18.65992737      29.83209419      14.27721596
C       19.15906143      28.51166725      14.05657864
H       16.43049049      33.45800018      16.69525528
H       17.47106743      33.89055634      15.30310345
H       15.68025494      33.68956757      15.10158348
H       18.78541756      31.93463326      15.71311760
H       17.71196365      31.49057770      17.06243706
H       16.98273277      29.45757103      15.47469616
H       18.53647041      29.39993095      16.35292816
H       19.67832947      28.47709084      13.08599472
H       19.84315109      28.21313095      14.86739826
H       18.32555389      27.78141403      14.02492809
C       23.27439117      18.62768555       4.49993992
O       21.85997963      18.41816521       4.57757139
C       21.59831810      17.44794273       5.60452127
C       20.08327675      17.40097618       5.74746704
O       19.57122803      17.02694511       4.46005249
C       18.16319466      16.85420418       4.39277506
H       23.69148445      18.91084671       5.47637939
H       23.79634476      17.71959877       4.15495157
H       23.44018173      19.43928909       3.77989912
H       21.99571991      16.45844841       5.31619263
H       22.04356575      17.74718857       6.57263327
H       19.69365883      18.38100433       6.06782484
H       19.79833794      16.66369629       6.51728392
H       17.93826294      16.07237625       3.65036917
H       17.75223732      16.52034569       5.36099577
H       17.65408897      17.79044533       4.11454153
C       30.53114510       4.57919407      25.19062996
O       31.67183304       4.14487171      25.89701080
C       32.33897781       5.21921778      26.54360199
C       33.43348312       4.60916138      27.41689491
O       34.38345718       3.94246745      26.56949997
C       35.37620163       3.26670909      27.28943443
H       29.86713791       5.18080044      25.82533455
H       30.79669762       5.16757393      24.29511452
H       29.97176361       3.69126582      24.87304878
H       32.79678345       5.89888000      25.79932213
H       31.65425301       5.80425644      27.18388939
H       32.98955536       3.89607573      28.12731361
H       33.93255997       5.41180515      27.99075127
H       36.13176346       2.89346743      26.57927704
H       35.88569260       3.92343068      28.02236366
H       34.97676468       2.39646935      27.84607315
C       24.94792557      11.20740986      18.04717064
O       25.07999802      12.59030151      18.38431358
C       24.20309639      12.95901680      19.49271774
C       24.20764542      14.45644093      19.61690331
O       23.24583817      14.92451096      18.64130211
C       23.26893234      16.34713936      18.64002037
H       25.16260338      10.56934071      18.92161369
H       23.92037010      10.97479725      17.72315788
H       25.63728523      10.97700119      17.22406769
H       23.19066620      12.59814835      19.26279259
H       24.53642273      12.48962688      20.43349648
H       25.20209312      14.88162804      19.38972664
H       23.92375565      14.79405403      20.63121033
H       22.54074478      16.67370033      17.87924385
H       22.96399498      16.76018906      19.61626053
H       24.27531242      16.72987556      18.40624428
C       20.64166451      36.89879227       9.22745991
O       19.50133514      37.29923630      10.01820850
C       19.14467621      36.24200439      10.93898773
C       17.90705299      36.68653107      11.69812775
O       16.80997658      36.78044891      10.77882004
C       15.53403473      36.53558350      11.36120415
H       21.53062439      36.77791977       9.87623119
H       20.46798706      35.93336105       8.72603798
H       20.83391190      37.67486954       8.47504711
H       18.95273972      35.30797958      10.38649464
H       19.95091248      36.06169891      11.66769123
H       18.03897858      37.65206146      12.21855831
H       17.70521355      35.92423630      12.47317314
H       14.89720535      36.01411057      10.63369942
H       15.60848904      35.87395859      12.24204254
H       15.03183174      37.45887756      11.68148994
C       10.20150852      25.26409912      15.68447781
O       10.88602734      25.87584114      16.78043556
C       10.04543686      25.98530769      17.95313454
C       10.82830334      26.65648460      19.07414246
O       11.16280651      27.96245003      18.57779121
C       11.84899807      28.74107170      19.56443977
H        9.59595585      24.40379906      16.02614975
H        9.52760887      25.98517418      15.19448757
H       10.93190670      24.88407707      14.95715809
H        9.13440228      26.56637955      17.71350670
H        9.70737553      24.97916603      18.26538658
H       11.75075150      26.09514236      19.31987000
H       10.22098923      26.72123909      20.00086594
H       12.33853531      29.57318306      19.03262711
H       11.14809036      29.12574005      20.32957077
H       12.61369514      28.13385010      20.09257698
C       19.96751022      25.92547035      10.28859329
O       19.70029640      26.32513046       8.94286060
C       19.74661446      27.75463867       8.85203171
C       19.87369537      28.13110352       7.37889099
O       18.57374763      28.07978630       6.75287962
C       18.68795395      28.11120415       5.32476473
H       20.94657707      26.28899002      10.65143490
H       19.19672394      26.30958176      10.98160744
H       19.92207718      24.82633018      10.30888367
H       18.83996010      28.17881966       9.32253456
H       20.61225510      28.14987183       9.40931988
H       20.56430626      27.44153786       6.86459684
H       20.27715111      29.15620995       7.32358789
H       17.67226982      28.23347282       4.92414427
H       19.33561516      28.93945122       5.00885916
H       19.08835602      27.16191483       4.94081450
C        3.72373462      25.96254158       5.34533024
O        4.47139025      25.68587303       4.18948460
C        3.93774986      24.63650322       3.37393522
C        4.83989048      24.44356155       2.14670992
O        6.13130665      24.03928566       2.58468699
C        6.96735811      23.72437859       1.46807587
H        2.72424507      26.36900711       5.09128571
H        3.57481575      25.06151581       5.96979809
H        4.27876902      26.69465637       5.95188284
H        3.87704587      23.70523643       3.95298624
H        2.92009354      24.90188789       3.02930403
H        4.91163254      25.39715576       1.58639526
H        4.39978266      23.67529488       1.48473036
H        7.92089844      23.33827400       1.84824455
H        6.50606966      22.95092201       0.83493721
H        7.14922667      24.62137413       0.84871590
C       32.92052460       8.47563839      19.21811676
O       31.94230843       8.90440750      20.16938210
C       32.17839432       8.35889244      21.47697639
C       31.00423241       8.78018475      22.36758423
O       29.91672325       7.87489319      22.14671135
C       28.83573914       8.28592396      22.97082329
H       33.92668533       8.79555321      19.52422905
H       32.91060638       7.37894011      19.11627007
H       32.65489578       8.90768623      18.24528503
H       32.25915146       7.25939131      21.41902542
H       33.10777283       8.76106071      21.91840363
H       30.66048431       9.78757668      22.06672859
H       31.27339172       8.80272484      23.43862724
H       28.04180336       7.52910042      22.91239166
H       29.12412262       8.37572384      24.03093338
H       28.41626930       9.25402164      22.64536476
C       21.73892403      24.20459938       7.52926731
O       21.49044609      23.39820480       6.37620354
C       21.21484756      24.26816559       5.27033186
C       20.89291000      23.40404892       4.04345036
O       19.68502808      22.70595360       4.34955215
C       19.24612808      21.92504501       3.24969554
H       22.60343742      24.87275124       7.37108660
H       20.86997414      24.82810783       7.79364347
H       21.94640732      23.54056931       8.38168049
H       20.34413910      24.90192223       5.51826000
H       22.08834839      24.90406036       5.06117868
H       21.70464134      22.69314384       3.81964421
H       20.74222374      24.04835320       3.15836120
H       18.24160767      21.57474899       3.51044059
H       19.17960739      22.53069878       2.32959247
H       19.90664864      21.06091499       3.08323693
C        8.67160511       5.99763680      19.69121933
O        8.55848122       5.44143772      18.38859749
C        9.27917862       4.21372175      18.26696014
C        8.87428665       3.57566500      16.94039917
O        9.33715057       4.44353819      15.88765430
C        8.92942619       3.97771287      14.61073112
H        8.38329983       5.29957008      20.49369812
H        9.69083023       6.36619282      19.90090370
H        7.96342516       6.83775902      19.74710464
H       10.36427021       4.41857910      18.27990723
H        9.03206444       3.54527640      19.10891151
H        7.77587080       3.48528004      16.88759804
H        9.32792187       2.57568622      16.82044411
H        9.27669334       4.69497776      13.86073780
H        9.34767818       2.98275423      14.39856148
H        7.82982731       3.91252351      14.56394196
C        2.88658381       3.86098289      20.04638100
O        2.86095023       5.08920670      20.74448776
C        3.89775062       5.97906446      20.32358742
C        3.94992876       7.09861708      21.37807846
O        4.90412664       6.74505472      22.37827110
C        4.58407354       7.12993717      23.70722580
H        2.87582159       4.00516844      18.95007706
H        3.76648068       3.26373124      20.32886887
H        1.98546576       3.30908442      20.33694077
H        4.86964321       5.46687841      20.27380562
H        3.67886782       6.39446354      19.32049751
H        2.94197202       7.23772717      21.81628990
H        4.25712061       8.04575825      20.89281273
H        5.12384367       6.45326090      24.38952065
H        4.86914825       8.17442036      23.91900635
H        3.50431800       7.04382133      23.92119217
C       14.82170391      11.46272469      31.11370087
O       14.74858284      11.52114105      29.69312477
C       15.20267105      10.28347492      29.08942413
C       15.48671055      10.52697372      27.60490608
O       16.85244179      10.95788574      27.42956352
C       17.56088448      10.31699562      26.36566544
H       14.16593647      10.66869450      31.51283455
H       15.84464455      11.27753830      31.47947311
H       14.45836735      12.41741467      31.52350044
H       16.11821938       9.94337654      29.59357643
H       14.41296864       9.52060699      29.19308090
H       14.82589531      11.32825184      27.21892357
H       15.26535320       9.62189484      27.00832367
H       18.61766624      10.60000038      26.47327614
H       17.48863220       9.21719360      26.39305115
H       17.20451736      10.65501595      25.37519073
C       15.35540009      32.62348938       3.65415430
O       14.27980518      33.39648819       4.17118454
C       14.04185295      34.53971863       3.34691834
C       12.82499981      35.26782608       3.93463564
O       13.28205490      36.08045197       5.02200270
C       12.30439472      36.42350388       5.99424839
H       15.14277554      32.29370117       2.62013006
H       16.28938103      33.20762634       3.66532636
H       15.45054245      31.75451088       4.31574774
H       14.92535877      35.19728470       3.37818170
H       13.85243416      34.20989609       2.30674720
H       12.08384895      34.53431320       4.28163767
H       12.34251785      35.89376450       3.16368747
H       12.80381870      36.74581528       6.91763735
H       11.65684509      37.24052811       5.63899755
H       11.66281128      35.56647491       6.24397659
C       14.99900627      17.05887604      19.61998177
O       14.72453594      16.05851364      18.64579010
C       15.94070435      15.62328625      17.99968147
C       15.71193695      14.30880070      17.26948166
O       14.97293663      14.56701374      16.06903648
C       14.78988171      13.34926128      15.35507107
H       15.68987179      16.69742584      20.40746498
H       15.43926525      17.96814156      19.17021370
H       14.05861473      17.32402611      20.12979317
H       16.24671173      16.39275360      17.26897430
H       16.74025536      15.51419926      18.75564003
H       15.16369247      13.60797691      17.92683983
H       16.69087982      13.85224533      17.02204514
H       14.18687344      13.55673599      14.45695114
H       15.74564362      12.89241123      15.04900742
H       14.22435570      12.61800671      15.95733261
C       28.08518791      17.69700813      18.42934990
O       29.17785072      17.96168327      19.30777550
C       30.22228241      16.98182869      19.26489639
C       30.88305283      16.97851944      20.64214134
O       30.69071007      15.69424438      21.24666786
C       30.79386330      15.74817753      22.67235756
H       28.29866409      18.00757599      17.39389801
H       27.80996323      16.62943840      18.43142509
H       27.21949577      18.24976730      18.81881142
H       29.82567978      15.98169422      19.02775192
H       30.94991875      17.24216080      18.47618484
H       30.39933586      17.74847031      21.27368927
H       31.96163368      17.20298767      20.58177948
H       30.12818336      14.97554398      23.09248924
H       31.83422852      15.61244297      23.01575470
H       30.42436409      16.69912148      23.09700966
C        5.92424583      35.39456940       5.34993124
O        6.59841633      34.56665421       4.42862844
C        8.01935005      34.56749344       4.60112000
C        8.57171917      33.49317551       3.65820646
O        8.58466530      34.00438690       2.31235790
C        8.47710323      32.99930191       1.31411791
H        6.34012556      35.31445694       6.37319136
H        5.94890690      36.45884705       5.05786324
H        4.88044119      35.05895615       5.41329098
H        8.43726063      35.55624008       4.35057974
H        8.26916409      34.33967209       5.65139818
H        7.92919970      32.60474396       3.70451450
H        9.58633518      33.20986938       3.97311258
H        8.62292957      33.47679520       0.33835766
H        9.22976780      32.21260071       1.45973802
H        7.47450829      32.54455185       1.32552528
C       31.63161087      25.94152832      16.39068413
O       31.05340195      26.21817017      15.12267780
C       30.23341751      27.38409042      15.19688892
C       29.70365143      27.65500259      13.79048729
O       29.10057449      26.47051430      13.27762890
C       28.35155678      26.68603516      12.09770107
H       32.23605347      26.78803635      16.76265907
H       30.85361481      25.72489357      17.14392471
H       32.24856949      25.03995132      16.28525543
H       29.39484024      27.23088264      15.89970112
H       30.82560158      28.23894691      15.55585575
H       30.52920151      27.96187782      13.12091255
H       28.96910858      28.47950172      13.85487175
H       27.76629639      25.77504539      11.90736103
H       27.64790154      27.52445412      12.23756886
H       28.99208069      26.88656807      11.22736740
C        6.87803888      10.15546131       9.17103386
O        5.94850826       9.11829185       8.88321400
C        4.64130974       9.66636753       8.90819740
C        3.62132120       8.52562237       8.92019463
O        3.27246785       8.31510639      10.29892731
C        2.32410455       7.28820658      10.46936512
H        6.92719746      10.86627579       8.32642365
H        6.58637524      10.70759487      10.07769203
H        7.86213875       9.70763588       9.34415531
H        4.50052643      10.30594444       9.80218315
H        4.47806215      10.28893471       8.01087475
H        4.05280638       7.61014891       8.47929955
H        2.72163296       8.81010628       8.34910297
H        2.37120342       6.96517515      11.51924133
H        1.30191934       7.64606857      10.26060677
H        2.53464365       6.43095875       9.80870438
C       31.44329834      12.37724495      19.77849579
O       30.25057220      12.00271797      20.48694801
C       29.18960762      12.94247055      20.23291397
C       27.92560005      12.41634369      20.90183449
O       28.23158455      12.16725159      22.28427887
C       27.01747322      11.88722420      23.01744461
H       31.23044014      12.47439003      18.69990540
H       31.83142471      13.33455181      20.15146065
H       32.16082001      11.56433773      19.94525528
H       29.43820572      13.93750668      20.63596535
H       29.00723076      13.02630424      19.14268494
H       27.58044815      11.49226379      20.41322708
H       27.13442230      13.17425919      20.82128906
H       27.26620483      11.40368080      23.97404099
H       26.43338203      12.80564499      23.19025993
H       26.38247681      11.18341160      22.45315742
C       23.15597153      29.40863037       4.95851803
O       24.22762299      29.33359337       4.02806664
C       24.49615288      28.00683022       3.56821775
C       25.79689217      28.05716705       2.77015972
O       26.82866859      28.29658699       3.71709824
C       28.05058670      28.65458679       3.08353877
H       22.17906189      29.48733330       4.45159292
H       23.11498260      28.52191544       5.61221504
H       23.28495979      30.29267693       5.59528255
H       24.60741043      27.32524872       4.42687893
H       23.67410278      27.63694763       2.92797709
H       25.73229408      28.86961555       2.02814269
H       25.96393776      27.10080338       2.24026561
H       28.80766869      28.69793892       3.87338495
H       28.35783958      27.90568733       2.33479595
H       27.95335197      29.63612747       2.58898234
C       25.92849731       1.78357363      10.81588078
O       25.03457642       2.39246154      11.77001476
C       24.55244827       1.44289732      12.71480560
C       23.61530113       2.20164394      13.65746498
O       22.47931290       2.61491728      12.87572479
C       21.74188423       3.72874117      13.42644215
H       26.76421547       1.29891670      11.34118271
H       25.41497421       1.03590810      10.19210625
H       26.33297157       2.59413457      10.19945717
H       24.04371834       0.61325747      12.18568897
H       25.37132454       1.00538230      13.31090164
H       24.12721825       3.08513284      14.06825829
H       23.28112221       1.56678891      14.49528122
H       21.01823425       4.03913736      12.66128635
H       21.17284775       3.42937183      14.31921387
H       22.41237640       4.56390429      13.67539883
C       15.75519276      31.03764725      33.68986893
O       16.79263115      30.07819176      33.52415466
C       16.80612373      29.36985970      32.26995468
C       17.35476494      27.96555901      32.49954224
O       16.23742485      27.09137726      32.73779678
C       16.70812607      25.76780701      32.90492630
H       15.82641792      31.83693314      32.93468094
H       14.76623535      30.56674004      33.60387802
H       15.83193111      31.45137596      34.70336914
H       15.79561520      29.29118347      31.83232689
H       17.45213699      29.90450096      31.55705452
H       18.03146935      27.95702171      33.36729050
H       17.90628624      27.60933113      31.61043549
H       15.82691669      25.13438225      33.06047058
H       17.24320221      25.39461327      32.01310730
H       17.37255096      25.68111038      33.78252411
C       35.41971970      24.85514641      11.83382225
O       34.10614014      24.71576691      11.34162045
C       33.13224030      25.01194382      12.35551357
C       31.75079346      24.82611084      11.74887466
O       31.66223145      23.47804642      11.28957176
C       30.40055847      23.16998672      10.71799946
H       35.61237335      25.86625481      12.24041557
H       35.62443924      24.12483406      12.63932419
H       36.12135315      24.64301491      11.00959301
H       33.26541519      24.34403419      13.22614098
H       33.23306274      26.05011177      12.72209358
H       31.60828400      25.51540947      10.89273453
H       30.98823547      25.06129456      12.51062107
H       30.48065186      22.21195793      10.18558598
H       29.62995529      23.07016945      11.49926376
H       30.07924080      23.93910980       9.99409103
C       29.95842743       9.65518475       3.20156193
O       31.05202484      10.50829506       2.88747811
C       31.55897522      10.26050949       1.55288434
C       32.84854507      11.04334831       1.34657192
O       33.92794800      10.31122971       1.89660847
C       35.14605331      10.98616123       1.64490414
H       29.04284477       9.98520279       2.67174363
H       30.16067123       8.61084175       2.90642738
H       29.77978134       9.69753075       4.28531361
H       31.73823357       9.18666649       1.39004076
H       30.80411339      10.60076046       0.82689834
H       32.77322388      12.05754662       1.77384782
H       32.97282028      11.14518166       0.25036177
H       35.93202209      10.46039009       2.20500159
H       35.39408875      10.99855423       0.56642401
H       35.09835434      12.02681828       1.99899101
C       28.23898315      20.95664787       5.46717119
O       29.60058212      21.27033806       5.74172449
C       30.31101036      20.14436340       6.25101614
C       31.68693733      20.63026428       6.68130350
O       31.51844025      21.52778816       7.78363419
C       32.77458954      21.84726143       8.35235405
H       28.14677048      20.18208122       4.68544769
H       27.70680618      20.60314751       6.36410236
H       27.73869705      21.87858772       5.14476252
H       29.77107048      19.71456909       7.11359072
H       30.40516663      19.36645699       5.46964407
H       32.19097137      21.15081787       5.84707022
H       32.30874252      19.76777649       6.97324228
H       32.63097000      22.57248688       9.16164303
H       33.23779297      20.94817352       8.79704189
H       33.46908951      22.26317596       7.59754181
C       17.25877190      17.96453476      25.46393585
O       18.23855782      18.28070641      26.44779015
C       17.66072845      18.38339233      27.76537132
C       18.74187088      18.82051849      28.74427223
O       18.93974304      20.22704697      28.51798630
C       19.95360947      20.76728630      29.36601830
H       16.76482010      16.99942780      25.69705772
H       16.46809578      18.73312569      25.44562340
H       17.72701645      17.88395691      24.47204781
H       16.81459618      19.09723091      27.76503944
H       17.24689674      17.40501022      28.06660271
H       19.67586136      18.25574875      28.57246017
H       18.39851952      18.65237045      29.78363800
H       20.08680344      21.81921387      29.07927132
H       19.67522812      20.70702744      30.43283653
H       20.91318321      20.24268723      29.23567963
C        2.46316171      29.94347572      33.45683670
O        3.06296659      30.62239265      32.38052368
C        4.29735661      30.04183006      31.94144058
C        4.94133806      31.00529480      30.94663239
O        6.04444218      31.58021355      31.64503098
C        6.69008827      32.55051804      30.83377457
H        1.90934944      29.05490875      33.11117935
H        3.20973158      29.62697983      34.20534515
H        1.75039756      30.62873268      33.93047714
H        4.96898317      29.92447662      32.80652618
H        4.12416697      29.05891991      31.47784042
H        4.17923880      31.75626945      30.66981888
H        5.25469875      30.50193214      30.01450348
H        7.53338528      32.93294525      31.42363930
H        7.08055544      32.10902786      29.90132713
H        5.99301577      33.36996460      30.59378242
C       25.56929588      20.48633766      20.18320084
O       25.20463371      21.85251617      20.32228661
C       24.82378960      22.23002434      21.64530945
C       24.09653473      23.56756592      21.52757645
O       22.73259163      23.26190948      21.16632271
C       22.05261993      24.47855568      20.88918686
H       26.58330536      20.29360199      20.57258987
H       24.86845589      19.81930161      20.71349716
H       25.53851891      20.23570824      19.10867119
H       24.14233017      21.48001862      22.08975983
H       25.70312500      22.34399605      22.30429268
H       24.56130219      24.16915512      20.72240448
H       24.11581421      24.15573883      22.46648216
H       20.97915840      24.26429939      20.75889397
H       22.16081429      25.20365524      21.71698380
H       22.45051956      24.94159317      19.96522522
C        9.75271893       3.75095844      31.18300056
O        9.19285107       3.84757829      29.88524055
C       10.12512684       4.39570951      28.93653870
C        9.57399750       4.24414349      27.51847267
O        8.60834217       5.29286242      27.35234833
C        7.88087797       5.16128731      26.12911034
H       10.78547382       3.36965084      31.13298035
H        9.76977253       4.71555805      31.72017479
H        9.14538479       3.05485797      31.78343391
H       10.29881001       5.46014452      29.17292976
H       11.08523560       3.85913181      28.99340630
H        9.11116600       3.25615287      27.36323929
H       10.40055084       4.34524918      26.78983116
H        7.09076691       5.92453718      26.13082504
H        8.51549625       5.30982780      25.24036980
H        7.41187668       4.16591358      26.04116821
C       27.04503822      12.29620361       4.41355753
O       27.09355927      13.43071842       5.27881575
C       26.49895287      14.56834602       4.62245464
C       26.67068481      15.74042130       5.57315111
O       28.06744766      16.01937866       5.67458963
C       28.36699104      16.87135506       6.77563524
H       26.01385498      12.16897202       4.02409792
H       27.73283577      12.41572952       3.55443501
H       27.34376335      11.41936016       5.01402283
H       26.98353958      14.75875473       3.64985275
H       25.42655182      14.37789536       4.44060469
H       26.23614120      15.52788258       6.56769037
H       26.12654877      16.60710144       5.16080236
H       29.46299553      16.89821625       6.88136768
H       27.97242355      17.88949203       6.61391354
H       27.92580795      16.49881554       7.71920204
C        8.54055882      20.30839920      25.56332397
O        8.31141472      20.01181793      24.18415260
C        8.13676739      18.61693573      23.90470695
C        7.80812025      18.52285385      22.42545700
O        8.88828468      19.15024185      21.69966316
C        8.63249207      19.07374382      20.29150963
H        7.74019241      19.91370392      26.21257782
H        9.49367619      19.87841988      25.91594315
H        8.56666946      21.40557671      25.66896629
H        9.04097939      18.04908562      24.17329979
H        7.29418135      18.20659256      24.48881149
H        6.85922575      19.04637909      22.20410728
H        7.68273497      17.46859360      22.10691833
H        9.40248299      19.64769554      19.76019859
H        8.63877392      18.03042412      19.92354965
H        7.63581705      19.48461533      20.05493164
C        6.24895191      19.66990471      30.25487900
O        5.70074844      20.15671730      31.49144554
C        5.07543087      19.05961800      32.17829132
C        4.51435614      19.57542229      33.50872040
O        3.30533290      20.28225327      33.21775818
C        2.81886077      21.07668114      34.29100800
H        6.86732388      18.76867104      30.40048981
H        5.44808435      19.40690804      29.54478836
H        6.88274908      20.44821930      29.81379128
H        4.25366020      18.64502716      31.56683731
H        5.80611944      18.24820328      32.36563492
H        5.22347641      20.22607040      34.04655075
H        4.28209019      18.71640205      34.16354370
H        2.02046847      21.70993614      33.88520432
H        2.39669967      20.46049690      35.09952927
H        3.61315250      21.70631027      34.71931839
C        5.66166496      26.40918159      35.56257629
O        7.04036188      26.69665909      35.45159149
C        7.72600222      25.83822060      34.53659821
C        9.22084904      26.02082062      34.85054398
O        9.51194763      25.32919693      36.05685043
C       10.72830296      25.78602028      36.62397385
H        5.12585068      26.66881561      34.63349152
H        5.50103045      25.34311295      35.78066635
H        5.25078106      26.99323082      36.39665604
H        7.43860435      24.78546143      34.68368530
H        7.51934767      26.09420395      33.48000336
H        9.42995834      27.09897041      34.96154404
H        9.81125355      25.62439728      34.00202942
H       10.89091969      25.22716141      37.55596542
H       11.57980537      25.64059448      35.93991852
H       10.68261909      26.86441040      36.85296631
C       12.89927483      22.10249138       7.59469986
O       13.40565872      21.10617638       8.47230339
C       14.49694252      21.63964272       9.23101139
C       14.97375584      20.57094002      10.20151806
O       15.11137104      19.34015083       9.47749138
C       15.87687206      18.39387321      10.21467590
H       12.61664772      23.01196098       8.14963055
H       13.63678741      22.37920952       6.82334232
H       11.99786377      21.69769096       7.11262941
H       15.31517410      21.92747688       8.54675007
H       14.18313980      22.53497887       9.80602741
H       14.26075649      20.46065903      11.03940773
H       15.93623638      20.90452003      10.63170052
H       15.98298264      17.49233437       9.59327316
H       16.86825562      18.80045891      10.46731377
H       15.35733128      18.10098457      11.14696503
C       12.82305717       1.85586679      20.28920746
O       14.17971039       2.22481227      20.11707497
C       14.85352612       1.53440213      19.05110168
C       16.34300232       1.85747135      19.15108109
O       16.84347534       1.24531448      20.34441757
C       18.27370644       1.18891728      20.32960129
H       12.21941185       2.12877679      19.40722847
H       12.72324562       0.77258146      20.47095680
H       12.42705250       2.39914465      21.15141869
H       14.69907475       0.44779286      19.11205864
H       14.46135712       1.87983274      18.07759666
H       16.48766518       2.95032310      19.18251419
H       16.82636642       1.46048081      18.23810768
H       18.61232567       0.86257154      21.32337379
H       18.62553978       0.44164091      19.59726143
H       18.69081879       2.17656136      20.08185577
C        5.99513006      12.83869457      12.33484554
O        5.80412769      11.43982792      12.17385864
C        6.90893984      10.71733379      12.74159050
C        6.52533388       9.24667358      12.71778107
O        7.11019421       8.59885406      11.57393456
C        6.52553225       7.33379984      11.30425930
H        5.95911121      13.14049149      13.39552784
H        6.95950651      13.16781044      11.92324829
H        5.17402649      13.34919739      11.81431484
H        7.83447027      10.89204979      12.16268921
H        7.08883142      11.08092976      13.76833248
H        5.42738676       9.15389347      12.67291164
H        6.87171316       8.76634121      13.64437485
H        7.02395010       6.89443541      10.43122196
H        6.62823153       6.65486336      12.16514492
H        5.45790958       7.44937992      11.06750107
C       21.73760033      16.47480011      30.07266617
O       21.73279953      17.03503227      31.38113594
C       22.72968292      18.05238914      31.55399704
C       23.04056549      18.23260307      33.04421997
O       24.13764000      17.36716843      33.37147522
C       24.37496185      17.31546783      34.76817703
H       21.72680473      17.24872589      29.28606987
H       22.59909248      15.80797195      29.90925026
H       20.82348633      15.86779404      29.98834610
H       23.64816475      17.76983643      31.01421165
H       22.36250114      19.00816345      31.13763618
H       22.15192032      17.99478722      33.65332031
H       23.32743835      19.28408623      33.24913025
H       25.28259659      16.72507477      34.94624710
H       24.51323128      18.31933975      35.20261383
H       23.53847313      16.82854462      35.29777908
C        5.82012606      23.08459854      28.26314163
O        6.93077469      23.67649841      27.61591148
C        7.78639126      24.38904381      28.56049919
C        8.85846233      25.08215714      27.75174713
O        8.20773220      25.84218597      26.72826767
C        9.05451775      26.93837166      26.34194565
H        6.12699842      22.32955551      29.00483513
H        5.19331074      23.83466911      28.77656937
H        5.20817375      22.58940125      27.49674225
H        7.16361475      25.11010742      29.12551498
H        8.23912048      23.68089294      29.27315140
H        9.57611561      24.36393929      27.30826378
H        9.42239952      25.73218155      28.44692421
H        8.48723698      27.51196861      25.58965874
H        9.28805923      27.58550262      27.19963074
H        9.99810505      26.58484268      25.90000534
C       27.18545151      23.28649712      18.45511818
O       26.45565605      22.45638084      17.55508041
C       25.21058846      23.07605553      17.22152901
C       24.36673546      22.07129478      16.43068123
O       23.67811203      21.25864792      17.39602089
C       23.37462044      19.96059227      16.91193581
H       27.45134544      24.24570656      17.97360992
H       26.58766937      23.50525665      19.36071777
H       28.09446907      22.75336266      18.76681709
H       24.67414474      23.39428520      18.13724899
H       25.39498711      23.96668434      16.59408951
H       25.00682831      21.45661926      15.77647305
H       23.63251305      22.59585190      15.78870964
H       22.88155556      19.43290710      17.74383545
H       22.66827774      19.98819351      16.06143570
H       24.26379204      19.38755989      16.60334206
C       12.50134087      20.52201462      36.18326569
O       11.69190502      20.77903366      35.05123138
C       10.68968964      21.76270676      35.35301590
C        9.89556122      22.03230858      34.07983398
O        9.50014019      20.78483009      33.51865005
C        8.50759983      20.98027039      32.52558899
H       13.11115456      21.40548515      36.45016098
H       11.88527489      20.25600243      37.06093597
H       13.14737701      19.66514587      35.93431854
H       10.01956272      21.39743996      36.15019226
H       11.15539837      22.69402695      35.71610641
H       10.48630047      22.61168480      33.34432983
H        9.01095009      22.63868523      34.35411453
H        8.10305977      19.99780655      32.24265289
H        7.65157461      21.55934525      32.90732574
H        8.90922546      21.47754478      31.62584305
C       10.38046551      27.71625328      22.92477226
O        9.86560249      26.38583755      23.01828384
C       10.93521500      25.53842735      23.47075462
C       10.31714153      24.21802902      23.86153030
O        9.78180885      23.58022118      22.67523575
C        9.25134182      22.29950142      23.02803612
H       10.82507992      28.05417252      23.87546349
H       11.17339420      27.77359200      22.14876938
H        9.53445148      28.36113358      22.63658524
H       11.66626358      25.40952492      22.63817596
H       11.46663570      25.98724365      24.33659935
H        9.51909924      24.37359428      24.61412430
H       11.08469296      23.57768822      24.33833122
H        8.86496067      21.79001617      22.13264084
H       10.00760174      21.64642906      23.49476433
H        8.41219521      22.40914345      23.73579788
C       23.74449539      10.97150326       1.11384940
O       24.00653267      11.17131233       2.52126765
C       22.99345016      10.62801361       3.39932394
C       23.43999863      10.88803101       4.83148575
O       23.32755280      12.31185341       5.04686499
C       23.81047440      12.76973724       6.31490231
H       23.55730247       9.90878582       0.89996403
H       22.85016823      11.54553604       0.82563502
H       24.62590218      11.31208801       0.55738074
H       22.03621101      11.13196087       3.20612502
H       22.84712791       9.55779171       3.20545077
H       24.48001099      10.57139778       5.01007891
H       22.78807449      10.34787560       5.53575659
H       23.73410416      13.86531162       6.28820276
H       23.20718384      12.39823341       7.16099024
H       24.86161995      12.48233891       6.47925901
C       22.62126350      29.96303558      14.82769203
O       23.35826111      30.88347244      15.62334824
C       23.12248993      32.24693680      15.30161476
C       23.68995285      33.09392929      16.44598389
O       25.05078316      32.73395157      16.70831108
C       25.43822670      33.01531601      18.04498672
H       21.58570480      30.30755806      14.65217018
H       23.09882545      29.81663513      13.83895779
H       22.57584381      29.01054001      15.37820339
H       23.56575966      32.48480988      14.31201649
H       22.03403664      32.45102692      15.25895500
H       23.05630112      32.95981598      17.33890915
H       23.64129257      34.16170502      16.14657784
H       26.47305679      32.67118073      18.19020462
H       25.37215233      34.09697342      18.27824211
H       24.78756905      32.48637772      18.76699638
C       14.80057144       8.72978210      22.61996460
O       15.48779583       7.64697027      21.99857330
C       14.74828911       6.42481804      22.02957344
C       15.71130943       5.30564022      21.62137032
O       16.79939079       5.29861212      22.54787254
C       17.43063545       4.04074335      22.76135826
H       13.89186192       8.98900986      22.04462433
H       14.46614170       8.49143410      23.64437866
H       15.48369598       9.58887291      22.65806580
H       14.34811115       6.25214958      23.04574203
H       13.89102840       6.46796227      21.32974815
H       16.08082008       5.47742462      20.58978462
H       15.16900349       4.34308386      21.60326004
H       17.79068756       4.00130081      23.80018616
H       16.72300720       3.20549035      22.60782242
H       18.28058243       3.88744378      22.06881523
C       15.49199677      18.00236130      31.10749054
O       14.53712368      18.79067039      31.83143044
C       13.88056469      19.67519760      30.89328194
C       13.09712505      20.73839378      31.65008926
O       14.04183865      21.72916412      32.07946014
C       13.41203022      22.88155556      32.64179611
H       15.00684547      17.47112083      30.26696777
H       16.29920769      18.63141441      30.69663048
H       15.88382816      17.22782898      31.78496933
H       14.61347961      20.15608025      30.22676849
H       13.19656658      19.08214760      30.24979591
H       12.52842617      20.34839058      32.51622391
H       12.35779095      21.18512917      30.95326424
H       14.15798378      23.68438339      32.70616150
H       12.58505630      23.21914291      31.99240112
H       12.98993206      22.67818451      33.64089203
C       16.54714966      25.66898727      11.09245777
O       16.87555313      27.02846336      10.76161766
C       16.13657188      27.95620346      11.56883144
C       16.17275429      29.33721542      10.92569065
O       15.38254261      29.22622681       9.73232079
C       15.34930229      30.46021271       9.00006676
H       16.71439171      25.46041298      12.16287518
H       15.47738361      25.47461510      10.88129330
H       17.14095688      24.99044228      10.45495701
H       15.07888889      27.64081383      11.61398029
H       16.51399803      28.01583481      12.60771942
H       17.21146584      29.64570427      10.69227791
H       15.74129581      30.07054901      11.63672638
H       14.53569412      30.37629509       8.26238251
H       15.14583111      31.30893517       9.67226124
H       16.30688286      30.64771080       8.48504448
C       14.97648907      15.25390053       7.91388369
O       13.58935928      15.47380543       8.07300091
C       13.19174194      15.80046654       9.41423130
C       11.72241020      15.43097305       9.55874062
O       11.61090088      14.05230141       9.19913292
C       10.35287189      13.48879147       9.56511974
H       15.54019547      16.20063972       7.86170340
H       15.38386726      14.65473461       8.74490261
H       15.13698673      14.68143082       6.99176741
H       13.79201221      15.25001144      10.16168308
H       13.29353333      16.88586044       9.61777210
H       11.09456730      16.03788185       8.87462616
H       11.37969494      15.62773609      10.58707142
H       10.49473763      12.40790081       9.69340038
H        9.98436642      13.89538002      10.51870251
H        9.58851814      13.66641808       8.78703022
C       12.95393181      28.01377106       7.14409876
O       13.48918438      26.69530869       7.15444183
C       14.73799896      26.66442490       7.89208984
C       15.31016350      25.27430153       7.72541142
O       16.31537056      25.33979034       6.68810797
C       17.00029182      24.09337425       6.51836920
H       12.86377335      28.44179535       8.15330601
H       13.56038380      28.68997765       6.52658415
H       11.93987274      27.94658852       6.73088980
H       15.43170738      27.41312790       7.47871971
H       14.55877972      26.93467712       8.94496536
H       14.52247715      24.56241798       7.42317629
H       15.72842598      24.92678261       8.68657589
H       17.73729324      24.20018959       5.70907831
H       17.50313377      23.78655052       7.44951773
H       16.29313660      23.29784775       6.22330475
C       27.06323242      12.49158955      31.35397720
O       25.73419571      13.03858757      31.31777191
C       25.36045265      13.49493122      32.63178253
C       23.99448395      14.15918159      32.51379013
O       23.04791260      13.22950554      31.97643089
C       21.75190926      13.33611488      32.54766464
H       27.76024628      13.20664501      31.81329727
H       27.09794235      11.56534863      31.95351982
H       27.37384605      12.24666500      30.33048248
H       25.33626366      12.65004349      33.33816147
H       26.07334518      14.25118446      33.00154114
H       24.06061745      15.03586578      31.84921455
H       23.68067360      14.53400421      33.50358963
H       21.19209862      12.43024254      32.27439117
H       21.76044083      13.40097904      33.64693451
H       21.19870567      14.20184422      32.14839172
