1572
Lattice="29.770000457763672 0.0 0.0 0.0 29.770000457763672 0.0 0.0 0.0 29.770000457763672" Properties=species:S:1:pos:R:3 pbc="T T T"
Na      11.09318829      17.31109047       8.15573788
Na      20.10733795       1.59870529       8.90341377
Na      13.46834183      17.71221352      16.21535492
Na      16.70529556      28.59800911      11.77080536
Na       9.01647282      25.22609520      19.93226242
Na      26.29275322      -0.04676735      18.82344627
Na       6.99175930       9.10566425      11.98474026
Na      13.04183102      17.17961311      26.82098389
Na      15.72680855      10.45299435      17.69829369
Na       7.31481600      29.05395126       4.37834644
Na       4.47217560      16.83215714      17.52676773
Na      11.18609905      22.23048592      13.36564827
Na      22.56714821       2.64606428      12.35553551
Na       6.37955189      28.32369232       7.69764471
Na      27.34420395      20.57975197      23.77174187
Na      13.19816399      12.44866943       3.90294743
Na      17.36856270      14.21802425      24.73204231
Na       5.91223764      15.85746002      29.49704170
Na       0.88455307      24.93209076      23.55365753
Na      11.03171062       9.72271824       9.54451370
Na      21.38991165       4.25900316      17.66820717
Na       2.99481797      26.14958000       5.01386738
Na      20.32946587      22.55901909      21.87121010
Na      20.62886429       8.04818535      13.58517933
Na       6.70305109       8.86179638      19.80069733
Na      16.67491531      11.82054138      20.62193298
Na      13.30317783       0.93878376      10.69828033
Na      18.90138435      25.21462631       0.96035439
Na      22.65339279       9.32458782      21.84401131
Na      28.18099976      10.02520084      17.76042938
Na       6.44243574      13.47571754      18.13587379
Na       7.71016073      -0.52414256      17.71685219
Na      16.71422768      12.66860580      14.42608738
Na      10.87993622      13.91689014      15.64584637
Na      19.75625992       6.72285318      24.57796860
Na      14.76595497       5.01197338      10.78994274
Na      17.74082947       5.41836548      15.28739643
Na       6.50871897      18.48678780       5.42939806
Na      13.73499966      15.62169266      20.91303825
Na      19.87579536       5.62191486       7.95777607
O       17.44581795      12.18373775      23.45901680
Cl      16.96193123      10.76697159      23.64810562
O       16.51105881      10.55876541      25.05565643
O       18.09320641       9.85996151      23.28392982
O       15.79455471      10.59331322      22.72423935
O       13.67502213      11.20617676      16.86013412
Cl      12.81573486      11.02311611      15.63572311
O       13.54211903      10.22280121      14.61786842
O       12.52905083      12.38250923      14.99801350
O       11.49011421      10.43558121      16.01277161
O        8.77460289      19.03758621       7.41519165
Cl       9.09297085      20.24055672       6.55703592
O        9.43538666      21.40082741       7.44273424
O        7.92995453      20.58067322       5.69617701
O       10.26451302      19.95166206       5.66513634
O       23.10715485       7.58388090      10.98343182
Cl      21.90349197       6.86535692      10.50276375
O       21.71294212       7.01258755       9.03886795
O       20.67338562       7.38186026      11.20257664
O       22.01034164       5.39659786      10.89574146
O       23.10906982       5.92790556       4.97883129
Cl      24.16744423       6.09318542       3.92281437
O       24.16544533       7.51378441       3.47171521
O       23.81558037       5.23862696       2.74146605
O       25.50466156       5.75294542       4.46503496
O       27.31447792      29.05081367      22.91483879
Cl      28.45433235      28.10548973      23.22562218
O       27.82102585      26.88076973      23.92648506
O       29.48020363      28.83383179      24.03524590
O       29.05023956      27.64685059      21.92411232
O       26.32220268       9.60712337      20.77379608
Cl      25.77662849      10.99689293      20.87819099
O       26.82827187      11.93608761      21.39087677
O       24.60105705      11.02881336      21.79816055
O       25.34733009      11.45083427      19.51836777
O       12.74834728      27.05189705      17.93354797
Cl      12.95458317      26.67810631      16.48454094
O       11.65942860      26.12617302      15.97370815
O       14.03406715      25.62455177      16.32811356
O       13.28707123      27.89739037      15.70302105
O       18.80125046      12.33837318      13.30973911
Cl      19.93491364      11.41371059      12.98316765
O       19.99433327      10.33038044      14.02983570
O       21.21858406      12.16603279      12.95889473
O       19.65286255      10.79048634      11.65612888
O       28.59817696      24.01207161       3.40437174
Cl      27.98239517      22.79321861       3.99729156
O       27.03658867      23.21849442       5.05501890
O       29.06592751      21.96055412       4.53335094
O       27.24753189      22.09990120       2.92612886
O       25.97237206      17.44700623      13.52086258
Cl      25.31262398      18.73128891      13.11529922
O       26.04786110      19.29931068      11.95977592
O       25.30303955      19.66843224      14.26696205
O       23.91009521      18.42618179      12.68687725
O       27.02552414      14.12085247       3.16713238
Cl      27.30211639      13.51590729       1.83510888
O       28.63455772      12.87828827       1.82956469
O       27.26575279      14.58050823       0.80220973
O       26.23141670      12.53316784       1.53337395
O        6.03659105      21.42146683      19.54508209
Cl       4.65118408      21.00539970      19.08466911
O        3.91098619      22.20191956      18.58377457
O        3.87384176      20.39789009      20.22892380
O        4.75745630      19.97309685      17.98455048
O       11.12886715       7.32301664      11.27296734
Cl      11.77029133       8.16085529      12.33714962
O       11.35767841       9.58116531      12.03982067
O       13.24814892       8.07141685      12.23186398
O       11.25217342       7.78134108      13.67200089
O       18.23319244       0.79725212      12.08001614
Cl      19.72849846       0.65007532      12.16063118
O       20.22801018       0.13147010      10.84821701
O       20.11002541      -0.27358934      13.26628399
O       20.27084541       2.03437424      12.38961029
O        1.06149423      15.34011364      12.10464954
Cl       1.50060606      16.47158051      11.20202255
O        1.39892888      16.02500725       9.79599667
O        2.91396093      16.80307579      11.51099110
O        0.65579802      17.66069221      11.47679043
O       22.35466576      22.00716209      14.15847492
Cl      22.05478477      22.08895493      12.70132256
O       22.44005966      20.84091568      11.99346924
O       22.77954483      23.22869873      12.11015701
O       20.59244347      22.29311752      12.50812817
O        7.49024963      15.19885826      16.91910362
Cl       8.11589527      16.20323753      15.97064114
O        7.30863285      16.29972839      14.73192692
O        9.53206444      15.81217670      15.62794018
O        8.18913555      17.54139328      16.68346024
O       22.22930717      19.01531410      15.61888409
Cl      22.54885101      17.67361832      16.12928009
O       22.95154381      16.81129646      14.99103451
O       21.34310532      17.11582375      16.79938889
O       23.68806267      17.77930450      17.10073853
O       15.55947399      22.85509109      25.15835381
Cl      14.72517776      23.46461868      26.25645828
O       15.58777905      23.88342285      27.40404701
O       13.71221447      22.43725204      26.72795105
O       13.99295425      24.66904259      25.74971390
O        3.06349301       9.06414318       3.41035914
Cl       3.84515595       8.85869884       2.16568542
O        3.41915369       7.61609125       1.47616482
O        5.27542591       8.78784275       2.46510720
O        3.60442734       9.98927402       1.26690102
O       10.71348476       3.66601777      12.77917099
Cl      12.15169334       4.03568125      12.60591888
O       12.36673546       4.39563227      11.16757870
O       13.05156136       2.78790689      12.91613197
O       12.58669949       5.17095375      13.46870136
O       16.70527649       3.11138225      10.42136192
Cl      16.40264893       1.82052958       9.68371105
O       17.67152596       1.26505458       9.11595726
O       15.40998554       2.14079428       8.61326790
O       15.74427986       0.84634590      10.65260220
O        1.19300735      10.38215256      14.01733303
Cl       1.75474823      10.22914886      15.37868786
O        1.65750206       8.79222488      15.84059048
O        0.95748335      11.05046654      16.38705826
O        3.17396092      10.70178413      15.42850876
O       28.27198601      18.58115578      25.12027740
Cl      27.92481422      18.22903633      26.52906609
O       26.42842865      18.07338715      26.61520767
O       28.36358643      19.36537361      27.38336563
O       28.61987305      16.96681023      26.89757156
O        4.94874144      27.28321648      10.99675655
Cl       3.89084983      28.02467155      10.28721237
O        3.91997910      29.44886017      10.65251732
O        2.52940655      27.47814941      10.49159336
O        4.16960239      27.93175697       8.80460453
O       15.56364250      29.01649475       5.53487015
Cl      16.29758835      28.25333023       6.59978580
O       16.43509483      26.83896255       6.14285088
O       15.52829361      28.33002663       7.87884808
O       17.64646530      28.87718010       6.77955151
O       19.58008575      15.55369377      26.96101570
Cl      18.29098320      16.18510818      27.38964462
O       18.60280228      17.38758659      28.24453163
O       17.38660622      15.24439049      28.11267662
O       17.57023621      16.67781639      26.14521408
O       14.41340637      14.08670712      17.26607513
Cl      13.31372929      13.91819668      18.24803925
O       12.87624741      15.28808117      18.70736313
O       13.84001255      13.14969063      19.44662666
O       12.10028934      13.27875900      17.67336464
O       17.63592148      18.33286095      15.25909424
Cl      18.09418297      19.58757591      14.55108070
O       19.52236366      19.48782730      14.16104603
O       17.90318489      20.76229095      15.46769524
O       17.23249245      19.80246353      13.35421276
O       29.12664032      21.05006981       8.65856934
Cl      28.63780022      19.92607880       7.79099464
O       27.58599281      20.46205139       6.89200926
O       28.01421738      18.88788033       8.66669083
O       29.77415085      19.36871147       7.02259874
O        4.74682570      17.41515541       8.37189388
Cl       4.33091545      18.84344864       8.12256908
O        3.07356977      18.85531425       7.33910561
O        5.40448856      19.49413300       7.30945969
O        4.22845364      19.58587074       9.39485455
O        7.69869757       7.44555140      10.20691490
Cl       8.49460220       7.52470970       8.92876339
O        7.59092474       7.15284872       7.78871775
O        9.70060825       6.64773750       8.96619320
O        8.90471554       8.96185207       8.72755241
O        4.74962616      24.15283585      10.35691833
Cl       3.81105185      24.04381752      11.48768711
O        4.33859634      24.77810860      12.65291691
O        3.63403463      22.59954453      11.81934834
O        2.50195336      24.63710213      11.09016514
O       22.89386559       0.47825071       8.80186081
Cl      23.83308411       0.85799634       9.88979816
O       23.54100990       0.10661333      11.14733982
O       23.68658447       2.32390666      10.19081688
O       25.24647522       0.64279968       9.44397449
O       21.99336052       1.29891360      14.91598415
Cl      23.19793129       1.88653374      15.57218742
O       22.92726707       3.35005569      15.75800610
O       24.40282440       1.67981815      14.74438572
O       23.38528061       1.25519431      16.95593643
O        4.04977703      12.87691879       2.53361630
Cl       5.52034998      12.80078506       2.34979129
O        6.12433386      11.80301094       3.28076935
O        6.10191870      14.14144516       2.63081479
O        5.83927965      12.44635677       0.93848187
O        7.56475353       5.53952980      23.12800026
Cl       6.84072351       6.35751677      22.11796188
O        6.23593903       5.52270603      21.04036903
O        7.87643194       7.24937487      21.45214081
O        5.80889797       7.23384476      22.72271156
O       17.48524666      11.91570377      16.56705284
Cl      18.68481445      11.35476017      17.27352142
O       18.18139839      10.92540836      18.62985611
O       19.80092049      12.31788158      17.26900291
O       19.11626816      10.10082912      16.52845955
O       21.95531273      12.79921246      19.85565758
Cl      22.48172379      14.20005417      20.06724739
O       23.73270988      14.37569237      19.28681564
O       22.71955872      14.41684532      21.52004814
O       21.43796730      15.15479279      19.61278343
O       15.85470009      15.82638836      19.59114838
H       16.15370178      16.71402740      19.31274033
H       15.71360683      15.33202839      18.75884438
O       10.55467892       6.87332726       1.01436126
H        9.77524853       6.95577431       1.59229088
H       10.83744049       5.93768883       1.14169490
O       11.64502144      18.10540962      10.52136326
H       11.29413414      19.00599670      10.36629581
H       11.16096497      17.78624344      11.30592918
O       16.79687881       4.26252842      18.66559029
H       17.15059471       3.72645926      19.40396309
H       16.63211632       3.68002343      17.89945793
O        8.72924423      27.44891357      23.12763214
H        8.06457901      28.08157539      23.48363495
H        9.60311794      27.89674377      23.12659264
O       22.03944588      14.42287350       0.87825680
H       22.60328865      14.33580685       0.07819758
H       21.16868782      14.74637794       0.58287638
O       27.43217087      26.55010414       3.02046871
H       27.89950562      25.68923759       3.13526773
H       26.50559235      26.34576607       3.25036454
O       24.37430573      29.18548012      23.74937820
H       24.13804817      28.68424416      24.55965805
H       25.30692863      28.95104599      23.54112244
O       26.52484512      14.63081455      22.26859856
H       26.39570427      13.77732182      21.79352570
H       25.81986809      14.66774559      22.94489861
O       23.20523262      22.18152237      23.80130768
H       23.95273590      22.67386627      24.18834686
H       23.56146622      21.33861542      23.42973900
O       11.22896385      12.24034786       2.37321591
H       11.31099987      12.03977966       1.42417943
H       10.45523739      12.82965565       2.49706769
O       17.54991531       9.43927383       4.96424437
H       18.30401230      10.05914497       4.78541994
H       17.93578148       8.77246571       5.57392454
O       20.72704124      21.57918930      16.64918137
H       19.80813599      21.58527946      16.30494690
H       21.30939674      21.43097878      15.86784267
O       11.04179668       4.08237648       1.01735139
H       11.06155396       3.65606713       1.89864433
H       10.26174736       3.71951175       0.54585987
O       16.29639244      17.33312798      22.51494789
H       15.79898834      17.21626854      23.35479355
H       16.43085861      16.44753647      22.13004494
O        8.55241680       4.06028080      10.66776752
H        9.20522881       4.15994549      11.39539814
H        8.77116871       4.77242708      10.02824020
O       24.03302383       9.46809769      15.01877213
H       23.67517471      10.36577797      15.20101452
H       24.71537209       9.57439327      14.32769012
O        5.27774668      27.41959381       1.21839666
H        5.46526957      28.31557655       0.87518948
H        6.16232920      27.09856224       1.52765369
O       16.85694885      12.61868286       5.73988628
H       16.99303627      12.49320316       4.78085327
H       17.05969048      11.76639080       6.17782879
O        6.76821327      24.16732025      20.51987267
H        6.55022097      23.34518242      20.03212357
H        6.33131361      24.08918953      21.39369965
O       17.58507347       2.95821214      15.85997391
H       18.34809685       2.59930372      16.35181236
H       16.91403389       2.25161815      15.83146381
O        3.03440952      25.96446037      22.36290169
H        2.69189310      26.21821594      21.47620964
H        3.60849595      25.18092537      22.22748566
O        1.76688206      13.80025387      19.61597824
H        1.64343131      12.82738781      19.65821075
H        1.06401324      14.11509228      19.01490211
O       14.46736145      27.12184906      28.20264435
H       14.55077839      27.83473778      27.53325462
H       14.58800316      26.26627541      27.74306679
O       17.64450455      14.61833572       7.68864107
H       17.87633705      13.98248768       6.98225260
H       17.92523766      15.50275326       7.37962008
O       23.80928421      23.39807510      28.16604996
H       22.83733368      23.34948921      28.04441071
H       24.03069305      22.53140259      28.58024025
O       17.82143593       8.94450855       1.98994017
H       17.77935028       8.91572952       2.97481179
H       17.67639732       8.03209114       1.67081237
O       13.61531734      28.26204300      20.29136467
H       12.80019474      28.08464050      20.80016899
H       13.50123596      27.75586510      19.45254707
O       28.89723206      11.68712139       8.59304714
H       28.97358513      10.93325710       9.21123314
H       28.64443398      12.46749783       9.13263702
O       22.53206062       5.53855467      23.56129074
H       22.43116570       4.88009453      22.83896828
H       22.19871330       5.13372850      24.38818359
O        1.89097261      11.03711891      10.89879704
H        1.33757281      11.58244324      11.48604488
H        1.62396598      10.10410881      11.03228760
O       13.60958290       8.10291767      22.61836815
H       13.36851215       9.05045605      22.52599335
H       14.29978561       7.91672134      21.95250511
O       24.08482170      27.31845665       6.99721432
H       24.93756676      27.79584122       6.88359070
H       24.27786636      26.69034386       7.72154427
O       15.47006893       1.46825147      14.22967339
H       15.90681744       1.98579979      13.51926994
H       14.55516434       1.80639279      14.25514793
O        2.00008249       5.88096809      17.87447739
H        1.35890663       6.10735369      18.57777023
H        1.73952711       6.37893581      17.07351303
O       14.90818119      16.26681328      14.92555332
H       15.62774086      16.64711380      14.38422680
H       14.59395409      15.47063065      14.44050884
O        6.12177658      27.62573624      20.95364189
H        7.01431513      27.96462250      21.17429543
H        6.18842459      26.66275787      20.78457832
O       20.14429283      13.43739605       9.45172691
H       20.02956581      14.40019798       9.30132008
H       20.78293228      13.36197281      10.18675613
O       18.73312187       1.63309014       5.96502638
H       19.60335541       1.29498875       5.67072868
H       18.21307945       0.83673924       6.23688126
O       19.18340302       5.41231060      17.52309227
H       18.41346359       5.20109844      18.09574699
H       19.35234451       6.38232994      17.59740448
O       28.58649445       5.90497875      11.96126938
H       27.85446739       5.35134506      11.63413429
H       29.26004410       5.92369652      11.25610065
O       26.41371918      28.98180771       7.41721964
H       27.16446495      28.51796150       7.83488750
H       25.93466568      29.44680023       8.14497185
O       26.93078423      13.86582375      17.64581108
H       26.26973724      13.15710354      17.52399635
H       26.45956993      14.58048916      18.11524200
O        5.19476271      16.08683014      23.02506256
H        5.17143106      15.30366993      23.61172485
H        5.83395672      16.71855545      23.42912102
O        6.62597513       2.25373387      17.49401855
H        6.06019688       2.53223658      16.74769592
H        5.99823856       2.09141469      18.22643280
O       12.85987091       6.12909603       9.01558304
H       12.29021835       6.43166018       9.75126934
H       12.52944756       5.23458099       8.80046082
O       28.22400284       6.46460152      16.85921860
H       28.46347809       5.58929491      17.23727417
H       27.25398636       6.53540993      16.93611908
O       11.66742229      27.63845062      11.71808910
H       11.69692421      28.52557373      12.13641262
H       12.28339481      27.09857750      12.25828743
O       24.50144196      13.49929619      14.55526638
H       24.04066277      14.34935188      14.68672180
H       23.86833191      12.84001446      14.90368462
O       20.62244797       6.51131725      20.95870399
H       20.59216309       5.53502226      20.91595078
H       20.59255981       6.70393610      21.93826866
O       13.93038368      10.60410976      25.91086388
H       14.62512875      10.35343742      25.26450729
H       14.11941910       9.99926758      26.66211510
O       12.51882744      19.16020775       7.04680634
H       13.29671860      19.75132942       7.04870319
H       11.83825588      19.56451988       6.46020651
O       19.56791687      17.48312378       1.10786188
H       19.22585487      16.73596573       1.64085209
H       19.12777901      17.39614296       0.22894292
O       20.97369003      27.15579414       8.29611301
H       21.63741875      27.86682510       8.42948246
H       20.14061928      27.44717026       8.72877789
O       21.35062218       8.33840561       3.67873383
H       22.32564926       8.47557831       3.68145847
H       21.21058083       7.36921358       3.70093799
O       24.72257614      28.57535172      16.93480492
H       24.11709976      29.34931946      16.81949997
H       24.15113640      27.78261948      16.94562721
O        6.25384760      26.14417648      17.58185768
H        5.29539728      26.01347733      17.73178673
H        6.65964508      25.41684723      18.09637833
O        1.42936110      21.89789009      20.68638420
H        2.23746276      21.39706612      20.42068672
H        1.04412758      21.41568565      21.45285225
O       28.51921463      20.45628738      14.83133888
H       27.55775833      20.32387352      14.93488884
H       28.84683800      19.64709663      14.39766884
O       26.25206375       2.70990157      28.11227226
H       25.94022942       2.60155129      29.02782631
H       26.88078690       1.97461164      27.93215752
O        4.66063547      22.60194397      25.48755836
H        4.60330677      21.62176514      25.48191071
H        5.35251093      22.87310982      26.12742424
O       23.27530289      16.01270294      10.85644245
H       23.64948082      15.49832630      10.11765766
H       24.03874779      16.18264771      11.44426823
O        4.96682739       2.98404670      21.34025764
H        4.29457235       2.72846556      20.66647339
H        5.19463205       3.92499042      21.16961861
O       17.27305222      17.43354607       6.33087015
H       16.89011574      17.87802696       7.11362743
H       18.07043266      17.95590401       6.10875416
O       29.36532021       7.34478712      19.41053200
H       28.69164276       6.97010183      18.80316353
H       28.97761917       7.29548740      20.30341339
O        2.82628274      26.88728523      16.37692833
H        2.72321796      26.71847153      15.41855717
H        2.86151123      26.00109100      16.79138374
O       12.44585705       6.50195408      25.66486740
H       12.67451286       6.86183214      24.78394127
H       13.31653690       6.31584501      26.07462502
O       10.29895878       3.99757576      26.01581192
H       10.69747829       4.85168839      25.75784492
H        9.32167912       4.07700539      26.05671501
O        9.59358311      28.85688400       3.21446180
H       10.09805965      28.98978233       4.04703188
H        9.89036179      29.54733086       2.59186697
O       22.94791794       6.70135403      13.72945499
H       22.88498306       5.98836565      13.05820179
H       23.51580429       7.37797165      13.30193520
O        8.13673210      11.60328674      17.66059494
H        8.52958775      11.81963158      16.79462433
H        8.86138344      11.67965031      18.31089592
O        2.84500194      17.98860741      27.14072418
H        2.40172625      17.13026047      27.27749252
H        2.82381439      18.43946266      28.00620842
O       18.57339859      21.11402130      22.91090012
H       18.35283089      20.32455635      22.37509727
H       17.71904945      21.47546577      23.22080612
O       15.38022995      29.73154449       2.64954305
H       14.58338642      29.85715675       3.20619774
H       16.06570435      29.40917587       3.27828169
O       28.53525925       1.43116403      27.11619568
H       28.07952881       1.40649366      26.23942757
H       28.90987778       0.53996462      27.24725533
O       21.48901558      14.11223507      15.23405266
H       21.36863518      13.28495216      14.72589111
H       21.08331680      13.96863174      16.11002541
O        1.45389378      15.04686642      14.92880440
H        1.62189889      15.83411217      15.47907543
H        1.53783536      15.33247375      13.99114037
O        2.30413342      18.91531181      13.79264832
H        2.41330481      19.19458389      12.86028099
H        1.62352324      18.21581268      13.75097752
O        8.74610329      12.48404980       4.06389189
H        8.19296551      11.91720390       3.48229194
H        8.06404877      12.96914005       4.58836889
O       22.77165413       6.83414602      18.99909973
H       22.89750099       7.65347338      18.48302841
H       22.00218391       6.99024439      19.57997704
O       13.92129326      14.82168198      27.69027901
H       14.46603584      15.41076660      28.25207520
H       13.37317944      14.27774525      28.28191376
O       17.79496384       4.61776066      21.64150429
H       17.02406502       4.87230539      22.19075966
H       18.47404480       5.25302553      21.98634338
O        6.49623108       1.48990595       8.02075291
H        5.62591028       1.43861210       7.57982779
H        6.28865957       1.71320415       8.94999695
O       24.56931686       6.24782896      16.35879898
H       24.05485916       6.07951355      15.54773712
H       24.38135338       5.48472834      16.93896103
O        9.69093227      11.11949921       6.47317839
H        8.89714336      11.02868271       7.03287792
H        9.37804604      11.52448273       5.63223743
O       26.21522141      26.17114067      21.33696556
H       26.65766525      26.46316338      22.17084885
H       26.60679626      26.72318459      20.62817764
O        8.39802551       7.29159451       5.07686138
H        8.05810070       7.34836483       6.00075960
H        8.13760757       8.11989021       4.63348436
O        7.21214914       3.79030490       5.67592096
H        8.13230419       4.08671951       5.49190474
H        7.26512575       3.16348457       6.42642593
O        1.02736676      18.14832497      22.63847733
H        0.98419529      17.86694717      21.70304489
H        0.59199744      17.45032310      23.16886902
O        6.99608564       1.87207580       3.30065012
H        6.22865009       1.83952093       2.70426869
H        6.84513998       2.63131881       3.91075015
O        5.60189152       3.06412888      11.52944183
H        5.33342981       3.99617100      11.39069653
H        6.57085466       3.13867807      11.62400723
O       13.25675297      21.79053688      29.54699326
H       12.43487644      22.27880096      29.74133110
H       13.56354904      22.11572838      28.66625214
O       28.48330498      13.60105705      10.77625751
H       29.08715248      14.37065506      10.77482796
H       27.59664345      13.94210625      11.01263237
O        8.02954578      27.10005379      15.51781178
H        7.08290386      26.90696144      15.66736603
H        8.47874355      26.61481476      16.24556732
O       10.42517567      17.95561790      29.00107002
H        9.52684307      18.14590454      28.66261673
H       10.98858929      18.68922424      28.67953491
O       23.09284210      10.84180069       3.41508317
H       23.53257561      10.94964790       4.27908182
H       23.78183174      10.52401829       2.80107212
O        2.32645750      26.19330406      27.45232964
H        1.35692477      26.18343544      27.60651970
H        2.52992773      27.02715302      26.97570610
O       26.32024956      24.74202538      24.56826591
H       25.52787209      25.11059952      24.09216881
H       27.01600456      25.44542885      24.49636650
O       11.04990196      21.34932137      10.93134022
H       10.14333725      20.96699333      10.84051037
H       11.18451214      21.95935631      10.17531776
O        8.50064564      14.62193584       8.10747910
H        7.97778273      15.39389706       8.43256855
H        8.74226475      14.06358528       8.87164402
O       27.06362915      27.47245789      29.04531288
H       26.28574753      27.09619904      28.58261299
H       26.94500923      27.25167656      29.99295235
O       13.36897373       5.06505728      17.72831726
H       12.71287441       4.34821129      17.63235855
H       13.90336895       5.04230928      16.90452385
O        3.00940061       2.00405598      19.40252495
H        3.11234736       2.41409516      18.51842499
H        3.23811555       1.05194747      19.34642982
O        9.46493530      20.43526840      14.15843201
H        9.31178570      19.50894356      14.43194389
H        8.62444592      20.77602005      13.78537560
O       16.29057693       9.03748608       9.52867603
H       15.80940342       8.60190678      10.25939083
H       17.14701462       8.56618881       9.48060226
O       28.27871323      10.94491959       5.28579998
H       28.36561203      11.69364166       4.66176796
H       29.12182426      10.89928913       5.77628326
O       19.87710571      13.59704399      24.41010666
H       20.23793030      13.39249134      25.29456520
H       19.95932198      12.77741909      23.88409996
O        5.27351952      29.10951424      18.11376190
H        4.90658331      28.59708214      17.35933495
H        5.31031179      28.47555351      18.86080170
O       25.74337196      16.85855293       8.26436520
H       26.18282127      17.57946396       7.77357912
H       25.88501549      17.11024857       9.20006084
O        3.83529854      14.00677872       9.37005997
H        4.70099211      14.08280945       8.92737198
H        3.62114191      14.90805721       9.68434811
O        7.07747078      17.83024216      24.45121193
H        8.05905724      17.78539467      24.43318367
H        6.82217264      18.16068840      25.33545876
O       25.60984802       9.37155437      17.73704529
H       25.15901375      10.05109215      18.29105568
H       25.09307289       9.26486588      16.91262627
O       13.11222935       3.02993870      24.72097397
H       13.63143063       3.73782420      25.16864395
H       13.76826096       2.58263493      24.15261269
O        4.31577015       8.76873112      11.20524025
H        4.31369114       8.58888340      10.24148846
H        4.02415562       7.94763994      11.64931107
O       18.06281662      13.62932396      19.59463120
H       18.82864761      13.79154682      20.18584633
H       17.65036583      14.50781918      19.54131508
O       12.19811153      18.84510994       1.89495516
H       12.83938122      19.38529968       1.37869596
H       11.30708218      19.18551826       1.68502033
O       20.31733513       7.94025755      17.31279564
H       21.14204216       7.87151718      16.79883194
H       19.86264610       8.79345131      17.05336571
O       25.45454407       9.81766033      27.97245026
H       26.35361671       9.77365780      28.34759712
H       24.88006783       9.90054035      28.75961494
O       11.45511818      28.32054329      28.74499512
H       11.72592068      27.62939835      28.11042976
H       12.17643642      28.33236504      29.40674591
O       19.03470039      15.39999104      21.71424675
H       19.74767494      15.10319424      22.31605721
H       19.44755745      16.12946510      21.20003319
O       24.07402611      26.25692940      28.66527557
H       23.81415558      26.49595451      29.57533264
H       24.13029861      25.27174950      28.64399910
O       17.82353973       1.59963191      20.66968346
H       17.86582756       0.70912629      21.06776237
H       17.32836914       2.15234327      21.31047630
O       24.06206703      12.16458130      26.34479713
H       24.64577103      11.38614941      26.23614883
H       23.92591858      12.54844475      25.45742226
O       13.06118584      13.97450256      24.34581566
H       12.61282349      13.48606873      25.08692551
H       13.99886227      13.69317245      24.32117844
O       14.03051662      19.66831779       4.12116051
H       13.19435692      19.69971466       3.60593987
H       14.35891151      20.58112335       4.22126770
O        1.73614657      23.33034897      25.34074020
H        1.27030361      23.61193657      26.14912033
H        2.68153405      23.21381569      25.58769608
O       18.62856102       4.10261536      26.66992188
H       18.03692627       4.07592726      27.44403458
H       18.36440849       4.96233702      26.18941116
O        1.22491324      10.59777927      19.09823036
H        1.24510086      10.84320831      18.13838387
H        1.34977603       9.62605572      19.10794449
O       14.88521099       8.27545834       4.58598614
H       15.65008068       8.87650967       4.71677637
H       14.84449863       7.69941616       5.39083052
O       24.49703598      25.60501289      14.29573631
H       24.82385445      26.34341812      13.74815655
H       23.53321457      25.76100922      14.35099125
O       16.86565399       0.56623727      17.50860214
H       17.19773674       0.87538522      18.37417412
H       15.89098549       0.62171417      17.60342026
O       18.05286598      22.17193031      19.36375237
H       17.20625687      21.68796539      19.29317856
H       18.75323486      21.51444817      19.16538048
O       12.81508064      20.28612328      16.33569527
H       11.90533257      20.62250328      16.42538643
H       13.23739624      20.72848511      15.56337833
O       12.79454708      16.34814644      23.07871056
H       12.27482414      17.07981491      23.45168114
H       13.02203655      15.76169014      23.83674049
O        9.56497478       1.95109320      24.08731461
H       10.19795418       2.61161470      24.45249367
H        9.85062504       1.06968892      24.40187073
O       26.12479210       1.72598433      20.46907425
H       25.60740471       2.49405146      20.14421463
H       25.76909447       1.50037789      21.34852982
O       12.27448845      19.89180756      26.85107803
H       13.08078098      20.38691711      27.11699486
H       11.81581020      20.48990631      26.22761345
O       10.09817219      27.71939659       9.06643677
H        9.28356361      27.78464890       9.60065842
H       10.78790760      28.16994858       9.59608364
O       21.83149338      25.32843781       5.96850634
H       22.73506355      25.69695663       6.04525232
H       21.28961182      25.92261314       6.52581692
O       11.49373531       2.06808019      15.75828552
H       10.83965302       2.13582206      16.47751427
H       11.30852795       1.20498037      15.34015656
O       28.22026825       5.70951128       1.46705604
H       27.35429764       5.50095272       1.86628461
H       28.22590065       5.34367895       0.55353576
O       23.00908852      14.62114429      25.32370186
H       22.56635666      14.94941235      26.13158798
H       22.76772881      15.21414757      24.58904266
O        7.27138567      21.14962006      22.97775841
H        6.98035622      20.22116470      22.87318993
H        6.61585712      21.67837715      22.48174095
O       20.20687866       2.03087449      17.07407570
H       20.08982086       1.40460205      17.81290627
H       20.61118317       1.52209866      16.33732605
O       14.02036858      26.16579247       3.95416498
H       14.49656200      26.42441177       4.77048016
H       13.07196045      26.29973412       4.15390348
O        8.55872154      17.67690468       4.01383352
H        9.16374874      18.22348595       3.47975969
H        9.13134289      17.15937233       4.61922932
O       19.35651779      25.10718346      11.37290573
H       19.02987289      24.37523079      10.81194401
H       18.58960915      25.45377350      11.86260414
O       23.20698929      20.79123878      29.09725571
H       22.39832687      20.66489792      28.56314087
H       23.69062805      19.93990135      29.04543877
O       19.48752785      22.56670761       9.46558857
H       19.69075203      21.92579269      10.17821217
H       20.30466843      23.09445572       9.33653831
O       19.40406227      16.15311432      11.22415066
H       19.17035294      15.76952648      12.09653568
H       20.17891884      16.70280647      11.42467308
O        9.36640644      14.15564251      19.78718567
H        8.68161583      14.29055691      20.46788406
H       10.14845085      13.78261757      20.23755646
O        9.22057152      20.70254326       1.73144877
H        8.79365921      20.40956306       2.56101370
H        8.86572361      21.61967850       1.60505104
O       22.17050171       9.99280643      19.18973923
H       21.23796272       9.70988178      19.18616486
H       22.14177513      10.95602894      19.38861084
O        2.13537884       8.89957905       7.50679779
H        2.06766653       9.88202858       7.56949997
H        1.59122694       8.62831402       6.74729538
O       27.74069405      27.94049644      15.90505219
H       27.78597069      27.33154869      16.66822243
H       26.79231834      28.15687180      15.78848076
O       21.92388916       2.08593369      26.85367775
H       21.53194427       1.25390792      27.17630005
H       22.19380951       2.59144998      27.64660072
O        8.47592449      10.01517677      27.63145065
H        8.26222610       9.43915462      26.87356567
H        9.40966225       9.77230644      27.83334351
O        3.50157785      23.49853516      28.35979271
H        3.28084707      24.43246651      28.15826607
H        3.39513445      23.40041924      29.32365417
O       21.32655144       3.79534578       8.72183228
H       22.08938980       4.00729752       8.13329315
H       21.62503624       4.15618753       9.59631443
O       18.62950325       5.49385548      11.04034424
H       18.52290916       4.74642515      11.67082119
H       19.45766449       5.94778061      11.29128647
O       27.47896767      16.50399399      20.28919220
H       27.04447937      17.34049416      20.03398705
H       26.96384048      16.14463234      21.04258537
O       15.94644547      24.90205765       9.43501759
H       15.13511467      24.99231148       8.89954376
H       16.69212723      24.77390289       8.81488705
O        7.67847919      27.55704498      26.30447960
H        7.14014339      26.74105835      26.28535652
H        8.55027962      27.29077148      26.66492844
O       19.40805626      15.64327335      14.13564396
H       20.28056908      15.23720264      14.38723278
H       19.46128654      16.57063484      14.43517303
O       13.81263733      10.59081650       2.29293609
H       14.74909210      10.33213806       2.39862561
H       13.29600620       9.79905415       2.53470850
O       11.53899860      28.11629105      22.71184158
H       11.89499664      27.33439827      23.18613052
H       11.99427986      28.90140724      23.07099724
O        8.06839275      23.20754242       1.46439910
H        7.43132973      23.30802536       2.19852638
H        8.78636360      23.85657692       1.66425598
O       16.12104797      26.25774956      12.09413910
H       15.95692158      25.84687233      11.21893215
H       15.51442623      25.80293846      12.71715450
O       21.14227867       4.78593874       2.04867220
H       22.02562904       5.20733023       2.18263650
H       20.58083153       5.41738224       1.56181312
O       29.29786110      25.86839294      28.21008301
H       28.90347481      24.97280502      28.22783470
H       28.56821060      26.49531937      28.42238808
O        3.13090611      17.02495766      19.98626137
H        3.43894458      17.93800354      20.15979958
H        3.42515111      16.49590683      20.75278854
O       20.12301064       2.62791443      22.38700485
H       19.43162727       2.49193144      21.70613098
H       19.74143219       3.27275896      23.02285767
O       13.76695156       3.58876920      29.00840569
H       13.34017372       2.77957344      28.66344643
H       13.06048203       4.08303881      29.46278954
O        1.73355472      20.66906166      10.81449032
H        2.15863442      21.55422592      10.82124043
H        1.29158580      20.56987762       9.94518089
O        3.01788902       0.66558504       3.58644438
H        2.27425480       0.85884845       4.19256067
H        3.50630689       1.50166023       3.45778680
O        7.41858673      17.02215767       9.05216026
H        6.44003105      17.13014984       8.94324493
H        7.81217051      17.66968155       8.42604828
O        2.76332450       1.28007865      23.16160774
H        3.19700003       0.86349732      22.39288902
H        1.81306481       1.26897657      22.94227600
O        2.09902549      13.70363617      23.08293152
H        1.13713491      13.58971024      23.24182129
H        2.17557526      14.15697765      22.22371292
O       25.30894279      13.68724823      11.56440926
H       24.96711159      13.61061764      12.48064041
H       24.98848343      12.89108944      11.09730911
O        6.74112701      12.46631050      26.57793617
H        6.20131922      12.07879925      27.29696083
H        7.62506819      12.04949760      26.66221809
O       23.33457184      19.45930672      22.86286545
H       22.46857452      19.48283958      23.32701111
H       23.96166992      19.09291649      23.52378845
O        3.66066170       6.42233610      26.60089684
H        3.37257385       7.35018253      26.57183075
H        2.95378041       5.91527176      26.13667297
O        9.01814747      15.05780983       1.21650124
H        9.51745510      15.79421616       0.80798298
H        8.85214806      14.41001034       0.50563025
O       17.86355591       5.52372885       0.78835565
H       17.55973434       4.60113573       0.64296705
H       17.82322693       5.93174934      -0.10406826
O       24.17519379      20.24551392      18.48682785
H       24.04085159      19.46958733      17.90157318
H       23.45133209      20.17281151      19.14031410
O       14.38304329      20.71121597      13.99623108
H       14.21570110      20.41065788      13.06777859
H       15.35131454      20.64147949      14.13083363
O        8.16103649      10.80916500      22.58127975
H        7.48688698      11.40998936      22.95239449
H        8.98520756      11.33542633      22.53753853
O       17.83435440      25.73113060      18.36929321
H       17.03396416      26.07592201      18.81171799
H       17.51171112      25.09719276      17.69426918
O        1.70003843       2.05757117      15.91279697
H        1.77983129       1.13427091      15.60152149
H        0.86664647       2.08276486      16.43041420
O        3.64075327      29.30240822      20.82760239
H        4.47675800      28.85880089      21.08388901
H        3.00242114      28.59851837      20.59395981
O       28.21196365      21.17127037      11.34855080
H       28.51991653      21.28907585      10.42175007
H       28.16930389      20.20162773      11.46365166
O       20.01384354      19.93371010      18.94574356
H       20.40509605      20.09024239      18.06015587
H       19.81708336      18.97719574      19.01743126
O        5.71752501      24.14798164      23.29860878
H        5.17708397      23.49324226      23.79425049
H        6.59076309      24.19044304      23.75181580
O       18.86407280       8.76992321      26.42472267
H       18.63969994       9.26283550      25.60929871
H       18.36787415       7.91068554      26.31894112
O       14.07920074      24.61452675      13.72834969
H       14.06708527      24.99912071      14.64527512
H       13.24933147      24.91043472      13.31273842
O       13.87411308      10.97528362       5.70128202
H       13.99963379      11.28813267       6.61604357
H       13.58298111      10.04409885       5.73655462
O       12.82263374       0.09928688      13.02744007
H       13.24790001      -0.37229145      13.77432632
H       12.76727486       1.06073391      13.24676609
O       11.18022156       8.86141491      27.54220772
H       11.51617527       8.75043011      26.63150597
H       11.25295639       7.97764158      27.95112610
O       16.47009277      19.94328499      25.74051476
H       17.43405342      19.77511024      25.68193626
H       16.29255676      20.89652443      25.57533455
O        1.03604412      20.86169815      17.02758980
H        0.23642084      20.88005066      16.46158409
H        0.72456139      21.03479385      17.93642426
O        4.97997046       5.11898279       8.21284294
H        5.76438236       5.08787823       7.63177013
H        5.08366871       5.94326830       8.72569180
O       23.52925110       8.41535473      24.31152344
H       23.36094856       7.45062542      24.27768707
H       23.00102043       8.71790218      25.08795738
O        8.48386383       6.68666983      13.03875923
H        9.05119991       7.01396036      13.76653385
H        9.04364681       6.76317787      12.23808765
O       20.69382095      17.76100922      21.29122734
H       20.45805550      17.82386589      22.23901939
H       21.57645035      17.34593201      21.22264099
O        6.26607180      15.98673725       5.88762522
H        5.42953730      15.89961338       5.38299131
H        6.95056200      15.54035664       5.34980392
O       17.61084366       8.72298145      12.41721439
H       16.94724083       9.21455383      12.93561935
H       18.18973923       9.41256618      12.01980305
O       20.39250946      24.95431328      15.24211311
H       20.34845352      25.13839340      14.28488922
H       20.25853729      23.98818016      15.31412601
O       12.63535023      25.55505562       0.64434528
H       12.02143574      25.17995834       1.31145823
H       13.47792721      25.06991577       0.74096113
O       24.93902397      20.30279350       8.12301254
H       24.94106102      21.04220390       8.76213646
H       25.72385788      20.44501114       7.55738401
O        2.30373693      26.45911789       7.31265545
H        1.89011502      25.76409912       7.85709095
H        2.95128775      26.91526031       7.90215206
O       10.26075935      28.87261009      16.99497414
H       10.34624386      28.30460358      16.19915009
H       11.16483784      28.93399811      17.37619972
O       20.86314201      22.75572014      28.42242813
H       20.16925240      22.14127922      28.72924995
H       20.42961311      23.63162804      28.34537315
O       19.34737206      28.40159225      17.68102646
H       19.08041000      27.49388695      17.93249130
H       18.68815041      28.66038895      17.00942612
O        8.91366863      24.85535240      17.28660965
H        8.32768059      24.16382217      16.92226791
H        9.82764149      24.50026131      17.25420189
O        9.99361038      22.70202827      21.43590164
H        9.48303032      21.95989609      21.04323006
H        9.66501427      22.79586411      22.34851074
O       27.86012077      17.20080376      15.79232216
H       27.11059952      17.16928291      15.15672302
H       28.37287331      16.39168167      15.59856987
O        8.01277065      12.71437931      12.08763123
H        7.32785177      13.20291233      11.58784199
H        8.27641869      11.97770786      11.49798012
O        8.41189480      24.64205933      23.96799088
H        8.89441776      24.44993782      24.79656792
H        8.52859402      25.60172272      23.76466179
O       25.09364510      22.35073280      15.99695301
H       24.74326515      22.33915710      15.08304310
H       24.71389389      21.56172752      16.43827820
O        6.96153450      23.67123222      27.41174126
H        6.62851524      23.62834549      28.32954216
H        7.77033758      24.22338486      27.46676064
O       15.55179214       8.87945652      27.59709358
H       15.89205933       8.56714916      28.45672035
H       15.93523216       8.24356651      26.94533539
O        0.25043160      20.74131775      23.22347641
H        0.43644518      19.78119850      23.09250832
H        0.34948370      20.88868523      24.19703484
O       18.99483871      17.98031425      23.81231689
H       19.10038567      17.38713837      24.58558273
H       18.15078926      17.69819641      23.39927864
O       19.88110924      10.71874237       4.29983187
H       20.30492592      11.20183945       5.03913641
H       20.44279671       9.93793011       4.07176113
O       23.68329811      18.63354874       3.84484959
H       23.55615425      18.25722313       2.94896340
H       23.09932518      19.40894508       3.92412639
O        5.79719210       8.13641739      16.43139458
H        5.24951077       7.57855511      17.01731110
H        6.34892941       7.50729132      15.93298340
O       17.18232346      18.64421463       9.97161007
H       18.15185928      18.64707375      10.14037609
H       16.82124710      17.90635300      10.49605465
O       23.12318802       9.34724522       6.72610855
H       23.37739754       8.40547276       6.65053082
H       23.95542526       9.86530781       6.71179199
O       22.95661736      27.90512466      13.47163391
H       22.36982918      28.62222099      13.78927708
H       22.98377228      28.01151848      12.49811172
O       14.73860645      21.83609200       7.09840679
H       15.46182728      21.82107162       7.75617790
H       13.95906162      22.21656036       7.55691242
O        8.31892586       9.68644619      14.54081345
H        9.18854713       9.99442005      14.21001911
H        7.76305819      10.46794510      14.71321583
O       26.07303619       6.57244921      22.02225685
H       26.02260780       6.93560266      21.10294151
H       25.80364037       7.28353357      22.63272095
O        1.07504117      24.43625832      18.85439491
H        1.16139901      23.53527260      19.24291420
H        0.62062585      24.32568550      17.99184036
O       18.23294449      27.91135979       9.63009453
H       18.14955139      28.86042023       9.37588596
H       17.59042931      27.45974159       9.04768753
O       25.50070190       3.84194446      23.05114365
H       25.09881783       4.66449738      22.71182823
H       24.88911057       3.51313186      23.73963928
O       14.20874786       7.97019243      17.55771065
H       14.10147190       7.18107605      18.12749100
H       13.42961788       8.00140953      16.97282028
O       22.33243370      22.09837341       7.25428534
H       23.09989357      22.17544746       7.85505199
H       22.30332184      22.93227196       6.75180435
O       15.29921246       6.80677462      20.05980110
H       15.23694420       5.83044052      20.06217957
H       16.25938606       7.00425673      20.09679794
O        3.36475062      23.51114464      15.52591896
H        2.98716164      22.72905922      15.97625923
H        2.77541256      23.70359230      14.76097012
O       10.37588692       2.19658589      20.09524918
H       10.09796524       1.96911931      19.18955803
H       11.33757877       2.01925349      20.15741158
O       23.73498154      26.09514809       2.55952096
H       23.73540688      25.13708687       2.78063297
H       22.79865074      26.37668800       2.60758591
O        7.66827011       3.05599952      25.93114662
H        8.01391983       2.58547497      25.13761520
H        6.87511158       3.54394150      25.63480949
O       21.76239777      24.68359756       9.58722782
H       21.48018456      25.53733444       9.19459438
H       21.63572121      24.79242134      10.54710007
O       28.29831696      23.36217117      13.46299362
H       28.40452194      22.51955795      12.97368908
H       28.08784103      24.03516769      12.78231907
O        9.93841267      15.18002892      25.88153458
H       10.58234310      15.88189793      25.63375473
H        9.47828388      15.50776768      26.67986870
O       17.93583107      23.11471558      13.44943333
H       17.76874924      22.45136070      14.14996052
H       18.80126190      22.85916138      13.06506824
O        9.40183830      25.73192024      27.80734253
H        9.28876114      26.04437447      28.72768784
H       10.27460670      25.27951431      27.78372383
O       21.60228920      20.51055908       2.11266947
H       22.32814598      20.62376595       1.46290040
H       21.10074615      19.71178436       1.84502995
O        4.96771908       8.90123653       7.92922306
H        5.73865128       8.47818565       7.49879932
H        4.16917610       8.67239189       7.40338802
O       17.00284958       2.17326021      25.27049446
H       17.82212067       2.61332941      25.59768105
H       16.42654991       2.96817946      25.18916512
O        4.70378590      11.66516304      17.94194031
H        4.00484848      11.62654209      18.62155151
H        4.33185911      11.26584625      17.12601471
O       23.60566139      27.10204887      25.95495987
H       23.75051308      27.01466370      26.92350197
H       24.06686401      26.33175850      25.56183815
O       19.76485634      19.59282303      10.98206425
H       19.70920753      19.69403458      11.95543480
H       20.69721413      19.74603081      10.73109531
O       13.61120510       1.05138946       5.21281624
H       14.38008308       0.54406941       5.59059620
H       12.86852837       0.86153549       5.81489944
O       15.83923912      26.46786499       1.05095077
H       15.27058697      26.62165451       1.83185840
H       15.37430000      26.85604858       0.27924231
O       23.60909081      14.49461365      28.23904991
H       24.29841614      15.17875099      28.34762764
H       24.00977325      13.77313423      27.70929718
O       14.29744816      13.77307415       7.17259312
H       14.02843666      14.64058876       6.80300570
H       15.25330448      13.84906101       7.39034033
O       17.93945694      27.74724770      28.77997780
H       17.36015129      28.09250069      29.48634911
H       18.38530540      28.51831436      28.38656235
O        6.57206392      21.94963264      10.07965946
H        6.07612371      22.69850731       9.69081402
H        5.86001539      21.37500572      10.43358898
O       28.50638962       4.69748974      28.55987549
H       28.38748932       5.42688560      27.92195511
H       27.85525703       4.01188707      28.30192184
O       23.33974266      28.53628540      21.08285904
H       23.35425949      28.89269066      21.99686241
H       24.13367844      27.96210289      21.05311775
O        5.04318428      15.78872299      13.15540218
H        4.44046879      15.95851803      12.40241241
H        4.43875742      15.67399406      13.91192818
O        5.75009203      19.79382133       1.83162212
H        6.19515467      20.51798630       1.34905362
H        5.62983799      19.07014084       1.17747438
O       19.40416527      12.00160980      30.03602600
H       19.50653458      12.75653458      29.42233849
H       18.83932495      11.37812424      29.53590965
O       24.63814735       2.09293699       4.73876333
H       24.87368774       1.47436929       5.45530415
H       23.95219612       1.64313769       4.20963097
O       26.11475945      25.26118088       8.68066025
H       25.46382523      24.58424759       9.00646496
H       26.75072289      24.77299118       8.12062073
O        1.41374958       7.47131205      23.35942841
H        1.94432580       8.26152229      23.13554382
H        0.63199443       7.48501205      22.78073502
O       10.56270409      13.99268055      22.75803185
H       11.26745224      13.59417534      23.31391716
H       10.86853504      14.91230583      22.63044357
O        7.85584736      14.53138447      23.60140038
H        8.81708050      14.33229160      23.53700066
H        7.76334190      15.00317192      24.45159531
O        7.88978291      26.41907120       1.93183112
H        8.55179310      27.12706375       2.04483676
H        7.76077414      26.07019997       2.86709428
O       21.48519135      16.21731949       8.36894703
H       21.97555923      16.39155006       7.54146481
H       21.87257195      16.80413246       9.03939724
O        4.32800436       3.82085824      24.24363899
H        4.28151131       3.36075878      23.37693787
H        4.59298992       4.74837732      24.08835220
O       14.13424110       4.12905836       4.98629999
H       14.86694622       4.40596867       4.38921881
H       14.18379116       3.15264010       5.09010649
O       13.92480850      13.46427250      10.81734562
H       14.83419418      13.30629921      10.48393631
H       13.42981720      12.63547802      10.65741825
O        1.87055647      11.73285484       7.84438944
H        2.26851773      11.82452106       8.73600864
H        0.90229005      11.84651852       7.98524046
O        8.28988457      15.81981754      11.85427570
H        8.02270317      16.44875908      11.15447617
H        7.78559208      16.06489182      12.65862465
O       11.08267498       6.62954903       5.27041769
H       10.19978523       7.07684231       5.26249504
H       11.43635750       6.74102640       6.17165565
O       24.07817078      25.76906204      23.25056076
H       23.22315979      25.31363297      23.36637688
H       24.32330322      25.64277458      22.30833435
O        2.11237597      13.65038872       0.62135780
H        1.31778848      14.05359840       1.01417494
H        2.64193368      13.29302216       1.37375927
O        3.27699828      24.88788986       2.22372127
H        3.82586932      25.67245293       2.01376247
H        2.37023306      25.11148834       1.94153023
O        6.20733023      11.67230892       9.44974041
H        5.45127583      11.67506409      10.07345867
H        6.15152836      10.83437443       8.95173073
O       14.06305408      18.46506691      20.84220314
H       14.71392536      18.29559898      21.56020164
H       13.26686287      18.83151054      21.26246262
O        6.22250748      22.75368309      15.35797310
H        5.34757900      23.20508003      15.30173969
H        6.07290125      21.90535164      14.89713573
O        9.98017406      16.99205208      19.14317513
H        9.61691761      17.16050148      18.25479507
H        9.75423813      16.04995346      19.31879234
O       25.55317116      22.29864311      11.77484894
H       25.73404312      23.00669670      12.42002392
H       26.38046646      21.77512741      11.67236519
O       23.67170715      17.05888557       1.34496450
H       22.84560776      16.61296082       1.07704687
H       24.24088097      16.34974861       1.70625865
O       18.57772827      24.34276390       3.25467420
H       19.12404442      24.69267464       3.98833489
H       17.64702988      24.44863129       3.53104949
O       17.36527061       3.45556188      12.90406036
H       17.90226746       3.02559686      13.60000801
H       17.36438751       2.86721325      12.11958218
O        4.25819635      12.48547363      20.96067238
H        4.29629421      13.35799503      20.52364159
H        5.17849970      12.16243172      21.04835701
O        4.51154041      13.73064899      28.68043327
H        5.01114368      13.30553532      29.42458534
H        3.61202550      13.85100555      29.04714012
O       27.06999016      11.04581547      13.00320625
H       27.73453522      10.87377739      12.30392456
H       27.32555771      11.90426254      13.40912533
O       26.80767250       1.39079547      24.87215424
H       27.18849373       0.84627491      24.14786530
H       26.02148438       0.89536875      25.17523766
O        1.89747941       4.40786362      25.56240845
H        2.64284801       3.99867010      25.06289101
H        1.10877228       4.30540943      25.00304031
O       24.52254677       3.51097679      18.67801666
H       24.54052734       2.97258067      17.86130524
H       23.73903275       3.19901133      19.17549896
O        4.44247341      11.74941921      11.95940399
H        4.70287609      11.40758324      12.83541012
H        3.61710072      11.27995396      11.71481514
O       12.39636326      10.81131935      22.95952415
H       12.89815712      11.50083447      22.48230743
H       12.62153339      10.94791317      23.90267181
O       15.16844559      17.60778046      25.26866722
H       15.88015842      17.07877350      25.71618462
H       15.48636150      18.53888512      25.40976334
O       22.03859520      23.71332169      18.22603989
H       21.60106087      22.97522545      17.74833870
H       22.11132622      24.43314934      17.57248497
O        9.99641323       4.04717970       4.71399879
H       10.35998726       3.28543496       5.20224714
H       10.52252197       4.84072542       4.98797989
O        8.41095924      19.67856598      27.71306610
H        7.45360518      19.63717079      27.89149857
H        8.76315784      20.36490631      28.31333923
O        8.82795143       2.49384713      29.23272133
H        9.61230755       2.02973819      28.84832001
H        8.33599758       2.81796622      28.45283508
O       16.12369728       5.74457693       3.62820339
H       15.73643589       6.64313555       3.75227094
H       16.63980484       5.75492144       2.79770279
O       19.80073738      10.68068600      21.13508606
H       19.51128960      10.88824368      22.04346275
H       19.17491913       9.97587776      20.85795212
O       28.07272339      22.29391861      25.40322304
H       27.63529968      23.08806229      25.03551102
H       27.88737297      22.31500244      26.36295700
O       25.19035530      24.77802849      17.61552620
H       25.54128456      25.31922722      16.88348579
H       24.96644402      23.92277908      17.18209267
O        9.67182064      15.38237953       5.74980879
H        9.68970203      14.57149029       5.21338558
H        9.29248810      15.12281609       6.63016272
O       14.83667088      21.81361771      22.40286255
H       14.05524921      22.01707649      21.84064484
H       14.57039547      21.96922684      23.33450508
O       14.04594135      20.01243782      11.27410793
H       14.73474407      20.68172455      11.02035618
H       13.19460201      20.32479668      10.91100979
O       12.84952927      22.95549202      20.53946114
H       13.23856163      23.85182381      20.58456039
H       11.92963886      23.01358032      20.87650490
O       19.62425613       8.01411915       6.44995737
H       20.34026527       8.63553715       6.68447065
H       19.97310066       7.48177624       5.70753860
O        3.83207154       3.70619464      17.03006363
H        3.44473577       4.56193733      17.31356621
H        3.16001129       3.29876661      16.44146347
O       28.41166115       7.45634604       6.31769085
H       28.77500534       6.61785030       5.97997713
H       27.61835861       7.62765408       5.76809788
O       22.58999443       3.28940749      21.34295273
H       23.13056946       2.75680494      21.96395302
H       21.66138840       3.07393837      21.59725571
O        5.14122963      25.17338562       5.53354788
H        5.12627077      24.76335526       6.41445589
H        5.48231936      26.12076187       5.67843819
O       28.47352791      13.35727024      14.05774212
H       29.01766014      13.82762814      13.39881134
H       28.91289902      13.46894073      14.92116547
O       14.31487846      13.86766911      13.57736492
H       13.66922379      13.33623314      14.10056782
H       14.12882423      13.67740059      12.63049221
O        7.72662210      25.41560173       4.40110111
H        6.89187145      24.92630005       4.56005192
H        7.55789709      26.25562477       4.93924713
O       10.36826992      27.37127304      19.98859406
H       10.24746799      27.74314499      19.09230614
H       10.08275032      28.04543686      20.63176537
O        7.88768959      22.32184601      12.61291981
H        7.60422802      23.12042236      13.09192848
H        7.46078873      22.34829712      11.72515106
O       15.43686771      13.17190170      26.01063538
H       15.05593204      12.26461697      26.05280113
H       14.90214825      13.70279503      26.63571930
O        5.12327099      18.75306511      15.23890018
H        4.96455002      19.56381226      15.76657391
H        4.29345846      18.59010315      14.74099731
O       26.80762482      17.38957596      29.74609184
H       26.20223618      17.17349243      29.01208496
H       27.11298180      16.51457214      30.06664276
O       25.67897797      10.94657135       7.13298607
H       25.94966316      11.88568020       7.23159218
H       26.49731064      10.46599102       6.89398718
O        9.25114155       8.64198112      17.22153664
H       10.08551979       9.14522552      17.11611366
H        8.66766357       8.98762131      16.51359749
O       17.27827263      12.36513329      10.20118237
H       17.37336922      11.39463043      10.24467278
H       18.19296265      12.72499371      10.20560646
O        6.09311438      29.46072006      28.53511620
H        6.99143505      29.28784561      28.18275833
H        5.51784229      28.80033112      28.10222244
O       11.46690464      23.24422646      15.78144169
H       10.93951035      23.97185516      15.38036823
H       12.27727413      23.69088173      16.10584831
O        3.53145790      13.52763367       5.75171280
H        2.99319339      13.02848625       6.39988804
H        3.43323159      13.06616592       4.90026903
O        3.23170996      19.99362755       3.50922871
H        2.82869148      20.63462257       4.12490988
H        4.09407902      20.35162735       3.21444964
O       15.78423977      24.69661713      21.70009613
H       15.81172752      23.75251007      21.97744560
H       16.64006042      25.08101654      21.96603775
O       28.02273178       7.03899193      26.59710503
H       28.90158653       7.39996958      26.37264252
H       27.35971260       7.61202335      26.16675758
O       28.96433640      13.51372910      23.62960815
H       28.60119820      12.61295414      23.52631378
H       28.36811638      14.09289455      23.10137939
O        3.54085565      17.19816971       4.59272432
H        3.65255523      17.84850693       3.87094069
H        3.22685885      17.71963882       5.35872459
O       27.72036934       8.80271244      14.43622112
H       27.13518906       8.07340527      14.16226387
H       27.38731766       9.64344788      14.03408718
O       11.18228245       1.79355240      27.87733269
H       11.61093140       0.95037699      27.63113403
H       11.12980270       2.38779974      27.09741592
O        3.17252445      28.54534912      25.82124519
H        2.44332838      29.15004921      25.57705116
H        3.41756344      28.11472511      24.97681618
O       16.56464767       6.90480566      23.34600067
H       17.15056801       6.62669468      24.12897873
H       15.91169357       7.49197721      23.76607132
O        2.91195798      27.26618385      13.37936115
H        3.63322616      26.63201332      13.16365719
H        2.26927638      27.08409882      12.66295528
O        6.23194981      28.91642570      23.78075981
H        6.14523792      29.03251266      24.74498367
H        5.73495722      28.11004448      23.53862762
O       17.79723930      12.28050995       2.83969688
H       17.62554169      11.81030941       2.00004745
H       18.69431114      11.97896481       3.11172438
O       27.22373772      19.45158195      19.41472626
H       28.12824631      19.81737518      19.38035011
H       26.82301331      19.56728172      18.53422928
O       18.13734436       8.23583412      20.57088470
H       18.88314056       7.59815931      20.56548119
H       17.84200859       8.26443481      21.50645828
O       27.59835434      23.57161903      20.48076439
H       28.31119537      23.24177361      21.06545448
H       27.45056534      24.52212143      20.68497849
O       11.84598923      12.37423325       8.23217869
H       12.53284645      12.93391132       7.80694103
H       11.17317581      12.15034676       7.55342913
O       20.17481804       4.98403788      14.55308056
H       20.27136993       4.08647251      14.94648552
H       20.79272652       4.98402309      13.79255772
O        9.87443733      24.92264748       8.28745937
H        9.02844238      24.89859581       7.79829550
H       10.07142067      25.87888336       8.43050575
O        3.86551094      24.96557236      18.78037453
H        4.15188694      24.02754021      18.65779877
H        2.89439988      24.89211845      18.91767883
O       14.19919300       2.95899343      21.16658211
H       14.27190495       2.26038599      21.85245895
H       13.62622166       3.65226054      21.54985809
O        8.82969093      19.54390335      10.92796707
H        8.09136868      19.50791740      11.58088493
H        8.42821598      19.31184578      10.07150173
O        8.75716400       8.53012371      24.34329796
H        8.79192448       7.69690847      23.83296967
H        8.54260159       9.22996044      23.68857956
O        5.78858328       5.92670202      11.75472832
H        6.30312967       5.90922785      12.58377266
H        6.43293047       6.20788908      11.07303810
O       17.71380043      11.77031517      27.64496803
H       17.62462807      10.86150932      27.29449272
H       17.19083786      12.33141804      27.03607750
O       28.89971733       0.99053925      16.89662743
H       29.21880341       0.38674673      17.59959793
H       28.88019753       0.45882848      16.07180214
O       24.47743797      23.13227272       9.49109554
H       24.90601158      22.80419159      10.34183025
H       23.58323860      23.41614151       9.76257515
O       14.82526016       6.37255621       6.64522219
H       15.61893559       6.19634104       7.18626785
H       14.56411171       5.50535345       6.25622272
O       29.18082619      24.98577309       7.25772810
H       29.36122513      25.58805656       6.50888395
H       29.14826775      24.09236336       6.85581636
O       27.57691002      25.33040428      11.39885712
H       27.16766930      25.21594429      10.51225185
H       28.31638718      25.95673370      11.28740501
O       19.03377533      24.77364349      21.20536995
H       18.67869949      24.48723412      20.34067154
H       19.68261147      25.48408699      21.00487900
O       20.65516472      12.61015511       6.53893280
H       21.44344330      13.12217712       6.27325153
H       20.57611847      12.73392487       7.50985909
O        1.38920712      27.09620476      20.23020554
H        1.01293731      26.33822250      19.73584175
H        0.64144957      27.47201538      20.75187302
O       14.95895290      12.24541855      29.38243103
H       15.07244110      11.31134033      29.12030983
H       15.77559090      12.68283939      29.06642532
O       16.86185837       7.59753227      16.27238274
H       16.93796921       8.17781353      15.49169827
H       15.92765903       7.63056898      16.56812096
O       11.31871033      12.78890419      25.99476433
H       11.52588177      12.26736450      26.79449654
H       10.74594402      13.54665375      26.24312019
O        0.86473393      20.49139977      25.93213463
H        1.06573522      21.34891319      26.34727859
H        0.09885658      20.10388184      26.41401863
O       16.33443260      21.90680504       1.92920971
H       17.14932632      21.45816422       2.23429990
H       16.61015511      22.47119331       1.17611337
O       28.40062141       4.39535618      21.72111702
H       27.55916405       4.68752909      22.12063599
H       28.54116058       3.46725082      22.01472092
O       14.12330914       1.52758431      18.56772041
H       13.80427170       0.76303571      19.08998299
H       14.30027580       2.23366809      19.22494316
O       15.42583084       4.73215151      25.24502373
H       16.11315727       5.29775476      25.71185875
H       15.55626869       5.03869486      24.32238007
O       27.54948044       8.05732536       9.14341164
H       26.69971657       7.61105824       9.32628536
H       27.86174011       7.76237297       8.26148605
O        6.08232498      12.68056393      14.60014248
H        6.65475416      13.05337811      13.90058804
H        5.34704971      13.31330299      14.70392323
O       22.30964088       2.07908773       2.36726546
H       21.46369743       2.49897075       2.61987185
H       22.86162758       2.83478665       2.07631898
O       17.49382591      15.24821758       1.89579248
H       16.90343857      15.04919052       1.14490187
H       17.69705009      14.37891674       2.30630803
O       19.48933983      20.04677391       7.36187887
H       20.37094307      19.61986542       7.42114735
H       19.63586235      20.96661949       7.66139936
O       22.60597801      28.70572853       4.49735117
H       22.38149261      29.07702827       5.37003613
H       23.35815239      28.10068321       4.66170549
O       28.22422600       4.11892986      18.72525978
H       28.33083916       4.22126102      19.69738197
H       27.26634026       4.06351042      18.56549835
O        6.63180065      15.41106701      26.81831741
H        5.79878378      15.63093376      26.35930252
H        6.67917728      14.42259979      26.80668640
O        7.37246132       5.77099085      17.73887825
H        8.28381157       6.11710548      17.76713371
H        7.38124943       4.86548615      18.11278725
O       20.51530457       9.02863503       0.42360890
H       19.75770378       9.06224728       1.04262578
H       20.91147995       9.91813564       0.43852428
O       14.90820217       5.06508541      15.14179420
H       15.04920006       4.16048717      14.78693390
H       14.19748878       5.42524529      14.56958580
O        1.42521155      29.56719589       6.70109797
H        2.38160300      29.49444962       6.91479921
H        1.14448285      28.63595581       6.62274027
O       16.38074493      21.31687927      10.80366516
H       16.72709656      21.86996078      11.53110027
H       16.85907745      20.45884323      10.81846428
O        6.50029802      17.68123245      18.91296577
H        6.06334972      18.53840256      19.08755302
H        7.00456524      17.79378319      18.06908798
O       23.17273903       2.31272507      24.17325974
H       22.76100540       2.47426462      25.04805565
H       23.64349937       1.45952928      24.25876808
O       26.85041428      15.00216579      25.59556961
H       27.72653198      15.28903294      25.92829514
H       26.33202553      15.83000088      25.59189224
O       28.14625359      22.74975586      28.36769867
H       28.89512253      22.28630447      28.79548645
H       27.45347977      22.82737541      29.05050087
O       28.15965462      22.85943794      17.34158707
H       27.78032303      23.18585396      18.18037415
H       27.39757347      22.67404366      16.75832558
O       26.90369225       3.45246124      15.86315823
H       27.53571892       3.96227050      15.32351303
H       27.42957687       2.73185635      16.26697159
O       25.97009277       6.95279408      19.24115181
H       25.13857841       6.45191526      19.14950752
H       25.80069733       7.84164619      18.84758949
O        1.28355908      24.53509140      13.77086163
H        1.46464229      24.57728195      12.80985641
H        0.46895728      23.99240112      13.85001373
O       22.15984344      23.44031334       2.28132963
H       21.54458618      22.68044472       2.38432574
H       22.08754730      23.73821831       1.35721898
O       15.22007942      27.21126366      24.73076820
H       14.81800938      27.69759560      23.98597908
H       14.78565788      26.32434464      24.76272011
O        6.63922787      15.08691883      20.42906952
H        6.65602446      15.97536373      20.01043320
H        6.32344580      15.24906349      21.34276199
O       22.58819389      16.25246811       5.58098412
H       23.22947121      15.62121773       5.20364666
H       22.84753227      17.13515854       5.23721552
O       21.08863449      27.76323700       2.00941539
H       20.60310364      27.77147484       2.85713983
H       21.71787834      28.50922585       2.08931732
O        6.69819021      12.71388817       5.96829081
H        6.22387981      13.27100754       6.61083841
H        6.02125645      12.40207863       5.33644295
O       29.35749054       1.63048160      21.86483383
H       29.23608971       1.08903480      22.67677116
H       28.73562622       1.24745309      21.21215248
O       10.24130058      23.34698677       5.51195383
H        9.48470116      23.28047943       4.89704895
H        9.87906265      23.00132370       6.36129761
O       27.73396873      16.60770035      10.59619808
H       28.18547058      17.08427811       9.86688423
H       27.61111450      17.26537895      11.30967426
O       16.24095726       2.61377478       1.67787230
H       15.83254147       3.24498916       2.29750657
H       15.87448597       1.73673236       1.92933774
O       14.56764126      10.02582264      19.92411995
H       14.32630062       9.12840366      19.61295319
H       13.74802208      10.55625916      19.88887024
O       19.40599442       5.19540787       5.47317028
H       20.11914635       4.76054049       4.96224165
H       18.57482529       4.74387407       5.23680258
O        6.47654915      18.92749786      12.20850658
H        5.68851233      18.99884796      11.63570690
H        6.16429996      18.75655174      13.11995125
O        2.50183940      10.47185802      22.30249023
H        2.69579291      11.38316441      22.61307907
H        2.38856196      10.55273628      21.33522034
O       12.01512718      22.48707581       8.12954426
H       11.42879486      21.80883026       7.72990608
H       11.60741138      23.35523605       7.92413855
O        9.86799717       1.19710302      11.40883636
H       10.23285198       1.87838054      12.01582241
H        9.45279503       1.72282982      10.69696140
O       22.89187622      23.82183075      21.22905922
H       23.17919922      23.56952858      20.32617760
H       23.40262604      23.22802544      21.82276917
O       21.44203377      20.23819733      24.85964012
H       21.69171906      21.18515205      24.81146049
H       20.48028755      20.15942192      24.99672699
O       10.97723007      15.38970566      12.57906151
H       11.18656158      14.52174091      12.18876171
H       10.03578854      15.56587696      12.32947826
O       26.73600006      13.92898178       7.65838718
H       26.62184715      14.76234245       8.16458225
H       27.04477692      14.20240784       6.77706814
O       24.95547676      20.18467712      25.45245361
H       24.98879051      20.95515060      26.05089760
H       25.46692085      19.48061180      25.92649269
O       22.41649437      19.14069366       7.07281971
H       22.61796188      20.06413269       6.81763792
H       23.21316910      18.86667824       7.56786299
O       14.96348476      20.58609390      18.88276100
H       14.30143738      20.84098625      18.21347046
H       14.54187679      19.89111137      19.43014336
O       14.86758232      16.92357826       4.05303764
H       15.72096539      16.86257935       4.52761316
H       14.68412495      17.88809395       3.97024965
O       21.32468224      26.44228554      20.52138519
H       21.87409019      27.24993324      20.62733841
H       21.95477486      25.71562767      20.33239365
O       10.28732872       5.70524645      21.04217720
H        9.99228764       4.81576300      20.76829910
H        9.46469879       6.22845459      21.17822075
O       29.29073715       9.25256634      11.61512756
H       29.33522224       8.95169926      12.54838943
H       28.75448418       8.61357117      11.10659313
O       25.64137268       8.81254292       1.24458444
H       25.15173149       7.97712660       1.38546741
H       26.26452065       8.87261677       1.99461496
O       23.67518044       4.76382971       7.53106833
H       23.57525253       5.13076305       6.62492132
H       24.60107040       4.46042919       7.60936499
O       24.47822189      11.00818348      10.18050575
H       23.63321114      10.64968395       9.84217739
H       25.18381119      10.63409615       9.61327457
O       12.64472866       3.12958932       7.65953112
H       13.20272541       2.55055285       8.22953224
H       13.30457687       3.56775117       7.08528566
O       14.80999851      19.59761620       0.98289806
H       15.32610035      19.29117203       1.75569415
H       15.02268314      20.54575920       0.85905337
O       12.68552589      16.23463440       6.18830061
H       12.10568142      15.98683357       5.44459105
H       13.16045666      17.04924965       5.92080975
O        8.76160526      20.48304367      19.80648994
H        7.78617764      20.54889488      19.70318985
H        8.96332455      19.52349854      19.79393578
O        8.11102295       0.82732838      21.19498825
H        7.71806574       1.67713535      21.49393654
H        9.06232071       1.02544320      21.04131699
O       12.61816692      25.09554482      10.70490551
H       12.43061352      26.01537514      10.42785835
H       11.79174137      24.60014915      10.56072140
O       25.35256958      22.01052284      21.10558319
H       25.43697357      21.25056267      20.49321938
H       26.01678276      22.67257690      20.80578995
O       14.30087280       0.14709429      26.90172005
H       15.12631321       0.67080557      26.82511902
H       14.00494576      -0.00307669      25.98504066
O       18.61239624      25.01966095      27.98571587
H       18.21563148      24.20722771      27.60793686
H       17.92702675      25.71423340      27.87687874
O        0.51815283      29.09364891      14.73750210
H        0.30439341      28.25277901      15.19009686
H        1.20999455      28.85796928      14.08820820
O       10.99097919      26.03022003       5.02714729
H       10.36134911      26.68637276       5.38473511
H       10.68496418      25.16792679       5.40927172
O        2.50001311      18.29545975      17.34176826
H        3.02928877      19.11181068      17.47798157
H        1.63639414      18.60407257      17.01348686
O       21.86594963      17.64985085      28.02256966
H       22.27533531      17.61528587      27.13747978
H       20.99425697      17.20650673      27.94824600
O       17.57161713      15.88001728      17.01687813
H       17.88023186      15.08244324      16.54107475
H       17.73255348      16.61441612      16.38983536
O       21.42975998       5.01302910      27.08169937
H       20.74775696       5.51835918      27.56699944
H       20.88775826       4.28331280      26.70704460
O        2.25215721       6.36022043      14.74634743
H        2.11443257       7.31477690      14.96895790
H        1.41947818       6.07119465      14.33120155
O        2.17909575      19.05934143       0.95058352
H        2.33588457      19.44766808       1.84362233
H        2.14944553      18.09271049       1.07632172
O       10.59408760      24.37376595       2.49923706
H       10.50107384      25.08151817       3.17524457
H       10.93583584      23.58386230       2.97041488
O       23.77403259      14.42160130       3.54003119
H       23.06218338      14.12167454       2.93930101
H       24.57093239      13.90035629       3.31132197
O        9.51703072      25.05759811      13.83676434
H        9.88730335      25.68221855      13.18178463
H        8.88037872      25.58737373      14.36695480
O       13.65733051      17.44979858      29.24302673
H       14.24116516      18.19083023      29.51335716
H       12.96213150      17.41109657      29.93008232
O        4.38569546      29.37582207       6.03191853
H        4.91854429      28.57625771       5.68683863
H        4.08884048      29.78091431       5.19319582
O       22.03284645       8.66389847      26.72063446
H       21.06936264       8.82889175      26.80003166
H       22.21825027       7.88868475      27.28350449
O       22.74268913      11.65369987      16.38370895
H       23.04923439      12.00707531      17.24289513
H       21.79398537      11.44230747      16.50724220
O        3.67406559      19.94151306      24.45955086
H        2.80803943      20.29362679      24.17495728
H        3.43672705      19.28520012      25.14360619
