1344
Lattice="29.540000915527344 0.0 0.0 0.0 29.540000915527344 0.0 0.0 0.0 29.540000915527344" Properties=species:S:1:pos:R:3 pbc="T T T"
Na      29.18921852      27.79795837      20.00110435
Na       7.17869329      28.90343857      28.54386711
Na      17.79203033      23.03489685      11.65506268
Na       4.29538774      19.42049789       9.03841114
Na      18.07807541      10.21080875      26.02280426
Na      23.83067131      13.64307213      23.16329384
Na      25.26918221       4.13829327       2.38410711
Na       0.14607270      24.56552124      13.24006271
Na      21.81935120      20.04716682      23.25989532
Na      29.39995003       2.81159329      18.39598846
Na      16.97923851       0.08664700      29.63634300
Na      10.34282303      25.29407120      12.28253460
Na      18.32321358      18.80281067      20.04853821
Na       3.43196177       8.09227753      15.17331696
Na       0.54783034       9.66066074       7.12839174
Na      18.72327042      25.76276016      28.43752861
Na      17.46060181      14.89321327      18.10919380
Na      24.69026947      19.26503372      25.23128510
Na      13.84656811      20.27271843      21.36927032
Na      25.47501755      24.75096130       6.33655453
Na       3.86488795      15.17460728       4.37242937
Na      21.47077370      18.28515434       7.75703669
Na       7.00549030      10.91231346      27.00953674
Na      12.99622536       2.42522120      17.34663200
Na      19.93484306      17.16752625      12.38558102
Na      13.79564285      23.03998756       1.18678200
Na      -0.15033093      14.70379353       6.79829359
Na      26.17772675      24.16001511      10.38581562
Na       7.29407930      22.45512962      29.00035858
Na      10.56409359      17.94862175      17.27543259
Na      25.24060059      14.19106197       5.63068056
Na      19.29247665      27.48134422      13.13849735
Na      14.90637112      26.93206024      24.83753014
Na      25.47449303       6.47555017      27.34212112
Na       8.99869442      12.45283508       3.79968047
Na       2.91573191      28.41663361       8.04491138
Na      13.09649277      14.42580509       6.57027245
Na       5.67156410      18.20912743      26.48383522
Na       6.97788858      23.03176689      14.98008919
Na       0.71022433      18.51857376      18.19085693
Na       1.06314552       2.29148364      23.56428146
Na      25.67371178       2.45499325      22.10758400
Na       6.08584070       7.02248716      12.75708199
Na       0.37614381      23.79770851      18.68402290
Na      13.00462341      20.35894012      12.87558937
Na       9.66502857       8.09548569       9.39945984
Na      22.48541832      11.82922268       9.04308033
Na      20.28360367       5.61945343      13.27407265
Na      12.10525799      14.14841366      11.14845276
Na       5.58545446      19.16945648      13.83365536
Na       6.65466833      25.75171471      12.24364662
Na       8.21506310      10.89222813      11.65143204
Na      25.03424263      17.44631004      14.68905544
Na      24.41173935       7.40929604       2.46421838
Na      20.41099739       8.66486263      22.01330757
Na       7.13579035       1.05951309      25.47694778
Na       7.66941404      13.13871861      22.95661354
Na       8.08150387      16.60008430       2.57341170
Na      12.63255978      16.20506859      29.43878365
Na      22.01704025      22.25927734       1.36162269
Na      24.61847305      17.73198509      10.43480396
Na      16.38544273       3.40136504      21.93417168
Na       8.18823242      24.84808350       6.25886345
Na      27.32016563      19.47534180       4.83593512
Na      10.44283390      26.42010307      23.81561089
Na      16.87570190       1.73617136      25.05896950
Na      10.52617550      20.80104637      23.67524719
Na      26.92529869       5.85380602      20.37222481
Na      19.18264961      23.97916412       7.00757790
Na      12.23891068      22.89468575      19.41230965
Na       4.21650743      28.06334305      27.18107033
Na      16.20347595      13.94966888      23.10691833
Na      15.19392681      28.82139015      10.74989891
Na       1.40688753      12.19197464      27.67477608
Na       5.70433187      14.90916443      14.36270618
Na       8.38281059       9.70559216      17.40054131
Na      14.47947407       7.37912941      11.71923542
Na      25.24863625       1.93465447       7.94480562
Na       3.13752270      10.05346107      21.31675148
Na      16.24574661      12.75325871      29.09581375
Na      15.63543892      11.90013218      19.66935349
Na      26.92229080      27.18811417       4.39087677
Na      12.29272938      27.22683525      15.07750511
Na      20.50931168       3.04850054      18.82598305
Na      27.03637505      16.88068008       8.17210102
O        8.83723545       3.36709619      15.20092297
Cl      10.01116467       3.59989548      16.05828476
O        9.68343735       4.41985130      17.22474289
O       11.07854080       4.22775555      15.25501060
O       10.55714226       2.25733685      16.53854752
O       24.97569275      11.38952160      11.09915733
Cl      23.78632355      11.57651711      11.94989681
O       24.07258224      11.12308598      13.33918095
O       22.60710526      10.90965748      11.34856701
O       23.49055672      13.05794811      11.99501514
O       12.23063374       2.51580262      12.61614799
Cl      13.59308338       3.03963757      12.96653175
O       13.95260620       2.49428940      14.35750961
O       13.60874557       4.51736498      12.98809528
O       14.57005310       2.54369450      11.95034027
O       27.26180458      22.43964195      27.48551559
Cl      25.91353035      22.36536217      26.90207863
O       25.77331161      21.09589195      26.13838577
O       25.64121056      23.51391983      26.00966644
O       24.85597992      22.37133217      27.98052216
O        2.57025623       6.59187365       5.18585920
Cl       3.26492882       5.29555845       4.96250582
O        3.96589160       5.34137678       3.68192291
O        2.26870990       4.21185350       4.95981884
O        4.25118685       5.11029196       6.06628704
O        7.29574966      17.69487381      19.78118324
Cl       6.22761869      17.94411469      20.76388741
O        5.28978825      16.78759956      20.75118637
O        5.51007080      19.17889214      20.39391708
O        6.77982807      18.09453011      22.13457298
O       11.66547585       3.41867113      21.90407562
Cl      12.20682240       2.78352547      20.67898750
O       11.42582703       1.55825615      20.34608078
O       13.64236259       2.41292858      20.89881134
O       12.11753273       3.73498440      19.54460716
O        5.25072432      13.13500786      12.52392483
Cl       3.82900929      12.80858231      12.23863411
O        3.72727799      11.63408470      11.31427097
O        3.19413781      13.95584488      11.54364491
O        3.07965899      12.53999329      13.50054646
O       12.29135323      14.23973465      20.46069908
Cl      13.01840019      13.67808247      21.61735344
O       13.83168507      12.49401569      21.16225052
O       12.05077362      13.23646355      22.69325638
O       13.96018696      14.69068336      22.20306015
O       16.19562912       6.64535618      20.49697685
Cl      14.91248894       5.86909819      20.57176018
O       15.00422192       4.72687340      19.60612488
O       13.79128361       6.75038004      20.20196533
O       14.77565479       5.28993607      21.94973946
O       23.68133926       3.59749818       3.88472819
Cl      23.94109344       3.52854776       5.35112190
O       22.64473724       3.65372229       6.05376577
O       24.84902954       4.63185024       5.74729776
O       24.63221550       2.21812439       5.61806965
O        3.34133172       9.36276245      29.81681824
Cl       3.59941888      10.15301323      28.57380295
O        4.90256453       9.72388649      28.01884460
O        3.63222480      11.62799263      28.91197205
O        2.48229909      10.06152630      27.57356453
O       29.12464333      19.73928261       8.93304443
Cl      28.13380051      19.62585068       7.85126209
O       28.00408745      20.85688972       7.03224134
O       26.77756119      19.30514717       8.41471767
O       28.48239899      18.49462318       6.92836046
O       10.14022541       9.60208988      12.26694584
Cl      11.57207012       9.41371727      12.61033535
O       12.02419376       8.13368225      11.98521423
O       11.77819061       9.40733528      14.07835293
O       12.35962009      10.53480244      12.04238987
O       27.85801125      23.48197937      17.11389923
Cl      28.02437592      24.31079865      15.88543987
O       28.12293625      23.47690582      14.65462112
O       29.33979416      25.06211281      16.00116348
O       26.96273613      25.32930565      15.72307014
O        1.55574191      21.47643852       7.74027920
Cl       2.22385621      20.72883797       6.64877892
O        3.66076231      21.13696289       6.62248325
O        1.55839205      21.00645638       5.37811470
O        2.18847823      19.25936317       6.92501640
O        7.73271894      26.13030815       8.80376244
Cl       8.80596352      25.34418297       9.43416405
O        8.30271435      24.72308159      10.70868587
O        9.96268749      26.21323013       9.80184746
O        9.24670506      24.31749535       8.45782948
O       26.88268661      23.01695061      19.42832756
Cl      25.41486168      23.04493332      19.57719612
O       25.09171486      23.43465424      20.98523331
O       24.82061386      21.70224571      19.30663300
O       24.80671692      24.03191185      18.66730690
O        6.95027828      20.71145439      18.24441719
Cl       7.15939713      20.14127731      16.89887810
O        7.92013025      18.84964561      16.90558052
O        7.91591930      21.12863159      16.06280136
O        5.83021593      19.89433289      16.20964622
O        8.13229275      25.99213600      14.00523376
Cl       8.80166626      26.05298042      15.35534477
O        8.09656906      25.04882431      16.22974777
O        8.64840603      27.41947556      15.91045856
O       10.25119591      25.78441620      15.13632393
O        1.83890390       4.73079872      20.17774200
Cl       1.01665711       4.70313358      21.42611313
O        0.22877201       5.96853590      21.49252319
O        1.87656486       4.51743412      22.62570763
O        0.06615372       3.55302978      21.31656456
O       21.77803040      16.30698013      25.60432243
Cl      21.87484932      17.53013420      26.46953583
O       23.18284607      17.54650497      27.19435501
O       20.71640778      17.59302902      27.37894630
O       21.84951019      18.71624756      25.55679703
O        6.83882093      12.09033489       8.31130886
Cl       6.95598745      10.57899475       8.22580624
O        6.96301651      10.20293522       6.78661823
O        5.79897165       9.92574787       8.93079281
O        8.24584675      10.18860245       8.90205479
O       29.03341675      27.72342682       8.10887432
Cl      28.15777588      26.54620743       7.90516567
O       27.33327103      26.31488609       9.14083385
O       28.91444588      25.34408760       7.52255917
O       27.17392159      26.89348412       6.79019070
O       12.89453125      17.16708755      18.60385704
Cl      14.08579159      17.67927551      19.31917763
O       15.27252293      16.75105095      19.07535934
O       13.89398766      17.78731728      20.80725861
O       14.42609024      19.03648758      18.81503105
O       14.54045200      20.55548477      16.76640320
Cl      14.49212265      22.00278282      16.41215897
O       13.20959377      22.57036018      16.91715813
O       14.54873466      22.19336510      14.93581486
O       15.63640308      22.69554329      17.05325317
O        7.80086231      19.13935661      27.00027847
Cl       8.45157051      20.37952042      26.45906258
O        8.57269096      20.23913956      24.98694992
O        9.78803635      20.61739540      27.06681633
O        7.57861090      21.53950119      26.80362320
O       23.52745628      18.42678452       5.96426535
Cl      24.55946732      17.39476204       6.29720163
O       24.66445923      17.31328201       7.80405378
O       25.94068718      17.80652428       5.84988260
O       24.24574089      16.16674995       5.51567936
O       15.13609028      24.44877243       7.20212460
Cl      16.08494759      23.97159576       6.17204714
O       15.38360977      23.75043869       4.87993956
O       16.74340630      22.72026062       6.64809179
O       17.13718796      24.99725723       5.97395992
O       17.99667168      19.64245033      13.32651520
Cl      19.12795830      20.39989090      12.74981594
O       20.44746971      19.69796181      13.01757240
O       19.16380310      21.77279282      13.31974316
O       18.99072266      20.51091766      11.27985382
O        6.63932037      27.81879997       6.98359585
Cl       7.85841942      28.21781349       6.24622774
O        7.59335232      29.45851135       5.49819994
O        8.18993378      27.11109352       5.27821684
O        9.00868416      28.39960670       7.16202259
O       25.43085670      25.09553337       3.39025116
Cl      24.01504326      24.57535744       3.33553076
O       23.77455711      23.93363380       2.01965523
O       23.09192848      25.70196342       3.57112765
O       23.87831879      23.58521652       4.47650051
O       10.55151844      14.06600666       3.34238410
Cl      11.19174480      15.41754055       3.40894294
O       10.16500950      16.40119743       3.94195533
O       11.49586964      15.84215450       2.00460792
O       12.40377140      15.43580341       4.26828527
O       17.16908264       4.07608414       6.43320608
Cl      16.27225685       5.25908089       6.59834290
O       16.81102943       6.37164259       5.77808142
O       16.19814301       5.71011877       8.01060772
O       14.91629314       4.93521500       6.09486103
O       18.48258972      29.57897758      25.53373909
Cl      17.86131096      28.53960037      26.41754341
O       18.84888458      27.87829971      27.33593559
O       17.12550163      27.55223846      25.59265900
O       16.87553978      29.31293297      27.29956436
O       22.78417015      16.79080772      22.66054916
Cl      24.20244598      16.64164543      22.21803474
O       24.55493355      17.77703476      21.35976601
O       24.33206367      15.35869884      21.45089722
O       25.09317207      16.55520248      23.43198204
O       20.08901024      24.30836678      10.39457130
Cl      21.23993301      24.45318031      11.32648468
O       20.83692360      24.02541924      12.69683743
O       21.67617989      25.88930321      11.34253502
O       22.38999557      23.60793686      10.81365108
O        2.54467559      17.14566803      12.66744518
Cl       3.74146008      17.09929466      11.77646446
O        3.40665054      16.44299698      10.48343658
O        4.91540432      16.43808746      12.42327118
O        4.13004303      18.52180290      11.48257828
O        4.41258383      18.47869492      24.44820976
Cl       3.14145684      18.21630859      23.67328644
O        3.03524232      16.74880219      23.43210793
O        3.19296455      18.93383789      22.38918686
O        1.97762156      18.68696785      24.47545815
O       10.17220974       6.90282822      14.01636982
Cl       9.01374054       7.21856165      14.86919975
O        9.20910645       6.76332235      16.26560783
O        7.81139374       6.53766441      14.28248978
O        8.75449944       8.67984486      14.88170815
O       15.18466854      25.97134399      22.21251869
Cl      15.17966270      25.34524345      20.83774757
O       16.16557312      26.01252174      19.96349335
O       13.80739784      25.56539345      20.26649857
O       15.43859100      23.88743210      20.94652557
O        8.93933582       4.31033421      26.49400902
Cl       8.93169785       4.43532705      27.96279716
O        9.64686298       5.69349718      28.33537483
O        9.65190792       3.28222275      28.57713509
O        7.54763174       4.51237106      28.48110390
O       25.72386932      21.36785126      13.52949238
Cl      25.08977699      22.71953201      13.87460899
O       25.34119606      23.06153679      15.28380680
O       23.63829422      22.60963058      13.59332657
O       25.69784164      23.72399330      12.94651890
O        9.73200226      19.84521294      21.67127609
Cl      10.32052326      19.07688332      20.53090668
O       11.73138142      19.55780602      20.34125328
O        9.56661320      19.31830788      19.28653145
O       10.36303902      17.62446213      20.84131050
O        6.93524313      11.86401463      18.91683388
Cl       6.41183662      11.64085960      20.28840256
O        5.11386013      10.91904259      20.18734360
O        6.14920235      12.95552540      20.96558952
O        7.41748667      10.89072323      21.08666801
O       20.35654259      10.90158081       8.42695141
Cl      19.51463509      11.68611336       7.45707083
O       18.13714027      11.14497852       7.43485737
O       20.11682510      11.65245247       6.11486435
O       19.46012306      13.09900475       7.95542145
O       23.10197830       2.24606204       9.53211021
Cl      23.70655823       3.50706720      10.04084682
O       24.25908279       4.22180939       8.85028648
O       24.85009384       3.21788144      10.94679546
O       22.69863510       4.35560942      10.69158745
O        5.14222908      10.49813461      25.54214287
Cl       5.30951595      10.34015942      24.05186081
O        4.23605299      11.11438179      23.35044479
O        5.23822117       8.91669464      23.64439392
O        6.64042330      10.90015507      23.69114685
O        9.35284615      23.31092072      14.74183464
Cl      10.16501522      22.47295570      13.80786419
O        9.28596687      22.07985878      12.68046570
O       10.73505497      21.25094414      14.45965576
O       11.32102585      23.28145027      13.30123711
O       15.57172203      18.08063126       2.43253446
Cl      15.43640995      17.95958710       0.95543581
O       16.26143646      18.99375534       0.29673907
O       13.99601460      18.17816353       0.60221088
O       15.86011791      16.62133408       0.48634022
O       13.75558376      23.81590843      23.83787727
Cl      12.44301128      23.58081055      23.15788841
O       12.61565208      22.60113335      22.04042435
O       11.92910290      24.86858940      22.63351440
O       11.45017624      23.01757431      24.13994217
O       21.94670677      14.29184532       8.80522919
Cl      22.62849045      14.74036980       7.55138302
O       22.33248329      13.88699055       6.39125252
O       24.11380959      14.66773987       7.79900646
O       22.17316818      16.14323044       7.27365971
O       24.39929771       1.15248275      17.07056618
Cl      25.68165779       1.80559587      16.71541405
O       25.93664742       1.79072666      15.26984501
O       26.82025337       1.12229109      17.45321274
O       25.61275482       3.23902655      17.19811821
O       14.41348553      15.93596268       8.30257893
Cl      14.83514595      16.25873375       9.68516350
O       16.27124786      15.84619999       9.88503551
O       13.99350357      15.49854469      10.65441132
O       14.71961021      17.71061707       9.92656422
O       20.72484207      22.57699394       5.17351055
Cl      19.87868690      22.93175697       3.99281764
O       19.34780121      21.73571587       3.30153394
O       20.69974709      23.71564293       3.00746465
O       18.78730392      23.81859016       4.47022295
O       16.37015152      26.89699173       8.73349190
Cl      17.72830391      27.40295410       8.39732456
O       18.20430374      28.27679062       9.53138065
O       17.67205620      28.16283798       7.13501644
O       18.71372986      26.27773285       8.26402950
O       21.01058388       7.14940071      10.88063240
Cl      19.73606300       7.12936354      10.11448097
O       18.64055443       7.62796307      10.99833012
O       19.44108009       5.74615335       9.65008450
O       19.84706688       8.02163601       8.93818665
O        2.75933456      29.01407623      23.21953201
Cl       2.24251723      28.35131645      24.45865250
O        0.84400445      27.90937996      24.20632172
O        2.25362158      29.37601089      25.55629158
O        3.15172768      27.21605873      24.82723808
O        2.29572797      25.19933891       2.59044290
Cl       2.36192560      24.04369354       3.49873257
O        1.86400211      22.85386276       2.77978230
O        1.49263775      24.29781151       4.65687561
O        3.76019740      23.83989906       3.93289781
O        4.21805954       4.30870295      15.74641800
Cl       3.26988864       4.55646896      14.60690308
O        2.77664638       3.28883386      14.02691746
O        4.00801754       5.31960678      13.56053925
O        2.13608098       5.39275837      15.09048939
O       28.93155098       5.01493645      24.28454208
Cl      27.59129524       4.48441982      23.93029976
O       26.66688347       4.49683571      25.09884834
O       27.71145821       3.03266644      23.46344757
O       26.96047974       5.25202513      22.80757904
O       20.66073227      25.29566002      26.56792641
Cl      19.70346260      24.55398369      25.64447403
O       20.25633812      23.21557045      25.38018990
O       19.48250771      25.31991768      24.43112183
O       18.40608978      24.45318031      26.39347076
O       11.48243999      15.25277233       8.81413364
Cl      10.90954208      16.64748192       8.73144722
O       10.85320854      17.03818321       7.29879475
O       11.71370125      17.61149979       9.51123047
O        9.52350998      16.60203934       9.29743290
O       17.03746414       1.21075845      14.04264832
Cl      18.34012794       1.52187216      13.31415844
O       18.12274551       2.50330544      12.23967838
O       18.83827400       0.25248897      12.69162273
O       19.27621460       2.06143427      14.34378433
O       13.33134937      16.26266098      15.25896645
Cl      12.92049503      17.29150200      14.24935246
O       12.82189846      16.67832756      12.90463352
O       13.90800381      18.40711784      14.21303272
O       11.57979012      17.83727074      14.61884594
O        8.33639526      24.65755272      19.91160393
Cl       9.52546692      24.76961899      20.80431175
O        9.55825806      23.59871101      21.71651840
O        9.41884995      26.02973938      21.62036514
O       10.73895931      24.85166740      19.96791458
O        7.41132593      10.60065937      14.06634331
Cl       5.96801996      10.31697845      14.25108910
O        5.37181807      11.35933590      15.11887074
O        5.76479292       8.96030617      14.87821198
O        5.32756567      10.28460979      12.91017056
O       13.41545582      18.64524078      24.93117905
Cl      12.35584831      18.32351685      25.94700241
O       11.04888630      18.11283875      25.25849342
O       12.25005150      19.48985100      26.87997246
O       12.72400570      17.08143616      26.71119118
O       15.44649696      11.05910301      17.20208168
Cl      16.47193527       9.96143150      17.16644096
O       17.23044586      10.01677322      15.89987469
O       15.79382610       8.65044689      17.32285500
O       17.40386581      10.20385075      18.33052063
O        8.77542019      27.64786339       2.54239798
Cl       7.44513893      28.05191422       2.06295562
O        7.61938429      29.28397942       1.21784043
O        6.45416260      28.32476044       3.10121298
O        6.93084478      26.96529007       1.14052474
O        3.37787604      18.39584541      18.52513313
Cl       3.66356683      17.14909554      17.75545692
O        3.26930141      15.94314766      18.53419876
O        5.06105614      17.05058479      17.33081818
O        2.79424334      17.25256729      16.53070831
O       12.31023502      23.51320839      10.23526287
Cl      11.81903172      22.21509361       9.68771076
O       12.12040615      22.14347076       8.24055099
O       10.36196423      22.08508301       9.89521980
O       12.54758263      21.10853767      10.41283703
O       21.82739067       1.36626780      12.22620964
Cl      22.44346428       1.82226205      13.48838139
O       21.98681641       0.93043590      14.61411095
O       22.01893997       3.21496606      13.77335262
O       23.90522194       1.76360869      13.39067459
O        5.10701084      25.11864471      10.35868740
Cl       4.80143738      26.53602600       9.95038891
O        4.80388403      26.68284416       8.49021912
O        5.80055714      27.42895126      10.60637569
O        3.43596029      26.90280533      10.46741486
O       26.75458336      19.52018929      20.96067429
Cl      26.85907936      19.91263771      22.39295769
O       27.54430962      18.81775856      23.15071678
O       25.49761391      20.11294746      22.96411514
O       27.62629700      21.15275002      22.49500847
O       13.94059181      13.26813126       3.46174622
Cl      13.94287205      13.04546165       1.99856281
O       14.37174892      14.26303577       1.26090932
O       12.57012367      12.69555664       1.52634573
O       14.87483120      11.93116283       1.60140777
O       15.51008987      15.11930656      26.52926064
Cl      16.91386032      14.63793850      26.47418404
O       17.66069603      15.46245098      25.48093605
O       16.95477486      13.20932865      26.01939201
O       17.54125977      14.69420719      27.85193443
O        2.51878071      22.93062592      23.49828529
Cl       1.30001009      23.51115227      22.87608910
O        1.58406329      23.78311920      21.42283249
O        0.94711858      24.80557823      23.52199745
O        0.14474268      22.59151840      22.94543266
O       10.79783249      12.15743542       8.09359646
Cl      11.24354458      11.48702335       9.34479141
O       10.37498379      12.00365829      10.45843315
O       12.66653919      11.85843945       9.59446335
O       11.10557079      10.00747299       9.18642902
O       24.27481842       5.73460388      19.41914749
Cl      23.63818359       4.41587734      19.77420807
O       22.70276833       4.67318821      20.92027855
O       24.72797585       3.44940758      20.17263985
O       22.83767128       3.92227364      18.61269379
O        2.83564448      26.95382690       5.95500278
Cl       2.74780607      28.02626801       4.92615080
O        3.45696330      27.65143585       3.70549202
O        3.37908721      29.26000023       5.51215076
O        1.33254004      28.33078575       4.62157822
O       19.25103188      23.13306999      20.13271523
Cl      19.33803177      23.70661736      21.50374985
O       20.75975227      23.85291862      21.92663002
O       18.61383438      22.82729912      22.46381378
O       18.74480438      25.04473686      21.51217079
O       21.55735016       9.45466900      13.19198990
Cl      20.71922112       9.27033138      14.38725662
O       20.94285393       7.93455839      15.02156353
O       19.27840042       9.39983940      14.02010536
O       21.09038162      10.31797218      15.39779282
O        6.30335426       8.46069050      18.85893250
Cl       7.07618284       7.51794481      19.73124123
O        6.47052956       6.16133451      19.52563095
O        6.93124533       7.93311405      21.14054298
O        8.49657536       7.56963301      19.31151581
O       18.26896286      11.58895588      22.86908340
Cl      17.40664864      10.42470551      22.45261192
O       18.13541412       9.64148998      21.41133308
O       16.12023926      10.93410301      21.89169312
O       17.12588882       9.57826042      23.66942215
O       10.80540466       0.26040277      11.55113983
H        9.86447811       0.32966414      11.80133724
H       11.30248356       0.95306468      12.05036545
O       19.89853287      25.84648895       1.23389912
H       20.15517807      25.16610527       1.90177357
H       20.62105179      26.50233650       1.24353266
O       23.98059654       8.14169121      21.87374878
H       24.64199448       7.45966196      22.11758041
H       23.61131477       7.80477476      21.03208923
O       27.60034752      10.02978802      17.26160622
H       27.29519844      10.28738403      18.15055466
H       26.85164261       9.52816677      16.87497520
O        9.94489002      13.12808418      18.70616150
H        9.99905777      12.90825081      19.65650940
H        9.10145760      12.74502182      18.39807892
O        8.26666069       0.43809915      16.35672569
H        8.64280033       0.87429065      17.14593887
H        7.95299673       1.18689942      15.81398582
O       17.21539497      12.54642963      12.53003216
H       17.47144508      12.02164841      13.31543064
H       16.54970169      11.99794674      12.06823158
O       11.19686985      14.25357342      15.67647552
H       11.84866047      14.57944584      15.02207088
H       11.40775394      14.73242950      16.50249672
O       19.87127304       6.39086342      25.13887405
H       19.36137009       6.63959646      24.34752655
H       20.65907669       6.97466850      25.18363190
O       13.97207260       3.57081246       9.08200455
H       13.08361244       3.16301990       9.00665188
H       14.31683636       3.28425527       9.95205021
O       15.75113392       6.22625971      15.71442604
H       15.40311050       5.33971262      15.93529797
H       15.31554604       6.89203835      16.28086472
O        5.22498035      17.85039520       4.28118229
H        5.93238974      17.69325829       4.94621468
H        5.00265789      18.79560280       4.37280035
O       13.97234249      13.85605145      18.00154495
H       13.46235561      13.15308285      17.55773926
H       13.38650417      14.21634674      18.70085335
O       19.69255257       6.50998449       6.30133915
H       18.99329567       5.84752655       6.45666027
H       20.23399353       6.55072021       7.12017584
O       14.70024395      12.11478996      24.26202583
H       13.85033512      12.50532246      24.56243324
H       14.53345966      11.65977097      23.41227341
O       11.66612816       9.11650467      18.90310287
H       12.10546398       9.38516808      18.07180214
H       11.18119431       8.29345894      18.69040489
O        7.84913683      20.21257210       5.46314240
H        8.01194477      20.36534691       6.41759348
H        8.71269226      19.94980812       5.09205389
O       23.17614174       9.61067390       8.12203979
H       23.36236763       9.10977459       7.29058456
H       22.32543945       9.24954033       8.44351292
O       22.46207619       6.55961180       1.45568061
H       22.37969398       5.95690155       0.69224620
H       21.78167534       6.36274576       2.14033890
O       28.56180191      27.77423668      26.54520798
H       29.18637848      27.57157135      25.81334686
H       28.54897690      28.75083160      26.60618401
O       22.40550613      11.75953102      22.66820145
H       22.40098000      11.81907940      21.68778610
H       21.51561737      12.05637360      22.94188499
O       14.17771816      27.57451248      16.78480339
H       14.56450462      28.37461281      16.36555290
H       14.80406761      27.30665207      17.48476601
O       20.19376183      13.42935658      13.73456478
H       21.10581589      13.13992500      13.95692158
H       20.12561989      13.41451836      12.75702000
O       27.52863121      20.95636368       2.91152620
H       28.29901314      21.55595207       2.89642239
H       26.72900009      21.51440048       2.87753034
O       24.90821838      20.24722672      10.82149887
H       25.57121468      20.66308784      11.40722370
H       24.00609207      20.54863167      11.16559410
O       11.63387299      22.21386719      29.30030441
H       11.34414768      22.62644958      28.46164131
H       11.86569881      21.29563904      29.04727364
O        2.52951097      22.43562126      18.73991394
H        2.10532832      21.70031548      19.24503708
H        3.30032468      22.65545273      19.31921387
O       14.55990410       8.72945881      14.13660049
H       14.27159500       9.64519024      13.95155239
H       13.74251747       8.30505276      14.46054745
O        0.84854579      15.33490753      10.14407730
H        1.09905565      14.47738171      10.54714108
H        1.69641888      15.84491158      10.17134190
O       22.45527840      20.94453239      11.26875973
H       22.36713409      21.92803955      11.14150715
H       21.84011078      20.69195366      11.99064159
O        7.49112225      16.22532463      16.02260971
H        7.31357861      17.16293907      16.26705551
H        7.39902496      15.74883842      16.87017441
O       21.80235291      17.36945534      16.46871758
H       22.60785675      16.93633461      16.82427979
H       22.04449081      17.75852013      15.60144138
O       15.85448170      17.53588295      24.02759743
H       16.22558594      16.87671852      24.65233803
H       14.90314770      17.64445114      24.24621391
O        5.24001837      10.50671768       2.02558374
H        5.97920561      10.15009785       1.49762857
H        4.44657040      10.04741383       1.66520202
O       11.29879475       2.72266293       9.35900116
H       11.21046066       3.34176517      10.10870552
H       10.86816311       1.89179683       9.64193058
O       19.04744339       0.23934269       4.44630718
H       19.11007118       1.21930695       4.51921940
H       19.18861771      -0.10227589       5.34816122
O        1.88771665      10.00121784      14.36242580
H        2.32748222      10.87882710      14.35922146
H        1.54591978       9.91046524      13.44818878
O       26.75414848      14.25981045      28.11151886
H       27.73314667      14.20721531      28.15264320
H       26.53954315      14.59618855      27.21415710
O        0.52108401      13.83003807      15.12166214
H        0.40575624      14.32575893      15.95444870
H        0.13046844      14.37790680      14.41529083
O        1.44822824      28.94375038      11.08455753
H        2.26990175      28.40480423      11.12675285
H        0.81065756      28.42383194      10.55692291
O       14.86268044      28.68967438       5.92131615
H       14.50076294      27.96381760       6.46856833
H       15.82155418      28.69985580       6.14021111
O       20.06122780      13.27379227      27.96977234
H       20.75361443      13.53491688      28.61195183
H       19.31349945      13.89187050      28.10343742
O       16.70290756      16.32504463      21.54836655
H       16.05616760      16.41756248      20.81982994
H       16.36425209      16.89422417      22.27600670
O       17.77161598      17.67069435      17.27535820
H       16.84192467      17.53873825      17.00187874
H       18.06881905      18.49360657      16.84047699
O       26.63947296      23.31125641       7.90739822
H       27.56328583      23.19127464       7.60849905
H       26.17765427      22.44534302       7.79433107
O        6.18632746      22.28263855       9.90310097
H        6.83429813      21.69959641       9.44492340
H        6.06437063      23.05808830       9.31858444
O        9.37796402       5.97656441       7.36663532
H        8.61575603       5.70579624       6.81176519
H        9.76899338       5.14627218       7.69788313
O        2.94604611      23.34333229      12.32791901
H        2.34868073      23.32735062      11.55733490
H        3.74997687      23.81264877      12.01858521
O       26.89185715       1.19035053      10.14868450
H       26.31115150       0.84018654      10.84936237
H       27.23118782       2.02811098      10.51564407
O        5.23592520      13.58494759       1.50431550
H        4.63448763      13.69635105       0.74822760
H        5.17410421      12.62619591       1.72123468
O        3.80715656       7.11699724      21.13102913
H        4.48519754       6.77489138      20.51060867
H        4.33715630       7.50816345      21.85550690
O       19.72885704      12.04691219      17.14785957
H       18.82048798      12.12944508      16.79409027
H       20.14741516      11.34270191      16.58826828
O       21.77478600      13.11855984      20.23742294
H       21.90588951      14.07171249      20.06359482
H       21.56077576      12.70597172      19.38033295
O       15.93140411      15.38688374      16.37015533
H       15.93659496      15.26290798      15.39070320
H       14.99763489      15.31879902      16.65253448
O        9.98357010       6.73943329       1.43156803
H        9.96037483       6.30085135       0.55469847
H       10.88617897       6.62298918       1.77959847
O        9.82970428      18.15854836      12.17741871
H       10.07756329      17.81141472      11.29829788
H       10.36488914      17.71787071      12.86719322
O       17.17314720       3.41802025      18.65435028
H       16.49679565       3.99662662      19.07925606
H       17.04657173       3.53799224      17.67708206
O        9.30396843      28.75838852      22.51842117
H        9.85321331      28.48112488      21.75728607
H        8.45440388      28.27595711      22.47783661
O       22.25523949      13.77028370       0.77273250
H       22.51218796      13.15969753       1.49510968
H       22.62986946      14.62647629       1.04580855
O       28.27685738      26.34912682       2.68914056
H       28.14656067      26.38778496       1.71948910
H       29.05865288      25.78507805       2.86676121
O       25.32479095      28.89607620      23.33112717
H       26.12784195      29.06889915      23.86089134
H       25.19651985      27.92782784      23.35595894
O       27.63140106      15.10082912      25.11743927
H       27.31812477      14.40000343      24.52068901
H       27.47504807      15.94194603      24.64588737
O       22.58328438      21.80111313      21.90054893
H       23.35305023      21.90643883      21.31162453
H       22.12109756      22.66935539      21.95273590
O       10.23524094      11.34482288       1.65398312
H       10.27210903      11.91031075       0.85607123
H       11.16239548      11.40502834       1.98685539
O       17.90538216       9.03849316       4.58050442
H       18.26889038       8.64491367       5.40117264
H       16.93770981       8.89854050       4.64961100
O       20.06455040      20.44139099      15.90625668
H       20.70990181      20.11863327      15.24635220
H       19.99651146      21.40994263      15.73799419
O       11.29923725       3.36082721       1.36403453
H       10.67852974       3.44355273       0.60766715
H       10.71986294       3.20875931       2.13157940
O       17.92778587      19.29521370      23.17520714
H       17.08502007      19.16742134      23.66325378
H       18.25244904      20.18848991      23.39970207
O        7.87659264       3.32204819      10.36519909
H        7.70340681       2.89197493       9.50574493
H        6.99514866       3.39209652      10.79703140
O       25.36471558       8.51519012      16.13047028
H       24.88709068       7.72413540      16.45543289
H       25.03994751       8.68941593      15.22802925
O        4.05877304      27.56122971       0.53270888
H        3.64306498      27.90156364       1.34936047
H        4.92169714      27.19806862       0.82948393
O       16.98295784      12.52956581       4.18406630
H       16.51037216      12.96564674       4.92608213
H       17.38278008      11.74432278       4.60674524
O       17.53359413      10.40726376       0.46558076
H       17.79405594       9.47300339       0.61705780
H       17.53688812      10.80409622       1.35566163
O        5.95590925      26.14226151      20.73605919
H        6.79010439      25.71208572      20.43567276
H        5.85717964      26.92934227      20.16378593
O       16.98123741       3.60075164      15.96817112
H       16.67791176       2.84186363      15.42140675
H       17.72907829       4.03534508      15.50283432
O        1.79169500      26.17428207      19.94905281
H        1.82842648      25.51003647      20.67658043
H        2.68818283      26.57575989      19.90511703
O        1.83437479      12.52640533      20.55029869
H        2.60775208      13.01622581      20.20910835
H        1.14101362      13.19362259      20.70136452
O       14.95881271      24.98327255      26.43443298
H       15.54580688      24.28480339      26.01890373
H       14.09635353      24.54307747      26.51587105
O       15.51089764      13.35414124       6.86313581
H       15.33277035      12.43044472       7.18888235
H       16.20107079      13.70326138       7.45984268
O       22.25423813      23.97636795      28.44432068
H       23.12315941      23.60478020      28.18035889
H       21.91612816      24.50601768      27.68940163
O       18.90181160       7.79321623       1.61332881
H       19.71049118       8.34587669       1.61102736
H       18.63224983       7.80505896       2.55449700
O       12.50568962      28.08320236      20.95083427
H       12.80190182      27.25105858      20.51565933
H       12.76907730      28.84243774      20.39925385
O       28.63595200      10.78773403       9.02745247
H       27.73854828      10.59889030       8.69155312
H       28.49669075      11.47767258       9.72467422
O       23.40941429       3.29090142      24.08319664
H       23.71158600       2.38505363      24.28328514
H       24.15889549       3.89009905      24.29711914
O        1.66601598       9.72193909      11.37630177
H        2.37858725      10.40682602      11.30001640
H        0.95462173       9.99296474      10.76577473
O       13.08313465       8.85378838      22.14484787
H       13.45699024       9.67939568      21.77389336
H       13.09897232       8.22036457      21.39690208
O       24.29667664      26.33656502       7.90496206
H       23.59812737      26.71689606       7.32120323
H       23.74905777      25.94054031       8.61166286
O       14.79648972      -0.07665408      14.78651905
H       15.70828819       0.09320593      14.44485283
H       14.34030056       0.78628355      14.61106491
O        2.32384348       6.80472565      18.31795502
H        2.26713443       6.27453279      19.14153099
H        3.11964083       6.48971081      17.83324242
O       16.25070763      15.06014442      13.67295074
H       16.66983604      15.83767509      13.25341034
H       16.55888557      14.26291466      13.18942451
O        6.36923122      27.61907768      23.20052910
H        6.05620384      26.97732544      22.51415825
H        5.71135855      27.60181046      23.92718887
O       20.12500954      12.79517841      10.77528191
H       19.81189156      11.89998150      11.02773571
H       19.78277016      12.92743015       9.85956097
O       15.54167461       0.62242675       8.89333153
H       16.36053658       1.14352465       9.07298660
H       15.12923431       0.98379588       8.09055710
O       18.44530487       6.54423571      15.59196281
H       18.59215355       7.36889076      15.08264542
H       17.45240974       6.46862793      15.67271805
O       27.13509560       4.77833652      12.16162968
H       26.44163704       4.13366222      11.89826202
H       27.87098503       4.24936485      12.52830696
O       25.51768494      29.11187553       7.55254698
H       25.04082298      28.56103516       8.20432091
H       26.33853340      28.62436485       7.34144211
O       26.54356956      14.15364933      17.23556900
H       26.06336403      14.01485157      18.07591438
H       26.49109268      13.31014442      16.74366379
O        5.71977329      15.22836494      23.20141792
H        4.80260706      15.45679283      23.45309830
H        5.81740522      15.64537525      22.31549835
O        5.70637321       2.59469986      17.67826080
H        5.42772865       3.21411324      16.97055244
H        6.09339046       3.15154362      18.38490677
O       12.90285015       6.20967674       9.32457542
H       13.16078091       6.83089828       8.61537647
H       13.42771339       5.38677597       9.14135170
O       27.16744614       5.39328814      17.83315277
H       26.71729088       4.60962963      17.43847847
H       27.44415855       5.96194172      17.08920479
O       11.89325619      27.41719818      12.47900391
H       11.39675331      28.26465416      12.39838409
H       12.32345963      27.28065491      11.60929203
O       23.09109879      13.04044247      15.10781384
H       23.64508247      13.71702194      14.66125965
H       23.30474091      12.20373917      14.62283230
O       20.44520187       6.45073414      20.50547028
H       21.31823921       5.99981022      20.52942276
H       20.21578789       6.64699793      19.56429672
O       14.72242069      10.07653522      26.22116089
H       14.82259464      11.00036144      25.89865112
H       14.07401562       9.67536640      25.61805534
O       12.15327549      19.82796478       6.23133278
H       12.21553898      20.49008179       6.95121384
H       12.00372982      18.97644615       6.69021320
O       18.97425842      16.71522903       1.14007664
H       18.51222610      17.56906700       1.23897815
H       18.31437492      16.16291237       0.67890829
O       21.57241058      27.64234352       9.14461899
H       20.88468552      28.33284569       9.12914371
H       21.43622017      27.12779236       9.97070122
O       21.04756927       6.73740578       3.94792342
H       20.45669746       6.44220877       4.69079065
H       21.60500145       7.41782236       4.36921740
O       23.98204803      27.77226639      16.92522621
H       24.92331505      27.53370476      17.05222702
H       23.97916412      28.74341774      16.77684784
O        4.44220114      22.44406128      15.64997387
H        4.46542978      23.14301109      16.33598900
H        4.66179085      21.60068703      16.09974670
O        1.13561428      20.70172691      20.43362617
H        1.69441319      20.23626137      21.09544182
H        0.51706660      21.26767731      20.94249535
O       28.46889305      18.55392075      14.11108780
H       29.29432106      19.11829376      13.99488449
H       28.37750435      18.06410027      13.27372742
O       27.03546906       3.06949973      28.65772820
H       26.08982658       3.25722480      28.47619820
H       27.51607704       3.56747317      27.96617126
O        4.80674410      22.53488541      26.99812698
H        5.27272463      23.35090256      26.73212242
H        4.93588734      21.90965843      26.24829674
O       22.59507179      16.13201714      11.51836491
H       22.75749016      15.47464657      12.23069000
H       22.22422218      15.60281372      10.77648735
O        6.23020029       3.19242215      20.81657982
H        5.91167402       2.33077908      21.14484787
H        5.73408318       3.85977530      21.33224297
O       17.31317711      17.13578987       6.56220913
H       16.79214287      16.37119484       6.24675322
H       16.90130615      17.91002846       6.13619137
O       28.77584076       7.74361658      19.77050400
H       29.15197182       8.01688099      18.91424751
H       29.44971657       7.17298126      20.20535278
O        3.01394868      26.77825356      15.56835079
H        3.29145885      25.84163666      15.67446136
H        2.08297920      26.82876968      15.85727119
O       14.17488384       5.79885578      25.14058304
H       13.24525356       5.94747639      25.39328766
H       14.33027363       6.26227379      24.29196930
O       11.86381245       1.84602892      24.86420059
H       10.89114857       1.81699061      24.77316856
H       12.16276073       2.32356596      24.06353569
O       11.36999893      27.97469330       3.84794140
H       11.12208939      28.87387276       4.13287830
H       10.51986980      27.59071922       3.54538059
O       22.83947372       5.97279167      13.15890408
H       23.08956718       5.30724573      12.49353981
H       23.25919151       5.68334103      13.99883652
O        9.30617237      12.16252708      15.82251740
H        9.95468330      12.89625168      15.71654606
H        9.29757118      11.69190884      14.96950626
O        1.55208051      17.63017845      28.66167450
H        1.47228849      17.28538704      27.74953461
H        1.41414261      18.59626961      28.58728981
O       16.06625366      22.96832466      25.07656479
H       16.98652840      23.03046036      24.75594330
H       15.46747494      23.08566475      24.30931091
O       15.56807613      27.75321770       2.45417857
H       16.31368828      27.44439316       3.00743055
H       14.93587875      28.13985252       3.09343410
O       27.53382874       1.05577242      25.47693825
H       27.71365356       1.83010042      24.89801979
H       26.96362686       1.39742446      26.18740082
O       21.21272850      14.47724915      17.57885361
H       22.16383362      14.50888634      17.35034561
H       20.84924507      13.69217014      17.10280991
O        3.39859033      14.88906860      15.09038162
H        2.71366072      14.31049728      14.70524406
H        2.94793963      15.70791054      15.37793255
O        1.32498085      19.68918800      13.73892212
H        1.75927234      19.96417999      14.57504082
H        1.88309479      18.98548698      13.33979607
O        5.55501842      14.14595318       5.62460566
H        5.79762077      13.22691250       5.40045547
H        6.34859800      14.55349064       6.02971601
O       22.90205574       7.92045355      18.34896660
H       22.12829781       7.68253994      17.79952240
H       23.35505867       7.07505178      18.57858467
O       13.96701431      13.05088234      27.90370941
H       13.86039257      13.39657402      26.99422264
H       13.90980053      13.83637238      28.48918533
O       18.07568550       5.37522268      21.86706161
H       17.49643898       5.97249079      21.31526566
H       18.91368103       5.33974123      21.36076546
O        5.89346170       1.46250618       8.25137520
H        5.53474188       2.34299111       8.01611137
H        6.22851038       1.07147491       7.41796875
O       24.16167831       5.49556112      15.73552418
H       23.62182045       5.06277657      16.42867088
H       24.80635834       4.81307554      15.45678520
O       10.01973629      11.53520679       5.63564157
H        9.85603523      12.18109131       6.35442591
H       10.07523823      10.67448044       6.08818626
O       28.17827034      26.70292282      21.92840767
H       27.29953766      26.27130890      21.96683121
H       28.77859306      26.24393082      22.55290794
O        6.91427708       7.51433182       5.56003523
H        6.82426786       8.41383266       5.93662596
H        6.00305033       7.18042040       5.44360542
O        7.16988182       4.20079803       5.90988588
H        7.40968323       3.46222281       5.32356501
H        6.23661566       4.41503334       5.71275711
O        0.49312013      17.62678337      21.46023560
H        0.72356850      17.34277725      22.36832047
H       -0.26825741      18.22590637      21.57082558
O        6.55360460       2.62714171       2.73920798
H        7.39804363       2.19810033       2.50268006
H        5.85813189       1.96785402       2.51950145
O        5.29610443       3.29065800      11.75281525
H        5.49008465       2.94680572      12.64513874
H        4.75827742       4.09305048      11.91632748
O       28.04682159      12.49652576      11.31953526
H       27.75786591      12.04626656      12.13520432
H       27.31602478      13.10651875      11.08775139
O        5.14906931      25.00487137      16.76570511
H        6.00268602      25.33369064      16.40253830
H        5.10241938      25.40071487      17.66331482
O        9.58863354      18.60693359      29.24191475
H       10.23795319      19.02045250      28.62762833
H        9.08473587      17.95734215      28.71333122
O       23.35264969      11.64504337       2.85589647
H       23.13360596      11.63885784       3.81000376
H       24.32530785      11.52944183       2.79036045
O        2.16048265      26.57861710      27.93402672
H        1.82018244      25.90332603      27.31996536
H        2.58262253      26.09121323      28.67001724
O       25.19142723      26.04658318      22.01964951
H       25.15411949      25.09066582      21.75797462
H       24.84100151      26.52157974      21.24101067
O        8.09481812      20.23852921       8.72062778
H        7.86317968      19.45716286       9.26488686
H        8.89543724      20.63611984       9.12800980
O        8.56255150      13.91063118       7.13511753
H        9.19262981      14.29751492       7.77862120
H        8.05592632      13.23891354       7.65194607
O       25.88173103      26.60818863      26.73620033
H       25.91610718      25.70230865      26.36983109
H       26.65176964      27.08641243      26.35757828
O       13.25888634       4.82674026      16.83868027
H       13.05812263       5.29822111      17.66893578
H       12.47347069       4.96934223      16.25928307
O        3.33190322       1.98306668      19.39245415
H        3.24420834       2.94971085      19.52113342
H        4.03763437       1.88808560      18.70997810
O        7.66610575      19.59689903      12.70412827
H        8.04090500      20.49841881      12.67573738
H        8.46906281      19.01459885      12.55572891
O       16.74319649       8.95095444       8.67455196
H       17.66988373       9.24585342       8.52803707
H       16.68693161       8.02212811       8.36511993
O       28.38726044      10.55805206       5.48660755
H       27.47605324      10.26733685       5.28488874
H       28.30523491      11.49953747       5.78786087
O       20.47533607      13.04311943      25.19800568
H       20.33412361      13.27668667      26.15008545
H       19.62525177      13.23307323      24.75994110
O        4.37953377      27.49081039      17.99830437
H        4.02810001      27.45016289      17.08242607
H        4.97302485      28.26498985      18.03623772
O       27.53970146      16.30332947      10.44258213
H       28.48261261      16.09420013      10.63117790
H       26.98037529      15.57084656      10.78217030
O        3.48018265      13.35545731       8.31161308
H        3.58510733      13.33136559       9.28931236
H        4.37154245      13.57909107       7.97949362
O        7.24022102      17.20775414      24.84984016
H        6.85982704      16.69649315      24.10241127
H        7.71020079      17.95973778      24.43256950
O       24.37367630      11.44669056      17.89193344
H       23.97648811      11.84157467      17.08783531
H       24.32120895      10.47910500      17.74528313
O       14.91490078       3.09340167      25.32399750
H       14.60914040       4.01550484      25.16564941
H       14.48496723       2.81158805      26.15844917
O        4.58380795       8.06658936      10.81525517
H        5.01584291       8.93049908      10.64250755
H        3.67896581       8.27718639      11.11996174
O       18.11530304      13.02356339      19.74828529
H       18.60158730      13.31447887      20.56469154
H       18.61274338      12.28433990      19.34802818
O        9.73840046      18.95148468       2.55432034
H       10.03817844      18.71335602       1.65354133
H       10.28952789      18.43420982       3.17858887
O       19.62060928       7.45555687      18.05538368
H       18.95504761       8.14970112      18.23179054
H       19.31947708       7.02163553      17.21725082
O       25.77704620      11.09596825      26.74260521
H       24.83508682      11.23324776      26.96310425
H       26.26387215      11.63952446      27.39254570
O       19.16839981      14.57597065      21.74767113
H       18.91558647      15.47834492      21.47124100
H       19.34932327      14.68611145      22.70266533
O       18.06374550       1.65387511      20.60424614
H       17.73477745       2.09707856      19.78598595
H       17.85888100       0.70649260      20.51137924
O       22.67774773      11.05740356      25.85030746
H       22.26450920      11.91770744      25.61578751
H       23.39322281      10.89292717      25.20643616
O       12.33362007      13.16913128      25.42241859
H       11.97115231      13.34948444      24.52647972
H       11.59554863      12.95809841      26.02087212
O       14.30079842      20.72437859       3.15096092
H       14.89682484      20.02529526       2.80722761
H       13.66164207      20.25300026       3.71942496
O        1.24959922      22.98803711      26.33649445
H        0.98187709      23.79128456      25.84409332
H        1.73993480      22.45705795      25.67566490
O       18.40084076       4.97781181      27.11411476
H       18.85086632       5.74359846      26.69210243
H       18.41469574       4.28049183      26.43044090
O        3.30315638       9.36322021      18.91142845
H        2.88200879       8.48783016      18.73217583
H        4.26071310       9.18128586      19.03060913
O       14.84171677       8.25794983       4.98782253
H       14.62545490       8.75004578       5.80204535
H       15.22017384       7.39967155       5.27316093
O       22.65866089      26.16483498      14.74762154
H       23.31248474      25.97109222      14.05029011
H       23.14755440      26.69272232      15.42200184
O       16.61885643       0.27979350      17.95932579
H       16.94598007       0.33177662      17.03735924
H       16.40759468       1.19963729      18.23068237
O       17.10685921      20.44480324      18.55487442
H       16.21039772      20.38265419      18.16362381
H       17.29154205      21.39730072      18.64712334
O       11.24598789      20.23780823      16.93115234
H       11.05430698      20.74455833      16.11536598
H       12.20774555      20.30825996      17.08996582
O        9.95898533      15.40495682      25.42305183
H        9.95432663      16.33887482      25.72496986
H       10.08935833      15.45472145      24.45502663
O        8.70222950       1.72692156      23.48452187
H        8.98325348       0.96180242      22.93180275
H        8.57809639       2.48906660      22.89089584
O       26.93423843       1.64802670      20.04764366
H       26.36909294       2.35399723      19.65227318
H       26.96139717       1.00503659      19.30013275
O       14.24797058      21.61941910      27.78626251
H       13.59209347      21.07698059      27.30258179
H       15.12513351      21.26003838      27.53237534
O       12.07928467      27.98197174       9.43783665
H       11.44497490      27.30883789       9.11332989
H       11.52494621      28.65566254       9.87905312
O       21.78331757      26.12110329       7.02590942
H       21.74782944      25.15792465       7.17030334
H       21.36271095      26.56720924       7.80792665
O       11.06629467      -0.08436534      14.87376881
H       11.54307747       0.76321906      14.80054283
H       10.26640797       0.10116572      15.41200542
O       27.33775902       5.13232374       1.41852784
H       27.02466393       5.92356825       0.90529764
H       27.52219582       4.46765566       0.71932310
O       24.18297005      14.72878933      25.39739037
H       24.51135445      15.53196239      24.92979622
H       23.33826447      15.02538109      25.79890251
O        5.56656027      21.06256485      24.59586143
H        6.17090511      21.58431244      24.02775192
H        5.22051287      20.32636642      24.05262756
O       20.32374001       1.49092221      16.80054474
H       21.14998245       1.42879105      16.26011658
H       19.65466309       1.67492723      16.10094070
O       12.83876133      24.78847122       4.12893343
H       12.74301052      25.75619698       4.04127693
H       13.77263069      24.62356567       4.39602470
O        6.33089781      17.76630592       1.22997224
H        5.51238108      17.82189560       1.75620186
H        6.60513973      18.68537903       1.04345357
O       17.33992767      24.40387344       9.83966160
H       16.65745354      24.50578117       9.14654922
H       18.12960434      24.93165779       9.58271503
O       23.13015556      20.61007881      29.20362091
H       22.39735794      20.40918541      28.59236908
H       23.83032227      21.06090927      28.67955780
O       20.20206833      21.96334267       8.33219719
H       19.89381599      21.09261513       8.02625751
H       21.09106636      21.83794785       8.71338177
O       19.56098366      15.75073147      10.30118561
H       19.79287720      15.59622955       9.36637211
H       19.36604881      14.86958885      10.68274021
O        9.06465435      14.90469646      21.65363503
H        8.61963940      15.02218628      20.79224586
H        9.65100479      15.68740463      21.72020149
O        7.53588533      20.83676529       1.73807490
H        7.44370127      21.55217934       2.39416432
H        8.34448433      20.34829903       1.99856997
O       21.23974419      10.08878422      19.92135620
H       20.43660355       9.95731258      19.38448334
H       21.93930817       9.57411098      19.46714783
O        2.65724969       8.92258549       8.11952400
H        3.39389777       9.56604385       8.16847134
H        3.06915069       8.07269001       7.86639500
O       27.84860992      28.03131676      16.23229218
H       27.53621483      28.20341492      15.32513046
H       27.77531433      27.06155396      16.33392525
O       21.14039803       2.55895352      25.64452553
H       21.83590889       3.23550868      25.49856377
H       21.05202675       2.41757083      26.60381699
O        9.61026001      10.92524147      26.79420090
H       10.07239723      10.09812737      27.05323601
H        9.83554268      11.05066204      25.85199547
O        2.62669349      23.30638123      28.89328957
H        3.47220874      22.96111488      28.54996681
H        2.01196790      23.16181755      28.14591217
O       22.41381836       6.11064005       7.62014532
H       22.66707230       5.19264412       7.38950634
H       22.46140289       6.20611048       8.59114742
O       16.55582809       5.56064415      12.63596344
H       16.64603996       4.76578093      12.07347012
H       15.96414280       5.30268145      13.36932564
O       27.21806145      16.64525604      20.13808823
H       26.78598213      16.52767181      19.27618027
H       26.81348038      17.44959641      20.53101730
O       15.31929588      22.48484993      10.79143620
H       14.44012260      22.91629601      10.79400158
H       15.24291897      21.74156570      10.16371536
O        8.38785076      27.05578995      26.88534546
H        7.83590174      27.82753754      26.47034264
H        9.28860569      27.41979790      27.02005577
O       19.63258743      15.93583107      14.86509800
H       19.81129456      14.98461819      14.69097424
H       20.12677765      16.17291641      15.67370892
O       13.56026936       9.22334862       2.06893778
H       14.17015553       9.58549213       2.74206805
H       13.54340744       9.90224361       1.36734700
O       13.10041523      27.29273796      23.32291794
H       13.53572083      26.54792404      22.83861542
H       12.95388031      27.93186951      22.57531166
O        7.94126558      23.99178505       1.72548175
H        8.87552643      24.27235985       1.67110789
H        7.43723011      24.82392883       1.83192515
O       15.63617325      26.08885574      12.00153351
H       15.96515751      25.52469444      11.27107906
H       14.97341824      25.58129883      12.51449490
O       19.06104851       3.10966730       4.39923334
H       19.93553543       3.51024151       4.56886721
H       18.43983078       3.51077819       5.04363298
O       28.09222794      26.44959259      29.30626106
H       27.40510750      26.56351852      28.61767387
H       28.95264244      26.60613060      28.86962318
O        0.51663983      15.90698338      19.11156273
H        0.13841538      16.23778343      19.95358086
H        1.49198568      15.99060154      19.20223427
O       19.07841682       2.75314665      23.85769463
H       19.23541260       3.66818619      23.56241798
H       19.82908821       2.58187556      24.48791313
O       14.27819252       2.00968862      28.01497078
H       13.66490746       1.25416160      27.99160194
H       13.84997845       2.67800665      28.57840919
O        2.60998797      20.80563545      10.26607800
H        3.02374077      21.36881828      10.94683838
H        2.21233726      21.39640999       9.59584618
O        3.82109046       1.59854865       3.14214969
H        3.88734746       1.13702738       4.00499105
H        3.07667875       1.15569007       2.69905281
O        6.77776623      17.43201637       9.61498260
H        7.58944178      16.91358376       9.43216705
H        6.21896935      16.83274651      10.14783382
O        3.59107518       2.13621259      22.52549934
H        3.60836530       1.78417706      21.61067772
H        3.74084854       1.37738740      23.12760925
O       25.61807632      14.39375496      10.96191502
H       25.24077034      13.98426533      10.15742207
H       25.00886154      14.10075665      11.68459797
O        8.00342274      13.80257988      26.48488426
H        7.17152643      14.30259037      26.56377983
H        8.65612316      14.43332577      26.07334900
O       22.99102592      21.49487305      25.03797340
H       22.49782562      21.83471680      25.80919075
H       23.52040291      22.24248886      24.69579697
O        2.76328444       5.82875299      26.10612679
H        3.44900846       6.51488209      26.00298500
H        2.29049039       5.79459286      25.25388718
O        8.04984283      14.69038677       0.89120603
H        7.24554968      14.17938232       0.67892462
H        8.81232834      14.07931995       0.85130984
O       16.97854424       4.60074663       1.27581155
H       16.76736450       4.38235521       0.35155573
H       17.70266151       5.26057386       1.24962807
O       23.55416679      19.38007164      14.57818031
H       23.52466774      19.85245132      15.46046352
H       23.96127510      20.03922844      13.97305298
O       17.70502853      17.83457184      11.23725414
H       17.19779205      17.18587112      10.69959831
H       17.06344604      18.44818878      11.64139462
O        8.69023228       8.02640438      23.71750450
H        7.92750502       7.58141851      23.30317497
H        8.92423916       8.71088123      23.05956268
O       18.28704643      25.28040886      17.42607880
H       17.86580276      25.00042152      18.26126099
H       18.86109352      26.02584076      17.68294334
O        1.00002527       1.49814093      16.74221039
H        0.52149099       1.19731820      15.94307041
H        1.87871349       1.80406404      16.43591499
O        3.77326965      28.51413155      20.66574097
H        3.13355112      29.15155029      20.29403877
H        3.67320037      28.57981110      21.63988876
O       28.03364563      21.73143196      11.95543861
H       27.47798538      21.58756447      12.75252628
H       28.51528168      20.90435219      11.77773857
O        1.07312799       3.72346139      10.89569664
H        1.17372513       3.94153762       9.95383930
H        1.64985847       2.94485021      11.02916622
O       20.70629501      19.35652924      18.38533211
H       21.04627991      18.64168549      17.81404305
H       20.53163528      20.07970047      17.73925018
O        6.53248978      23.81314659      22.80947304
H        5.80067635      24.32441330      22.41431427
H        6.83081770      23.16790771      22.11159134
O       20.35568237       9.75214005      24.54222679
H       20.11787415      10.65662575      24.24388313
H       21.22907448       9.86156178      24.98852158
O       13.46294975      24.97371864      14.11692905
H       12.76142788      24.32058716      13.90238667
H       13.95535278      24.57655907      14.86196709
O       14.83939457      10.80605221       7.70261717
H       14.19478416      10.90778732       8.43146610
H       15.59104061      10.25783539       8.04638195
O       18.32195663       1.47653365       9.34602833
H       18.47790146       1.84752977      10.23881149
H       18.55187416       0.52351123       9.42861748
O       11.13653660       8.22793388      26.99829865
H       11.59836292       8.25954056      27.85807800
H       10.49402332       7.49139833      27.05447197
O       16.26003838      20.00021362      25.94049644
H       16.10460281      19.09866142      26.29156876
H       15.48569584      20.18744087      25.37359810
O        2.19101143      20.23071861      16.62096786
H        2.33648920      21.15097046      16.91458321
H        2.91434240      19.70787811      17.03396416
O        5.04701233       5.39497852       8.73600101
H        5.50152397       6.25776052       8.79624367
H        4.56958628       5.41802692       7.88018036
O       22.65946198       7.76700640      24.64505196
H       23.00441551       7.69725704      23.73120117
H       23.28973579       7.27454472      25.22774887
O        8.81468582       6.37264395      11.08710003
H        8.74589634       5.46287918      10.73486233
H        9.32680225       6.32821655      11.92533302
O       21.02878380      18.58814240      21.12211227
H       21.45000648      18.97810936      20.32752800
H       21.59221649      17.84026146      21.41746330
O        7.33547211      17.08392334       6.22948837
H        8.11346054      16.49994278       6.36937332
H        7.44734097      17.82747459       6.85136271
O       16.57735443       9.21041965      12.05410767
H       17.23883247       9.00486946      11.36180973
H       16.97786140       8.87786007      12.88434410
O       20.49950218      23.36066055      15.47860241
H       19.87335968      23.63194084      14.78043365
H       21.36928558      23.68644905      15.17007256
O       13.96674538      25.62511063       0.74943745
H       14.52995872      26.28488159       1.20678806
H       13.54745388      26.07523918      -0.00664499
O       24.60996819      21.36251450       7.96538782
H       24.80575180      20.82324982       8.76579094
H       24.56962204      20.74435043       7.21031284
O        5.46511555      23.69888496       6.73927212
H        4.80374575      23.05307579       6.41601372
H        5.01593828      24.56134796       6.63199759
O       20.44220924      21.95154762      28.93848419
H       19.49341965      22.15819550      28.90878868
H       20.94326401      22.72808838      28.58069801
O       19.25299644      28.11833954      17.44835281
H       18.60218048      28.61883736      17.98002815
H       19.93935013      28.76473427      17.18596268
O       10.09924984      22.48716736      18.27816963
H        9.92470837      21.58356094      17.95283318
H        9.23595715      22.85929489      18.53695869
O        7.45295143      21.88594246      21.06210709
H        8.41857624      21.81531334      20.92893219
H        7.05975485      21.04802322      20.74624825
O       27.10704231      16.40728760      15.52030849
H       27.20091438      15.73771954      16.23239708
H       27.88726997      17.00202751      15.54054928
O        7.13814926      14.46633434      10.24534225
H        7.68847036      14.30013657      11.03390312
H        6.91378164      13.58926582       9.87418652
O        8.51127911      24.40166092      24.68877602
H        9.13958359      23.66565514      24.53701782
H        7.82371235      24.32603836      23.96918297
O       23.37639809      20.80835915      16.94389915
H       23.93503571      20.79909134      17.75464058
H       23.38586426      21.75179863      16.68762398
O        7.64829731      24.47086334      27.44068909
H        7.87412977      24.35300827      26.48744392
H        7.85078335      25.41647339      27.61070251
O       16.81901360       8.52530098      27.58722687
H       16.17603302       9.26001263      27.68269348
H       16.40180397       7.90608311      26.95833588
O        4.41226578      22.25413513      20.85338211
H        3.89348221      22.39233208      21.67128181
H        4.53486347      21.28662491      20.78842545
O       19.73117828      16.74100304      23.52187920
H       19.24838829      17.56004524      23.74662781
H       20.53355980      16.71903229      24.09197426
O       20.53583908      10.17620754       2.33395982
H       21.47780991      10.43037987       2.30781865
H       20.18885803      10.48925781       3.18968940
O       24.41076088      20.93757248       4.22814226
H       23.90959930      21.72862625       4.51823854
H       23.92950630      20.15559387       4.54990864
O        4.80992365       6.81957769      16.79693222
H        5.21388721       6.01089621      16.42601395
H        5.49419737       7.29039574      17.31413269
O       18.97711182      18.83567619       8.57738018
H       18.70891380      18.97379494       9.51383114
H       18.28267860      18.26886749       8.18061352
O       23.59875870       7.79442644       6.09411097
H       24.46909904       7.36382198       5.99805498
H       23.04336739       7.11561346       6.61117887
