838
Lattice="26.469999313354492 0.0 0.0 0.0 26.469999313354492 0.0 0.0 0.0 26.469999313354492" Properties=species:S:1:pos:R:3 pbc="T T T"
Na       2.73202205       7.56605864      19.11958122
Na      21.35124207       5.07092190      13.53869152
Na      12.21407032      24.81385422       1.78481662
Na      24.88131523       3.47397518      21.01034164
Na       1.82080483      12.23294449       3.69114089
Na      14.35031891      -0.22125477      10.42099380
Na       5.03295898      17.03562546      17.61177444
Na       8.12100410       7.15285301      21.21993637
Na      19.28410149       6.47693110       4.62264395
Na      24.27070999      14.05870247       2.45590591
Na      15.22375202      16.26900673      21.75523758
Na      21.59941483       6.90081310      -0.14107966
Na      11.72039127      24.40206909      11.62413788
Na      14.43054104       9.27512264       6.95782280
Na       3.05531669      11.09984684      17.81325531
Na      25.06288528      19.23726463      23.70630074
Na       1.61385489       9.28291798       1.57028794
Na      16.98693085       3.29948378      15.61255360
Na      10.93199158      13.23709583       5.47531080
Na       7.24287033      13.03494835      12.90074158
Na       7.02249718       7.46779919       9.31371975
Na      13.68338394       7.62489367       1.68471146
Na       2.41799974      26.15898323       7.23457861
Na      19.79272270       9.80863380      20.19083214
Na      12.09299278      20.55612755       6.65004635
Na      20.62050438      20.74562263       3.13744283
Na      13.59329700      10.50312424      18.04258919
Na       1.82443750      26.43289757      12.42238235
Na      16.27150917       3.40240383      24.73012924
Na      21.93301392      21.43565750       7.50497675
Na       7.81849766       2.19178176       8.18990135
Na       1.73246384      12.07100105       8.10671711
Na      19.18341255       6.32763529       9.25969124
Na      17.26190948      20.37298584      22.60342979
Na      11.96171570      20.83863640      25.17098427
Na      11.48108387       3.85803938      22.63133049
Na       5.89849567      11.90930939      10.25726128
Na       3.63494062       5.90612555       2.59326267
Na      15.08431244      21.88653374      27.11664391
Na      12.07036686       2.05802631       3.79945660
Na      13.81664562      14.31442738       9.76599026
Na      12.60933304       3.40405250      15.19358063
Na      24.46511459      19.72643471      19.04731369
Na      26.12628174       4.73067999       7.74437904
Na       3.29904461      21.73384857      13.47692394
Na      12.97477818      18.88960457       1.28032362
Na      16.40361214       7.78131676      20.44813919
Na      13.82145691      13.50300598      24.65308952
Na       4.57313156      15.83970737      12.66105461
Na      17.92650795       0.69057411       9.51007366
Na      21.58625793      15.33037472       4.66565943
Na      17.39695930       8.59130955       0.81877655
Na      26.01128960       0.60411024      24.71652603
Na       9.92874336      12.52726078      22.47920990
Na      11.65273571      24.39211082      22.47384834
Na      14.62193489       3.12336397       8.65161133
Na       6.18900919       1.83499265       5.31715918
Na      21.51291847      23.71970940      13.61643696
Na      -0.38639823      10.98898602      22.34152031
Na      21.63213158      14.13116550      11.40319061
N       19.18075180      16.62956429       4.65209866
C       19.26362228      17.93558502       4.77397585
N       19.40797424      19.10143661       4.87095547
S       18.55380058      15.98076439       6.04212475
O       17.36778259      16.65683365       6.52747059
O       19.59777832      15.64961243       7.01844549
C       18.07623100      14.40368176       5.25394726
F       19.11650658      13.94118881       4.52079487
F       17.76858330      13.49792576       6.18787289
F       17.02938271      14.66352463       4.45633888
N        5.16625834      13.07437515      14.30012608
C        4.47531700      12.92299747      13.09545231
N        4.80806303      13.18991089      11.93751717
S        4.60540867      12.54508305      15.67704678
O        4.32458830      11.09946442      15.82980156
O        3.80285573      13.48863316      16.51138687
C        6.18113375      12.63929081      16.60907173
F        6.59774399      13.90636539      16.67221832
F        5.94133568      12.22147846      17.87918854
F        7.10848808      11.86657143      16.05158043
N       26.69763374      11.16887760       1.97215772
C       26.08004189      11.78082180       1.05142093
N       25.51700783      12.30987930       0.14221619
S       25.48560905      10.87684155       3.50534558
O       24.46000481      11.91869640       3.69372916
O       26.43136215      10.54892349       4.59291744
C       24.70135880       9.26978588       2.93855739
F       25.66696930       8.38592529       2.59611845
F       24.00212669       8.81935978       3.98732400
F       23.90888977       9.51508999       1.88816464
N       17.59358597      24.60132790      13.56816769
C       18.71821976      25.21601295      13.74453640
N       19.78005028      25.71063042      13.82155323
S       17.28483391      24.36700439      11.99657249
O       18.46772766      24.23996735      11.15077209
O       16.20006943      25.22400093      11.49250031
C       16.49433327      22.72855377      12.10762215
F       15.56523895      22.80044746      13.08181572
F       15.93815041      22.51587296      10.91121483
F       17.44801712      21.84461975      12.37377834
N       12.26132202      17.04672241      22.11528778
C       12.30072403      16.23367500      23.10202026
N       12.47444534      15.51260567      24.03259659
S       11.88331509      16.63478088      20.58151245
O       10.45651054      16.53301430      20.33640671
O       12.79446411      15.60650921      20.09066772
C       12.48199368      18.08665276      19.68020821
F       13.84086227      18.09576416      19.78481293
F       12.13127708      17.93464470      18.40189934
F       11.96964359      19.19970703      20.21305656
N       16.19233894       9.91988659       8.42850780
C       16.98270988       8.87883091       8.52187824
N       17.48067665       7.82774878       8.25278091
S       16.08217812      10.98000240       9.68269634
O       16.03720284      12.34643650       9.17178535
O       16.88496017      10.58050442      10.82845879
C       14.32998562      10.73463154      10.20214176
F       14.17648506       9.47902107      10.62128735
F       14.03320408      11.62905884      11.15186024
F       13.57193375      10.94568825       9.08731461
N        9.74936295       8.73429394      17.66796112
C        9.91195679       9.82084560      16.95375252
N       10.08849621      10.74728966      16.26790428
S       10.29911613       8.93137169      19.13579369
O        9.31946850       9.14130878      20.21965790
O       11.53398037       9.72250175      19.21754074
C       10.86185360       7.20109940      19.39228630
F       11.74168110       6.87061453      18.44624710
F       11.42437077       7.13863087      20.61783600
F        9.76754379       6.40457582      19.34663963
N        2.30024076       2.37733483      26.07498169
C        1.38437533       1.58901107      26.61178970
N        0.56823319       0.85530347      27.03903008
S        3.39792180       1.41120493      25.26391220
O        2.93724775       0.88141280      23.98771095
O        4.21113396       0.60066336      26.16117859
C        4.56811142       2.75364351      24.79066277
F        5.12715626       3.33849454      25.87688065
F        5.53183508       2.19173765      24.05629539
F        3.90513730       3.66745925      24.07776451
N       11.50947571       5.87113428      25.03035164
C       11.92978954       5.45082855      26.18184280
N       12.43859673       5.13684225      27.22098160
S        9.97385883       5.57427025      24.52207947
O        9.52539444       4.24467278      24.91221619
O        9.94951820       5.91046572      23.09405518
C        8.81899738       6.76208067      25.36176300
F        9.03524113       7.96474266      24.84639549
F        7.56431961       6.36214256      25.10358429
F        9.05603409       6.74704838      26.67862511
N       16.31464577       9.84640217      23.54652596
C       15.80690193      10.53932953      24.52396965
N       15.30112553      11.16510105      25.39234352
S       16.83243942       8.35072327      23.79457855
O       17.56351089       8.16152287      25.06096268
O       17.45497131       7.80764580      22.58772850
C       15.30457687       7.32573032      24.10997009
F       14.49470615       7.36758661      23.04776192
F       15.73295689       6.04297733      24.30427551
F       14.68899059       7.77213049      25.21648407
N        2.85079741       4.32612896       5.33516836
C        1.86996365       3.57121634       5.76708746
N        0.99108088       2.90419793       6.18453455
S        2.64480472       5.88694334       5.66592312
O        1.61718786       6.07814884       6.70019341
O        2.48170614       6.71195936       4.44526625
C        4.43478012       6.23264503       6.22273397
F        5.28064775       5.63722134       5.36712170
F        4.61383438       7.54996109       6.19712687
F        4.66395330       5.77219582       7.47170973
N       17.45191002      10.60787296      17.37822342
C       16.91368675       9.48545837      17.74915123
N       16.35744667       8.53171253      18.15664291
S       19.05564880      10.71271706      17.20606613
O       19.72251320       9.45002365      16.92405510
O       19.66133308      11.55926609      18.23396111
C       19.04446793      11.71308041      15.68308163
F       18.17578125      12.71587563      15.84962559
F       20.29061699      12.17938137      15.47869205
F       18.69426727      10.91493511      14.66153431
N        3.41656208       3.64002037      13.89568710
C        2.93031144       2.46502948      14.17739964
N        2.54074121       1.36028683      14.35709095
S        2.44464660       4.96263981      13.90116310
O        2.31388044       5.66759443      15.17394257
O        1.25837255       4.90752411      13.05013752
C        3.64326119       6.01983356      12.97249222
F        3.79017568       5.52847099      11.72195244
F        3.16522050       7.27548027      12.93321800
F        4.82652712       6.01325226      13.59138298
N       20.19002151      23.51574707      17.68497086
C       20.43730545      22.89652061      16.54447174
N       20.77593803      22.40105247      15.53598881
S       18.69913292      23.53725433      18.26333809
O       18.13804436      22.18972206      18.43255615
O       17.82147408      24.59637260      17.79660797
C       18.99103165      24.04135704      20.04251289
F       19.39596176      25.30928993      20.15135384
F       17.82252502      23.90411377      20.71802139
F       19.91637611      23.23858261      20.61026955
N        2.79523253       5.45716619      20.78451729
C        1.57261670       5.22762680      21.25770950
N        0.50199240       4.92722225      21.64636421
S        3.41326666       4.02378702      20.27959251
O        2.62835336       3.35805130      19.22457886
O        3.97206402       3.17318821      21.31753349
C        4.89617682       4.62672758      19.40184975
F        5.70440435       5.26981592      20.26343727
F        5.51278782       3.56823778      18.87742996
F        4.50200605       5.46182346      18.41697693
N       20.25883102      12.12718201       1.87691772
C       21.02979088      12.98518753       2.43808103
N       21.72484207      13.89585495       2.75536871
S       19.71486473      10.70412540       2.21077776
O       20.67665672       9.82807732       2.88809752
O       19.07636452      10.14546680       1.01135027
C       18.31657219      10.91130447       3.45953441
F       17.46155739      11.83828354       3.02146220
F       17.66440392       9.71252060       3.53444743
F       18.79882622      11.22179985       4.65906525
N        5.46300411      18.06509399      13.46402740
C        4.42986870      18.75358963      13.91223717
N        3.50369620      19.38541794      14.28814983
S        6.08473635      18.63988113      12.06036186
O        6.40513086      20.07089996      12.10634327
O        5.34481430      18.14283943      10.89171791
C        7.67450571      17.68263054      12.04172039
F        7.35712862      16.41376686      11.70714283
F        8.42634869      18.23083115      11.07476902
F        8.28239727      17.74513817      13.21463966
N       21.67189407       3.53957963       9.23649120
C       20.47292900       3.07398486       9.39019966
N       19.36546516       2.69986248       9.57845306
S       22.31901741       3.78434277       7.75775623
O       21.71102524       3.02335978       6.67496252
O       23.76194382       3.93673420       7.90551901
C       21.75075722       5.52449465       7.42226219
F       21.72748184       6.26367283       8.55162525
F       22.56784058       6.09169006       6.53512907
F       20.48005676       5.47260857       6.93926668
N        8.73854446      20.77598572      23.39179802
C        9.41359329      21.87776566      23.20509529
N        9.96463966      22.91810989      23.19805145
S        9.51733685      19.38918304      23.07526970
O       10.72659492      19.24878883      23.90861893
O        9.63449574      19.05097771      21.67567062
C        8.20992184      18.19878197      23.72951698
F        7.18399906      18.22430611      22.88164520
F        8.80840397      16.99556160      23.73120499
F        7.88482046      18.56618118      24.97409058
O       24.07496262       6.87962770      26.58443260
S       24.94198608       5.96105194      25.86201477
O       25.19618988       6.27845907      24.48004532
N       24.57893372       4.48294258      26.12719727
S       23.22719002       3.78458381      25.85124588
O       22.11481667       4.70560074      25.75220490
O       23.09197426       2.63734055      26.70761681
F       23.39532852       3.20830894      24.38281441
F       26.33546448       6.01132870      26.58028603
O       11.49635887       2.40837979      12.00197411
S       12.75613403       3.15659428      11.84132385
O       13.37749863       2.77686572      10.54144859
N       13.69301891       3.31615901      13.01458263
S       15.29269218       1.73788166      12.87093258
O       14.76378727       0.84047496      13.97593975
O       16.45464516       2.55270553      13.34701061
F       15.76236629       0.97056061       9.01683044
F       12.21458530       4.63526678      11.54974937
O       10.41101742      14.63317204      13.70832443
S        9.38641071      14.23689842      14.64093304
O        8.05731773      14.81395340      14.44259071
N        9.77462292      13.91516781      16.11350441
S        9.87523842      14.91080189      17.31666374
O       10.32944584      16.23560524      17.00463867
O       10.46958542      14.16485596      18.41384315
F        8.38409042      15.17719936      17.85874939
F        9.16831970      12.70141220      14.16840267
O       19.79679298       0.87173170      22.32006264
S       19.65867805       1.90515959      23.31753159
O       18.38616943       1.95086718      24.04847145
N       20.13921356       3.30655074      22.95890999
S       20.85741425       4.07117510      21.80381775
O       21.91271400       3.32119942      21.16475296
O       21.12632751       5.41633463      22.24167824
F       19.71786499       4.19922924      20.71922874
F       20.67809868       1.46957684      24.45598412
O       18.31655693      23.32757568       7.04390526
S       18.76598358      24.55667686       6.43895483
O       17.86208916      25.36695099       5.64896154
N       20.20796013      24.48671913       5.84053755
S       21.10071564      23.62254715       4.94642448
O       21.05755806      22.17517090       5.21443558
O       22.43967056      24.13943100       4.85173035
F       20.47623825      23.68424606       3.48842382
F       19.09427261      25.49858475       7.68303585
O       12.07926369      12.99254704       2.87109756
S       12.01864052      11.70894527       2.19980717
O       10.77726746      11.24146938       1.62490284
N       12.71170425      10.64693832       3.08583117
S       12.86703968      10.12895203       4.47685051
O       12.38889027      10.97092533       5.56506777
O       14.22668076       9.62513065       4.68108845
F       11.99350071       8.80162144       4.50319958
F       13.06664467      11.76135445       1.03004682
O       13.55503082      22.71079063      24.73943138
S       14.60582447      23.20386887      23.82716751
O       14.73464394      24.65798759      23.71386909
N       15.19891071      22.35442543      22.60780525
S       14.14929771      21.91927528      21.46398926
O       12.79232502      22.29961205      21.79215813
O       14.40649414      20.55050659      21.07671547
F       14.60523510      22.78548241      20.23548889
F       15.90205574      22.89071083      24.80892181
O        1.06428158      14.60086727      15.76641369
S        0.87757945      13.80872822      14.57058525
O       -0.38133958      13.81991291      13.87605762
N        1.51590979      12.32334137      14.64357281
S        0.93112510      11.26826000      15.61997318
O        0.62714624      11.75736237      16.96116447
O        1.71041155      10.04246902      15.61947727
F       -0.44382834      10.84936905      14.97200871
F        1.93189991      14.45467472      13.56030273
O       21.85314941       7.85858250      14.60424709
S       22.32015419       7.49685049      15.93775368
O       21.33947945       7.12560654      16.93350410
N       23.53698730       8.30925465      16.47003174
S       23.65511894       9.50925922      17.45324135
O       23.14955711      10.76871109      16.97279930
O       24.93298721       9.51055527      18.13287544
F       22.61596870       9.19197083      18.67816353
F       23.10536385       6.13503122      15.63288021
O       17.69017792      17.26102066      26.37681007
S       17.47035217      16.75044250      25.03930855
O       16.08223534      16.52935600      24.65235901
N       18.45449829      15.68600941      24.58300781
S       18.61081505      14.14272404      24.47426224
O       18.20040321      13.45063782      25.68213272
O       19.86403656      13.79297733      23.84782600
F       17.48637581      13.71315479      23.41924858
F       17.91562843      17.99882507      24.15866470
O        3.47780085       9.13393307      20.89917755
S        4.78389740       9.75203419      21.14923477
O        4.77209187      11.19096947      21.26064301
N        5.99394417       9.15767670      20.35647964
S        6.04072142       8.71114540      18.83032417
O        4.77311134       8.85856247      18.11994362
O        6.74748945       7.45553637      18.74969482
F        7.00794840       9.77511406      18.18825531
F        5.18176937       9.20518398      22.58081245
O        0.92395854       7.72972727      10.16373444
S        1.38442028       9.09853458      10.27973843
O        0.50646716      10.15057850       9.79270077
N        2.86923337       9.30725479       9.94279099
S        3.81608701       9.50118065       8.76043701
O        4.97125149       8.63095379       8.78892994
O        4.13955784      10.92335701       8.58390427
F        2.95441365       9.15833855       7.48147917
F        1.48374832       9.42466736      11.80530262
O       10.63671780      23.49569321       7.95426893
S        9.99283791      22.44807816       8.72463608
O       10.84150791      21.34337425       9.13856983
N        8.51233101      22.07976913       8.40587521
S        8.12946415      21.18630981       7.18072081
O        9.15886307      21.18925667       6.14934301
O        6.76211214      21.42600250       6.78873491
F        8.17387104      19.68474579       7.76237202
F        9.65558243      23.21121025      10.07778835
O       20.04418564      16.23403740      21.26950836
S       18.69720650      16.64194679      20.95706177
O       17.62136650      16.24268341      21.85811424
N       18.24498367      16.63446045      19.44776917
S       17.68525887      15.27650261      18.84940529
O       18.16189003      14.06556892      19.49292374
O       17.63046837      15.33088493      17.41076851
F       16.12755013      15.31557846      19.32207489
F       18.78301239      18.21689606      21.19646645
O       19.51419067       5.94156456       0.81299651
S       19.05460739       4.66302824       1.33563328
O       18.97029305       3.52211523       0.46054748
N       17.84022713       4.85020542       2.30450797
S       16.38051224       5.23052025       2.19652653
O       16.11833382       6.12865210       1.08079004
O       15.84101200       5.62734556       3.47962213
F       15.69052982       3.88671589       1.77886093
F       20.11855698       4.33547306       2.44388008
O       22.92926025      14.19782352      16.55072975
S       23.65821457      15.44692135      16.56427765
O       23.11850166      16.48293304      17.42822647
N       24.11682892      15.96262455      15.17288303
S       23.43133163      16.01728821      13.77342892
O       22.40340233      15.01366997      13.53726101
O       24.35797691      16.24699593      12.68689919
F       22.61408043      17.38508224      13.85521317
F       25.05992317      15.09427166      17.23529625
O       23.84889793       2.59027195      16.01042747
S       22.63819122       2.46451354      15.24442387
O       22.63975143       3.12558603      13.93826866
N       21.32714272       2.72009254      16.01436996
S       20.58468437       3.52416706      17.09328270
O       21.35959053       4.38923502      17.93799973
O       19.49874496       2.77532768      17.68453407
F       19.77201653       4.57636786      16.15387535
F       22.50181961       0.94887263      14.85966682
O       13.51967907      21.04847717      10.35336971
S       14.26494598      20.98762894       9.10921001
O       15.66803551      20.69368935       9.08120155
N       13.82572651      22.04980469       7.98405838
S       13.95090199      23.58503532       8.19441509
O       13.46274662      24.10472679       9.46651363
O       13.53153706      24.29351616       7.00461388
F       15.50599194      23.83491516       8.30004311
F       13.62474442      19.71622086       8.32251358
O       11.16439915      10.30726814      22.23507309
S       12.61893940      10.25561428      22.18131447
O       13.25838089      10.40464687      23.47184563
N       13.30802631      11.13056946      21.08877563
S       13.13224983      12.67466164      20.94834900
O       11.85366917      13.18436718      21.38580894
O       13.70909119      13.09893036      19.69440079
F       14.17847633      13.23733044      22.05003929
F       13.08303165       8.87436962      21.61302185
O       10.18192482      13.85059547      10.51141930
S        9.55534840      13.33281040       9.31861687
O        8.11687851      13.48794746       9.17259026
N       10.17018127      11.96455860       8.80838108
S        9.57332897      10.60251522       9.28172302
O        8.61429119      10.71112728      10.36964989
O       10.60953712       9.60471535       9.40023708
F        8.71127796      10.09363270       8.03863621
F       10.18878841      14.16456509       8.08821964
O       24.07315636      22.34470940      13.64797592
S       25.33811378      22.85055161      14.13104630
O       26.45101166      22.99688530      13.21020603
N       25.89009666      22.21857834      15.47152233
S       25.07678986      21.58566093      16.63916588
O       23.65212440      21.78436279      16.66396523
O       25.81578445      21.65473747      17.89285660
F       25.20423508      20.01352692      16.29158974
F       25.01885414      24.33439255      14.57579517
O       16.99345970      17.45766068      10.02011204
S       16.30357170      16.24271011      10.32687283
O       15.13181496      16.32309723      11.18682861
N       17.17013741      14.99896622      10.65862274
S       18.50439835      14.78557301      11.42317677
O       19.54777527      15.77121449      11.26252651
O       18.94613266      13.40825939      11.35191059
F       18.04926300      14.95978832      12.92008018
F       15.69465160      15.74907112       8.92084885
O       12.53651905      20.91547012      17.69361687
S       11.80625439      22.16237450      17.68117523
O       10.49106598      22.14952087      17.05405617
N       12.66123581      23.41674614      17.30684471
S       14.16355610      23.30035400      16.67934608
O       15.12862587      22.62597084      17.50379562
O       14.52277279      24.57741547      16.11852837
F       13.95808697      22.36689568      15.39229107
F       11.45455074      22.42921829      19.20759392
O       22.30742455      17.31163406       5.93124866
S       23.34574509      18.32308769       5.93462896
O       22.92289925      19.62721252       6.41611624
N       24.23901749      18.36999512       4.67483044
S       23.79702759      18.81592941       3.23941660
O       22.37744713      18.64551544       2.97274065
O       24.73478889      18.32680893       2.25538230
F       24.00348282      20.37750244       3.33058929
F       24.42572975      17.84014702       6.96824646
O       15.81896400       9.78970528      14.84134769
S       15.28202057       8.47595501      14.59163952
O       14.45488167       7.85607624      15.60730743
N       16.34605980       7.48287392      14.01166344
S       17.57347298       6.80219173      14.63425446
O       18.45551872       7.53098106      15.50128365
O       18.20557213       5.92214632      13.64925194
F       16.95836258       5.74906349      15.70449257
F       14.39756107       8.63148785      13.28870106
O        9.75099564       5.48239946      16.04268074
S        9.35803890       4.13770485      16.41298294
O        9.99075317       3.05284333      15.67019844
N        7.84335279       3.94309449      16.77827072
S        6.75685358       3.79926825      15.63995934
O        7.29086065       3.95239234      14.29187107
O        5.52943707       4.46400881      15.97602654
F        6.36629009       2.23237896      15.69472885
F        9.92181969       3.97475505      17.88070869
O        2.38159633      14.99200535       4.36390257
S        1.11246371      15.35607433       3.76528764
O        0.10949769      14.27080917       3.91243744
N        1.09475553      15.95070076       2.39044070
S        1.81089759      16.55887032       1.14178777
O        3.24624157      16.57985306       1.28165448
O        1.10290778      17.74144363       0.70402521
F        1.51255405      15.47335148       0.05914433
F        0.53974217      16.46385193       4.71843195
O        4.66539812      12.45485592       2.57858109
S        5.09852886      11.50438499       3.57261348
O        4.02688742      10.96759796       4.41627264
N        6.33393955      11.88358021       4.39956045
S        7.50440741      12.89901543       4.18307304
O        7.78759718      13.31298637       2.82895613
O        8.63980293      12.45462608       4.99776745
F        7.01060200      14.18196964       4.95318842
F        5.58538723      10.24931335       2.74917078
O       22.50549316      20.61457634      22.65693283
S       23.19880104      21.40062714      21.64771652
O       24.56353569      20.90837860      21.37891006
N       23.06056786      22.94093132      21.72070503
S       23.33139992      23.97918701      22.86608887
O       22.57259941      23.78566551      24.08774567
O       23.37966728      25.30825996      22.30973244
F       24.82820320      23.65020943      23.27767754
F       22.45455742      21.13097000      20.28355026
O        7.40001965      17.85790062      16.58977127
S        8.11325359      19.12653732      16.59452248
O        9.55069637      19.11601639      16.64415741
N        7.49665880      20.21849060      17.59129143
S        6.59308958      20.04413795      18.82698250
O        5.56700993      19.01025391      18.73278809
O        6.13997221      21.30029869      19.36935997
F        7.59693861      19.46833038      19.90681648
F        7.78969097      19.78192139      15.18908501
O        5.83909893       2.54938602       9.83993435
S        5.06221390       1.47040164      10.43713188
O        5.18089199       0.16733049       9.81125259
N        3.60880637       1.84497881      10.90654182
S        2.33940959       2.13082981      10.07397652
O        2.52587509       2.99117327       8.92497349
O        1.19742620       2.29325151      10.94400215
F        2.05913687       0.67865205       9.41068935
F        5.67349052       1.31572211      11.85101414
O       24.27216911       9.33624935       8.85513973
S       24.60435295      10.22096348       7.74739742
O       25.13145447      11.54344082       8.06136227
N       23.55138206      10.25231552       6.61514664
S       22.12526321      10.85028362       6.65610981
O       21.79856110      11.44613457       7.93461466
O       21.20720291       9.91199684       6.03910255
F       22.21787071      12.02660847       5.61032200
F       25.75130272       9.47117710       7.00255919
O        5.35521269      12.79940414      24.09663582
S        3.95677567      12.45121574      24.25604820
O        3.61695576      11.03953171      24.24537468
N        2.95041418      13.34786701      23.49752617
S        2.29150009      13.58013153      22.12867355
O        3.15926385      14.03901863      21.06232834
O        1.02610469      14.26752090      22.28074455
F        1.88451076      12.09027481      21.63114166
F        3.63321733      12.87792873      25.72928047
O       13.19601917      18.31026077      15.65212917
S       13.19997787      17.26499367      14.65310764
O       11.90197277      16.82143974      14.18159485
N       14.24718285      16.06957436      14.87933159
S       14.29117298      15.37019348      16.30641937
O       14.49927235      16.27003479      17.41316795
O       15.07361317      14.16021538      16.24205971
F       12.78850365      14.82707691      16.53094673
F       13.85888386      17.90529823      13.37266731
O       10.94650555      16.69951439       4.93333817
S       11.66404343      17.74254608       4.23610544
O       11.47309017      17.81520081       2.78902030
N       13.07779026      18.10790825       4.72114944
S       14.38204956      17.24043465       5.00791407
O       14.16174221      16.06800079       5.82497358
O       15.41394997      18.17512512       5.36378479
F       14.76617146      16.66989899       3.56540346
F       10.93861866      19.06378746       4.73579121
O        7.49596453       3.90609765      22.59759521
S        8.09047413       3.11735892      21.54423332
O        7.23492193       2.34147573      20.68741989
N        9.44749641       2.36964679      21.92716599
S        9.68459511       1.11597943      22.82361031
O       10.12379551       1.39539111      24.18178558
O       10.46191978       0.09397934      22.12974930
F        8.23645592       0.47704199      23.01640320
F        8.78061199       4.19731426      20.59532547
O        5.06454945      24.52512550      23.98015213
S        4.11088657      23.64732933      24.60583878
O        4.25373936      22.22791862      24.37592506
N        2.61041284      24.17710114      24.58651161
S        1.70254683      24.33188820      23.36511612
O        2.30703092      24.60951805      22.08291626
O        0.53982317      25.14292336      23.69814110
F        1.04461956      22.88080788      23.14919472
F        4.35434866      23.82256699      26.16218567
O       15.42681789      19.85562515      14.76957512
S       16.66870499      19.94938469      15.51139545
O       17.30706024      21.24576569      15.50341129
N       17.65224838      18.69776535      15.34397888
S       18.62175751      18.61069870      14.06215763
O       18.06347084      19.20507812      12.85849857
O       19.19431114      17.29062271      13.95356178
F       19.87303352      19.53670692      14.43266296
F       16.25438690      19.75046921      17.02433395
O       25.31878471      24.34818268      10.58666801
S       24.86039352      23.73361397       9.35107613
O       25.28223991      24.39100075       8.13502789
N       23.37440491      23.22108459       9.33722305
S       22.02802849      23.81603241       9.86654568
O       22.13846207      24.72612953      10.98795700
O       21.05689812      22.73766708       9.91383076
F       21.56399918      24.76067924       8.67130756
F       25.56646919      22.33256340       9.33070850
O        6.12782431       8.56918144      11.46342182
S        5.91561222       9.45243454      12.60776424
O        6.69321680      10.68947887      12.53010082
N        5.81740665       8.80119133      14.02075100
S        7.09604120       8.06136322      14.61871147
O        8.05718327       7.62811279      13.60899448
O        6.72278500       7.17186165      15.68662643
F        7.82697010       9.26141357      15.34292793
F        4.43264580       9.92465782      12.49089432
O       16.42788506       3.04756188      20.71918297
S       15.95735264       1.67972851      20.76650047
O       15.21908379       1.21245384      19.61112213
N       15.30120754       1.29377437      22.17221451
S       14.04589176       1.84682119      22.83943748
O       14.01328182       3.30023980      23.06436348
O       13.70940685       1.08292615      24.02641487
F       12.89202785       1.63499105      21.75222015
F       17.22054672       0.78064287      20.90041733
O       11.41912651      22.02767372      12.23075199
H       11.41854382      21.65043640      13.14903545
H       12.22449684      21.64896393      11.82018375
O       23.95073509      22.54327583      26.25794220
H       23.27296829      22.78733444      25.59384918
H       24.60257530      23.26766396      26.20804214
O       12.82166386      10.71080589      15.61027336
H       12.81110477       9.82317638      15.19757462
H       11.85358143      10.92769909      15.65208435
O        5.94941711      15.27017021      19.83980560
H        6.82027149      14.86756229      19.66374207
H        5.36909103      14.54181957      20.12957573
O       24.52691269      18.79232216      10.08362865
H       25.22239685      18.96543884      10.74486160
H       23.89492416      18.21515656      10.54889965
O        9.74277020      21.31734085      26.17378998
H        9.74853897      22.18248558      26.63100243
H        9.06402588      21.38513947      25.46520805
O        2.49190617      25.65641594       4.66225719
H        2.28707743      24.94161415       4.03135729
H        2.86391926      26.37979126       4.11246872
O       11.22040176       7.71781969      14.59785175
H       10.68324566       7.14871168      15.18135643
H       10.70154381       8.53974915      14.48421669
O        4.69492054      15.98630047      15.40771770
H        4.05278349      15.28393745      15.67313290
H        5.52226162      15.49514961      15.19224930
O        8.77670670       7.55526495      10.79969788
H        9.70396423       7.86461830      10.81946850
H        8.23250771       8.15744209      11.35404968
O       23.95834923      18.64136314      25.69369316
H       22.98818779      18.72440910      25.70341110
H       24.23214531      18.54014778      26.63101768
O       20.33771133      16.78227615      16.84328461
H       19.69970894      16.26338959      16.31909752
H       21.02809525      16.16116524      17.14878273
O       20.07660294      19.39223480      26.62396240
H       19.14938545      19.08280754      26.62872696
H       20.61770821      18.59349632      26.45235634
O        1.50981057       0.99108887      20.52602386
H        1.99644852       1.69798493      20.04752922
H        2.18028378       0.47649980      21.01822472
O        1.68556929      24.02508736      11.15082169
H        0.72105199      24.21613312      11.07821655
H        1.69512999      23.05143929      11.26244926
O       14.73706341      24.01889420       2.06773949
H       14.98926640      24.11286736       3.00748801
H       15.11777592      24.79145050       1.59453619
O        5.51458502      22.65713310      12.87231064
H        6.02607107      23.26255989      13.43887901
H        6.07416439      21.86615944      12.71367264
O       15.07849312      18.53973389      22.77030563
H       14.64213085      18.48153114      23.64504623
H       14.51885414      19.12903595      22.21393204
O       15.26360512       3.41232920      17.45296669
H       15.42880249       3.97382760      18.23608208
H       14.99652100       2.53496456      17.79425812
O        1.87114823      12.69887924      11.37647152
H        1.49093890      11.80602551      11.36538792
H        2.78837419      12.69100380      11.76545715
O       13.05984688       2.31077027       1.25675833
H       12.46295643       1.76882553       0.70664299
H       12.81050014       3.26618695       1.05400038
O        3.48674083       3.22762418       2.29799724
H        3.82943010       2.32258701       2.14771557
H        2.71536756       3.27057409       1.68704331
O       22.05885315      16.48605347       0.35627818
H       21.64747047      15.82611084       0.95335579
H       22.45585251      15.96762943      -0.36796904
O       23.36803055      24.23650169      18.31503105
H       23.30208206      25.08833122      18.77903175
H       22.43664169      23.98039627      18.16641235
O       10.60539627       9.93731689      12.91824150
H       10.17560482       9.19371128      12.46130371
H        9.88240337      10.54663467      13.16640949
O       21.27395058      13.99189663       8.93966198
H       20.94520950      14.65926838       8.30789948
H       21.17346001      13.12590408       8.49214077
O        7.27835751       5.06355906       9.24797153
H        6.40600920       4.63305759       9.29740810
H        7.68406248       4.93734312      10.16931915
O       13.52434063      14.38895798      12.22566700
H       12.85295582      14.64138985      12.89134026
H       14.21687698      15.08130646      12.29776669
O        8.38934135       4.94332933      11.61278629
H        8.22572136       5.83661890      11.98753262
H        8.10134125       4.29150534      12.28159237
O       14.97508717       9.46909046       1.10828745
H       14.81251812       9.90152645       0.20465411
H       15.22681427      10.23704052       1.65795434
O        8.76694965       0.18709050      14.76122665
H        9.40280247       0.91749156      14.93075466
H        7.90499401       0.59658307      14.96531487
O       17.37641335      25.36653137      24.58236694
H       16.52556801      25.30758286      24.09435463
H       17.76215363      26.22213173      24.31131363
O        1.40735567      14.11538124       9.37195396
H        1.50764930      13.63438225      10.25601196
H        1.87059748      14.95207214       9.53963375
O        7.77817965      24.26342583      18.26656723
H        7.41011858      23.75232506      19.01430893
H        8.26239014      23.61874390      17.71122169
O       25.01540947      14.28420544       7.22225475
H       24.93865967      13.30516243       7.21095276
H       25.48518944      14.50335884       6.39727879
O        4.02182102      24.70195198       8.28938007
H        4.71044254      25.16906166       8.81847095
H        3.82645941      23.85345650       8.72165298
O       11.27206230      25.50791740       4.11923933
H       11.64213085      25.26511383       4.99129772
H       10.32742596      25.73904991       4.26259279
O       19.28964615       1.82197034       4.65452766
H       18.85633659       1.03168023       5.02451754
H       20.12069321       1.90245187       5.15847778
O       24.30180931      12.13081646      11.09304810
H       24.97355843      12.65406418      10.61097527
H       24.55359840      11.19992828      10.93127060
O       21.11675072      18.85247612      18.50095749
H       20.73364639      18.30519676      17.76664734
H       20.63335991      18.53293419      19.28611755
O       24.53822708       9.45432949      21.37578201
H       23.80775833       9.73697376      20.79569817
H       24.81556511       8.58110905      21.03936577
O       18.60813522       7.11200142      19.35725021
H       18.34828758       7.51612854      18.49940300
H       19.16008759       6.34016085      19.12721252
O       11.55069065      20.60446167      14.56962872
H       11.08756351      20.86860847      15.39004326
H       12.33896446      20.09950066      14.86250591
O       -0.00937148      11.18339825      24.32670593
H        0.87807924      10.92284107      24.62012100
H       -0.45683140      11.64760590      25.09129715
O       14.00849628      25.87958717      26.45615005
H       14.35634232      26.79066849      26.52097321
H       13.95334530      25.69607353      25.49092865
O       23.41489601       1.24825835      20.30894661
H       22.52652168       1.58939934      20.54183388
H       23.63283920       0.61796504      21.01949120
O        0.08769856       4.42780495      17.87342453
H       -0.15499978       3.83178711      17.13804054
H        1.03944194       4.25193644      18.03467369
O       18.53914642      22.72634506      25.23307800
H       18.29896355      23.61690140      24.88923454
H       19.48426437      22.61161995      25.03138161
O       14.16823483       6.65831280       8.78887367
H       15.07031536       6.93937111       9.05005836
H       13.63666534       6.66995430       9.60735893
O       10.17714596       1.49965596       9.68833160
H        9.79643917       0.72355074      10.13799858
H       10.55853176       2.03391004      10.43298054
O       10.25308228      17.05867577       8.67669487
H        9.93846512      17.97486115       8.77443790
H        9.43874645      16.52373886       8.69372463
O       16.10699081      11.66407204      19.66621590
H       15.60485268      12.50275421      19.73914337
H       16.62784195      11.73400402      18.83341980
O       24.81813431       6.44601154       9.48512077
H       24.59680557       7.29495478       9.04166603
H       25.59564018       6.67560911      10.03656864
O       -0.11579754       2.30623293      22.59267235
H        0.49146318       1.83778262      21.96807861
H        0.35332087       3.15972281      22.76787949
O        7.11721563      25.18796349       8.06021118
H        7.00089025      25.86680412       7.35075378
H        6.86524105      24.34400558       7.64191437
O       17.23180962      20.13756943      20.02193832
H       17.69184685      20.85127449      19.52086639
H       16.35737610      20.08377457      19.59402466
O       21.43388748       7.40717793       3.80429101
H       22.32795525       7.20414639       4.12185812
H       21.37475395       8.38268089       3.67167830
O       19.22679901       8.18911648       6.15816736
H       18.60071182       8.24357414       6.92878103
H       19.83734703       8.95756531       6.19923496
O       22.31713104      11.42736912      23.98059845
H       22.99510193      11.69418907      24.63200569
H       21.80775261      12.24030972      23.79601860
O       11.47820282       2.21867418       6.25781584
H       11.26656151       1.63099766       7.01132965
H       10.90460396       3.00324631       6.37986660
O        5.84700012       4.93794298       2.17515659
H        6.53643084       4.78110695       1.50466859
H        5.22117949       4.18069124       2.10361743
O        2.15467000      16.46827126      17.68884659
H        1.70485568      16.13870811      16.88216972
H        2.29467106      15.64882946      18.20081902
O       11.78314877      27.34446144      16.78216934
H       12.22771263      26.58003998      16.36894226
H       11.08007717      26.98168373      17.36655426
O       13.26134872      25.42120934      13.17393208
H       13.85301399      24.71939087      13.51454449
H       13.72837257      26.26415634      13.52190876
O       19.83105469       6.60734701      11.55723667
H       20.19803810       7.50468540      11.67618656
H       19.06683350       6.53728485      12.18098354
O       18.27929115      11.30815697      21.36930084
H       18.59677696      12.16319084      21.71640205
H       17.42261124      11.52665710      20.91518974
O        7.80114412      11.21141720      24.24422264
H        7.00013447      11.77569389      24.17845535
H        7.48696709      10.30017281      24.09343338
O        8.89332676      12.45939922      20.19791412
H        8.94163704      11.52447891      19.90456200
H        9.42227554      12.98419571      19.54999542
O       25.43268967      17.10715485      22.44665337
H       25.52598190      16.88120651      21.49899673
H       25.50693512      16.26636696      22.93987274
O        2.71298361      21.80482864      15.65805531
H        1.77811444      21.98108482      15.87344837
H        2.90060759      20.83761597      15.71701145
O       10.97551250       9.76109791      25.49209595
H       11.31278992      10.08755779      24.63717270
H       10.71060562      10.55141926      26.00037193
O       11.18549156       4.48546648       3.61392045
H       10.25415039       4.55660582       3.88547969
H       11.31644154       4.95625305       2.75883460
O        9.90101719      26.14214706      18.82407761
H        9.00962543      25.76725006      18.66678429
H       10.36364841      25.42809486      19.30119133
