1824
Lattice="32.27000045776367 0.0 0.0 0.0 32.27000045776367 0.0 0.0 0.0 32.27000045776367" Properties=species:S:1:pos:R:3 pbc="T T T"
Na       8.79589844       2.97740197      22.37889290
Na      23.29983139      15.29237461      20.12849426
Na       8.91410351       8.82694626      16.68175697
Na      13.01879978      21.10477257      21.47011757
Na      26.03960037       6.27638721      14.28064632
Na      14.45567608       5.32391691       0.79497153
Na      22.18852234      11.75406361      25.95191383
Na       5.76095533      31.89152527       4.75200701
Na       9.95102310      31.69849396       4.17482328
Na      12.26346397      12.97945786       7.37633085
Na      26.66031265      11.70069981      27.54273987
Na       4.45346212       5.46639347      13.40669918
Na      19.82002258       8.11992264      18.97721291
Na      13.22117329       3.35446191      29.36099815
Na      12.99844265       7.00666237       9.38780212
Na      24.54332352      30.63027763      25.82441330
Na      22.66399765       5.93820095      21.56497955
Na      15.63727951      18.99045372      27.43260193
Na       9.68409729       6.57350445       6.35659504
Na      21.03547096      24.67242241       0.39112803
Na      24.24927139      16.14058495       6.99514103
Na       8.45376873       5.06229925      14.92691040
Na      18.17912674      28.69236755       5.85589886
Na      20.15515137      31.75461578       8.37537289
Na      28.55671883       9.67308235      30.38008118
Na      17.39797592      13.44574547      26.79250717
Na       1.78923857      11.23574448       4.29546404
Na      19.42709160      23.64826965       7.12955999
Na      -1.11235440      23.17156029       1.93703687
Na      21.01465607      10.98604012      20.98231316
Na      14.72946835      11.96056557      31.25868797
Na       5.75856113      21.00628853       9.39659119
Na       4.30852032      15.57428551       5.03622723
Na      17.83380127      13.04776859      30.56260490
Na      22.69058800      10.57167530      12.84563160
Na       7.67283487      27.06895828      11.87958336
Na      21.29164696      15.24638844      29.96874428
Na       3.58796144      13.23258018      24.62914085
Na      25.05303383      11.26901054      30.77143478
Na      24.03763008      27.26320457      24.50123787
O        5.98657131       8.61711025      10.16913891
S        5.13400745       7.58234978      10.70750523
O        4.83620834       6.47605228       9.82884884
N        3.98516107       8.06437397      11.69145870
S        2.55994940       8.55429935      11.20704460
O        2.55953264       9.09890079       9.86792469
O        1.92243099       9.26810837      12.27744865
F        1.71577895       7.16583109      11.08093166
F        6.05563211       6.95109749      11.84911537
O       18.41976357      24.76003456      26.84502792
S       19.54075813      25.66538811      26.74480438
O       20.73752785      25.28088760      26.04827118
N       19.83880043      26.44960785      28.07822037
S       20.24825096      26.25704956      29.54457474
O       19.60709953      25.18389893      30.28467941
O       20.28551292      27.52978897      30.22266197
F       21.77994919      25.83691216      29.49212646
F       18.97328186      26.91952133      25.96230316
O       10.84381485      17.83208084      29.22060013
S        9.85150528      17.98754120      28.18160057
O        9.45903778      19.33769989      27.84055328
N        8.64848900      16.97316551      28.18360138
S        7.56938553      16.79621124      29.30332947
O        7.98032522      17.08242989      30.65315628
O        6.80537891      15.60394764      29.02071762
F        6.53112936      17.97035217      28.96639252
F       10.56489182      17.45828819      26.88029671
O       15.61504745      16.43681908      17.15493774
S       16.78760338      16.25793648      17.97758865
O       17.29953384      17.44014931      18.63154793
N       17.88368988      15.25778389      17.47825050
S       18.76715279      15.49490833      16.15638161
O       18.07558632      15.99234772      14.99612045
O       19.68900871      14.38814640      16.06040573
F       19.72721863      16.71161270      16.56990433
F       16.32048225      15.34856701      19.18469429
O        1.04631495      12.22422218      17.77810478
S        0.65130824      13.19944668      16.78019142
O        1.61310208      13.55237865      15.75751781
N       -0.13267055      14.45876503      17.36023521
S        0.60929960      15.49809074      18.29623795
O        1.26977623      14.94084454      19.45877457
O       -0.23556288      16.65089226      18.51053429
F        1.80175996      16.04654694      17.38031960
F       -0.56040436      12.51428318      15.98613358
O        6.34430313      18.31437111       3.25387025
S        5.89056253      19.68413734       3.33726597
O        6.84179115      20.76416397       3.28286791
N        4.79093885      19.86301422       4.47704077
S        4.84725618      20.47743034       5.88516760
O        6.02357531      20.19669724       6.68833542
O        3.57622886      20.31826782       6.54968786
F        4.96462202      22.04307938       5.67636824
F        4.98328161      19.89032936       2.06864858
O        6.15689135       6.11781693      14.72656345
S        5.68753529       7.35149002      15.38574314
O        4.26348400       7.54901838      15.19707870
N        6.63105440       8.56211662      15.17069340
S        7.36917114       9.26167011      13.94505787
O        8.28126049       8.35279655      13.28947258
O        7.90077114      10.49187946      14.48298073
F        6.17506361       9.56063747      12.95225239
F        5.97395468       7.11799765      16.91386414
O        3.29041576       9.38947678      25.02242088
S        4.39848089       9.87862206      24.23378754
O        4.93317032      11.14744854      24.69613647
N        4.33768129       9.69435692      22.70890808
S        3.33545184      10.25484753      21.60436630
O        1.96618652      10.31917763      22.04217339
O        3.67837024       9.67110634      20.33299255
F        3.82929254      11.77851009      21.52521706
F        5.58701658       8.88533878      24.51183701
O       23.57658768       8.73918915      17.41298866
S       24.65952110       7.93688583      16.87958717
O       25.75354576       7.63368750      17.76667213
N       25.09977913       8.23544693      15.40167332
S       25.87928009       9.50391388      14.84391594
O       25.24790573      10.76256657      15.18050480
O       26.28772354       9.22623062      13.48816299
F       27.23987007       9.48970318      15.66128063
F       23.99824333       6.53235435      16.55604744
O       14.54164982      27.18943787       5.25010490
S       14.94067001      28.07621384       4.17157078
O       16.27305031      28.66881180       4.35932684
N       13.87624454      29.09986115       3.67292118
S       13.37273216      30.45858765       4.26156998
O       13.05477047      30.50134087       5.67127275
O       12.37178040      31.00278473       3.34605622
F       14.64112759      31.40934944       4.10578489
F       15.07615471      27.19836426       2.88216805
O       28.23109436       6.77761078      22.36974716
S       29.04541016       7.13745689      23.51491737
O       29.33256531       8.55166721      23.66469193
N       30.17566872       6.16782331      23.94637299
S       31.43264961       5.61974812      23.14669228
O       31.37171745       5.79256058      21.71380234
O       31.86254120       4.36081982      23.70327377
F       32.58077621       6.62393618      23.62076950
F       28.08344269       6.85279608      24.74456596
O        2.29812670      11.43145084       6.87312269
S        3.01075053      12.63811970       7.24058342
O        3.51712584      12.76948452       8.58530426
N        2.37647319      13.96242619       6.61987114
S        1.10858226      14.63513660       7.30584764
O        0.19456902      13.68677807       7.88745928
O        0.63709366      15.67011547       6.41596317
F        1.68215692      15.43557549       8.55550098
F        4.29859877      12.63741779       6.33613110
O       17.83496475       0.26977441      15.27779770
S       18.29720879       0.91759580      14.07106590
O       18.52204704       2.34729505      14.14554024
N       17.76579094       0.40199810      12.68142891
S       16.25347328       0.48072276      12.21066570
O       15.27423763       0.58448124      13.26919079
O       16.03186989      -0.44294301      11.12197304
F       16.20674133       1.90664232      11.50107479
F       19.78480148       0.35415187      13.89137363
O        7.73137569      24.92593384      19.46033478
S        8.42615318      24.05982208      20.38348961
O        9.65235233      23.42422867      19.93206215
N        7.55749321      23.13614273      21.33707619
S        6.60272789      22.02016449      20.80469513
O        5.78034544      22.36851120      19.66575241
O        6.03249598      21.29298019      21.91264915
F        7.61972570      20.94014740      20.15768051
F        8.90843010      25.03558540      21.55125046
O        8.58990955       9.66281796      23.97180748
S        8.79994869      10.82042503      24.80406380
O        8.27302837      12.07697868      24.32787514
N       10.18326664      10.95846272      25.53090477
S       11.60911655      10.83102798      24.89656258
O       11.66644573      10.14282036      23.62904167
O       12.55062008      10.45496655      25.92224884
F       12.04589462      12.31426239      24.55459404
F        7.99251842      10.49773407      26.13985825
O       24.18997383      11.63939381      11.22993183
S       24.30117226      11.45615482       9.78653622
O       24.38213921      12.67950439       9.01004410
N       23.46220970      10.28136063       9.18893719
S       22.02913666      10.48748016       8.54071426
O       21.35825920      11.71135998       8.90639210
O       21.32298279       9.23537350       8.54207039
F       22.43414688      10.70849323       7.00864029
F       25.74301147      10.84130573       9.64775944
O       27.04530334      17.88662720       5.25346375
S       27.10815430      16.50563431       4.83976793
O       25.93359947      15.69587517       5.13153124
N       28.44936943      15.78118801       5.14063883
S       29.03401756      15.45704079       6.57159328
O       29.12895203      16.57110786       7.46974707
O       30.17507553      14.59374428       6.41469288
F       27.91230202      14.47430134       7.21474934
F       27.20582390      16.55929756       3.27664423
O       22.67647552      23.46750450      25.22434807
S       22.72231483      22.21188354      25.93260956
O       21.83915710      21.15883446      25.47844505
N       22.81269264      22.34698677      27.51892662
S       21.70685196      22.61968040      28.56699944
O       20.50302124      23.32249832      28.18109703
O       22.29103088      22.96434975      29.84351158
F       21.10839462      21.16168404      28.88908768
F       24.16845894      21.66746330      25.70144272
O       26.36534691       5.64889193       5.01169300
S       26.39221001       5.15203714       3.65645933
O       26.89796257       3.81643891       3.45030403
N       26.82867813       6.18230009       2.56946731
S       28.19123268       6.92974949       2.37234592
O       28.57288742       7.81278276       3.44246626
O       28.25863075       7.49633408       1.04118538
F       29.30634499       5.80287075       2.35467911
F       24.85593796       5.05681133       3.22380996
O       13.98609829      29.40106201      14.11239338
S       13.86390591      28.31237030      15.04825401
O       15.05278015      27.90142059      15.76661396
N       12.96076393      27.10651016      14.62568188
S       13.09089756      26.17713165      13.36821365
O       13.10625172      26.88606453      12.10798073
O       12.15994358      25.07144356      13.48651981
F       14.56062222      25.55751801      13.47661781
F       12.89646816      28.90364075      16.16723061
O       17.73416901      14.34752846      10.25800419
S       17.54097366      12.97523499      10.65772724
O       16.35199547      12.58876991      11.39516068
N       18.89066315      12.36558819      11.26138210
S       19.19801903      11.87795734      12.68312168
O       18.39916420      12.36758614      13.78801250
O       20.64078331      11.86151123      12.94961834
F       18.88045120      10.30531693      12.68015766
F       17.46319771      12.18402863       9.29606056
O        5.38556337      18.93044090      19.32299423
S        4.49606180      18.16220665      18.47536469
O        5.02159023      17.80974388      17.16835594
N        2.91903424      18.47430992      18.53222656
S        2.42063522      19.96951485      18.27739906
O        3.31400251      21.04296875      18.66058159
O        1.01560378      20.09720802      18.57633018
F        2.41166997      20.05073357      16.66352844
F        4.38788462      16.74078560      19.18591309
O       29.23911667      19.14848900      25.15047455
S       29.88789177      20.25999641      24.49390411
O       31.03711128      19.99098396      23.65808105
N       30.01536560      21.58602333      25.34613800
S       30.77061653      21.81514168      26.69394302
O       30.80514717      20.70911217      27.62037086
O       30.39194870      23.10485649      27.22704124
F       32.29467773      22.04316139      26.26486206
F       28.79401207      20.82648277      23.48652649
O        4.11038494      10.94962883       4.00046015
S        4.84058809      11.76778793       3.04833603
O        4.29152298      13.09254265       2.83195448
N        5.34626818      11.02305317       1.81910467
S        4.82750893       9.80060482       0.95697904
O        4.60416603       8.61195946       1.74960387
O        5.59632254       9.68100739      -0.25073197
F        3.36585665      10.28609562       0.51546288
F        6.19062948      12.07671452       3.79239583
O       19.34191513       5.76061296      19.38010788
S       20.04029083       4.58623171      18.85099602
O       21.37993240       4.44787025      19.40065193
N       19.81644630       4.22855663      17.35845566
S       20.27443123       5.21374846      16.16941071
O       20.40385437       6.58601236      16.62955856
O       19.50645828       4.93971634      14.98691845
F       21.74030685       4.69764471      15.90519714
F       19.22951126       3.38910747      19.49989319
O       14.87571716      15.44402790       9.98837090
S       13.47310448      15.09900665       9.93472290
O       13.21626568      13.72309017       9.49486065
N       12.46467495      16.17837524       9.41616154
S       12.21784210      16.13289452       7.77327108
O       13.45790577      15.65489292       7.11478138
O       11.77491760      17.47330284       7.37182188
F       10.67159462      14.56051254       6.77831697
F       13.00936031      15.11852837      11.43326187
O       11.19860268      16.69134331      14.10162926
S       10.26181221      17.71445084      14.51479244
O       10.72847557      18.65614891      15.51184845
N        8.72618103      17.33175087      14.67047215
S        8.32480431      16.05905914      15.52242470
O        9.03402519      14.82160759      15.25274467
O        6.89343739      16.00576019      15.67663479
F        8.87122631      16.55409431      16.97794342
F       10.10593128      18.62352562      13.22000694
O       11.60106182       8.13974857       6.14158535
S       11.53501034       9.34857082       6.94836760
O       11.50148010      10.60310364       6.23488331
N       12.39971733       9.24339581       8.26861382
S       13.81277561       9.96538353       8.47766685
O       14.27369213      10.75277901       7.35807514
O       14.67447090       9.03592873       9.17365646
F       13.49150944      11.04625607       9.57747078
F       10.09341240       9.23767853       7.63076830
O       16.28117371      11.09879780       2.37492132
S       15.87698364       9.85787487       1.75957298
O       14.85063171       9.94235611       0.72935176
N       15.58997536       8.69462013       2.76583695
S       15.29928875       8.88163948       4.30831242
O       16.25777626       9.63194656       5.07152367
O       14.88569450       7.59475851       4.82281828
F       13.97806740       9.75110817       4.31962299
F       17.13666344       9.29787922       1.01686478
O        4.78455114      29.84616470      10.23551178
S        3.66710854      28.96271324      10.50467014
O        3.29582191      28.74991608      11.87949181
N        3.65705776      27.70375443       9.59383011
S        4.48532867      26.40232849       9.48931217
O        5.78100586      26.49311256      10.14767742
O        4.48316336      25.92042923       8.12712574
F        3.66640615      25.34863472      10.36558056
F        2.42921543      29.70324516       9.83622742
O       25.97581863      14.55426121      24.47746849
S       24.86984253      13.71747112      24.88411903
O       25.17982101      12.85561275      26.03632927
N       23.90566254      13.01860905      23.80702019
S       24.52458000      11.98439503      22.72703934
O       25.66263008      12.45952034      21.98214912
O       23.38958931      11.40829372      22.02967834
F       25.08094978      10.77053833      23.59858131
F       23.80010414      14.71410751      25.45769882
O       15.87587547      21.23604202       8.30298233
S       16.03007507      22.35851288       7.41125774
O       17.30450630      22.43777847       6.69798565
N       15.61692524      23.74731636       7.99156666
S       16.33517838      24.68540382       8.98938084
O       17.00581932      24.07492638      10.10911179
O       15.57278347      25.89479446       9.17661476
F       17.62124443      25.26785851       8.10132980
F       14.95045567      22.22553444       6.27594662
O       22.48571587      25.14298058       6.56728649
S       22.17159271      26.35727882       5.85852432
O       20.85137177      26.39207458       5.26596785
N       23.29318237      26.96562386       5.00129890
S       23.95894814      26.41357422       3.66024351
O       24.23675156      24.99639511       3.69132066
O       24.99329376      27.33575439       3.28419685
F       22.82928276      26.57269478       2.53649974
F       22.11509514      27.47421455       6.95851231
O       17.64420891      15.39734745      25.12936974
S       16.53184509      15.90223026      24.34720993
O       15.57665348      16.69333267      25.10345840
N       15.91137505      14.85546398      23.37092018
S       14.84516144      13.80910492      23.89986229
O       15.18792343      13.32994175      25.22607231
O       14.59016418      12.85294628      22.86611748
F       13.55574608      14.68694878      24.07784653
F       17.18446732      16.83976364      23.30567360
O        8.02202702      27.76865959      14.15948963
S        7.74450684      27.08889961      15.42204475
O        7.08087301      25.81060791      15.29096699
N        7.24895763      28.02372551      16.55707932
S        5.92484426      28.84679985      16.71576691
O        5.50628710      29.51063919      15.50124550
O        5.95436668      29.62356186      17.93173218
F        4.81228447      27.73870659      16.94535255
F        9.16378307      26.77264023      15.98907757
O       19.86598587       4.75809860      29.00522614
S       20.37997818       4.93479204      30.34506607
O       19.52756310       5.64256811      31.26520157
N       21.85359955       5.29164553      30.45679092
S       23.09246635       5.95739222      29.83121300
O       22.87568474       6.68058634      28.59599876
O       24.27205276       5.14353275      29.93973541
F       23.34046555       7.13638735      30.87675095
F       20.42612076       3.44674468      30.92305756
O       26.98519516      22.48653030      10.38645077
S       26.84321594      23.91286087      10.17202663
O       27.48497581      24.79193115      11.12527943
N       25.42545319      24.42140388       9.63114071
S       24.33898354      24.60695457      10.77966404
O       24.50581169      23.76651764      11.94630337
O       23.02434731      24.75265694      10.19441319
F       24.62238503      26.08086586      11.33621693
F       27.65645981      24.15355492       8.83750725
O       12.09927559       2.38221455      10.02781010
S       11.79177952       3.31127787       8.97914791
O       12.74233532       3.58305931       7.93657494
N       11.39262199       4.75875950       9.57710838
S       10.43319130       5.10647488      10.75812531
O       10.60389423       4.37935352      11.98527908
O        9.09473515       5.49459076      10.38508987
F       11.09569550       6.52751350      11.10014153
F       10.47643089       2.78461885       8.27569675
O        4.90152454      14.64251423      11.24485588
S        5.41575003      15.69277191      12.10853100
O        4.74062872      16.96082497      11.97844410
N        6.96091032      15.72560883      12.29813957
S        8.05799198      16.20531464      11.28086662
O        7.75907469      15.99177170       9.87695694
O        9.37458229      15.81234837      11.71849728
F        8.10679626      17.79052925      11.41521931
F        5.09164858      15.19040012      13.57318306
O       22.58629990       6.77101374      13.95824814
S       22.20714378       6.95272732      12.58137321
O       21.27511406       6.01269341      12.00552464
N       23.34791565       7.52752399      11.63621044
S       24.65214157       6.73799944      11.20382690
O       25.20541954       5.88548231      12.25324059
O       25.61502075       7.60314178      10.57472610
F       24.12338257       5.73125410      10.10743713
F       21.35223389       8.30955124      12.62517738
C       20.83140373      28.46243477      23.77334023
O       21.67662239      28.50613785      24.93197250
C       21.26777267      29.48491669      25.90328407
C       21.82770920      29.07176781      27.25278091
O       23.27498436      29.16930008      27.24956322
C       23.84853554      28.34474182      28.29853058
H       19.78259468      28.33279610      24.07748604
H       20.93870354      29.37738800      23.17036247
H       21.10449982      27.57629013      23.18703270
H       21.62182999      30.48888206      25.59215355
H       20.16519547      29.50582504      25.97137833
H       21.53784561      28.02841759      27.42416763
H       21.41774178      29.67994499      28.07697105
H       24.93231010      28.52470398      28.29657555
H       23.40296936      28.61033058      29.27211761
H       23.63008308      27.28575516      28.09525299
C       13.02596855      19.99872780      29.30108833
O       14.06479836      20.51931190      28.45988274
C       14.29458141      21.91908073      28.72492218
C       15.45630741      22.36562920      27.85907173
O       15.02333736      22.40863991      26.48946190
C       16.03553200      23.06992149      25.70223999
H       13.22297192      20.22329330      30.36350060
H       12.03890800      20.40386200      29.01871872
H       12.97244644      18.90920258      29.16083336
H       13.38039684      22.48562622      28.47694969
H       14.52750206      22.08147240      29.79026413
H       16.33876991      21.69759750      27.93071938
H       15.74854469      23.36700058      28.22483635
H       15.69512939      23.04917908      24.65466690
H       16.19113922      24.10021782      26.05308533
H       17.00579071      22.55239677      25.79125977
C       15.59106255      10.51312256      25.99272728
O       15.15990925       9.38639450      26.74400139
C       14.59832668       9.82387543      27.97671127
C       13.74642754       8.68799305      28.52785301
O       14.52874660       7.49112320      28.39599419
C       13.96408176       6.36200762      29.05400848
H       14.76308250      11.21216011      25.81800270
H       16.38035583      11.05529404      26.55849648
H       15.97655773      10.16281319      25.01844788
H       15.40816116      10.10459518      28.68345070
H       13.93800735      10.70370960      27.84807587
H       12.81190681       8.59405994      27.94153976
H       13.46708584       8.89621830      29.57410622
H       14.61803532       5.50308037      28.84019470
H       13.90447807       6.53795242      30.14427185
H       12.94188404       6.15657425      28.68021011
C        9.93850613      13.20405674       9.55102158
O        8.57727814      12.92762184       9.88669205
C        8.48711967      12.62759686      11.28150463
C        7.03680611      12.31395245      11.58485889
O        6.57229519      11.41119766      10.58329487
C        5.15419102      11.36126041      10.52759171
H       10.34309387      14.02360725      10.17542458
H       10.57602501      12.30478764       9.73040104
H        9.99222279      13.52693558       8.48596764
H        9.17954731      11.79951859      11.49461460
H        8.82959652      13.47633076      11.90318489
H        6.42261505      13.22723675      11.56267929
H        6.95012236      11.89655304      12.60991955
H        4.87555218      10.80742741       9.62018394
H        4.74195528      10.83144283      11.40614796
H        4.71946335      12.37241936      10.47471046
C        7.87668943      11.12461758       6.41578150
O        6.53960800      10.64630222       6.55453825
C        6.55436993       9.39117527       7.23320246
C        5.10636425       8.94612217       7.36600542
O        4.51511097       8.85457706       6.08103323
C        3.16929173       8.40672207       6.14447260
H        8.37704563      11.27904415       7.38991833
H        8.48849106      10.43665504       5.79788303
H        7.81777716      12.09739494       5.91176414
H        7.14890337       8.64311218       6.64875746
H        7.01343536       9.48864365       8.23832989
H        4.53802729       9.65816784       7.99927855
H        5.07038689       7.96204710       7.86088228
H        2.82774639       8.21155834       5.11652231
H        3.07881474       7.47218370       6.73210907
H        2.51893067       9.17716885       6.58787251
C       17.80637741       2.75474286       6.62733507
O       16.72317505       3.37718701       5.96123266
C       15.66897297       3.82289362       6.83806658
C       14.75567150       4.75418901       6.05563641
O       14.00137424       3.97560120       5.12896538
C       13.11957741       4.76910210       4.36329842
H       17.98276520       3.20250010       7.62276125
H       17.62002563       1.67008710       6.76845169
H       18.70256042       2.86835885       5.99603128
H       15.10004330       2.98097706       7.25326157
H       16.11033440       4.38487053       7.68151951
H       15.36299038       5.49912119       5.51305437
H       14.07683659       5.30426168       6.73654890
H       12.55148697       4.12607336       3.68415213
H       12.40051270       5.32161856       4.99424458
H       13.68187332       5.51447010       3.76845479
C       13.46685410      19.15020370      11.32452393
O       14.04469872      18.26580238      12.26989460
C       15.45326900      18.12434578      12.05088806
C       15.97903156      17.15003967      13.11111355
O       15.26386356      15.94058228      12.91793156
C       15.70144844      14.91382122      13.79232311
H       13.89882946      20.16779900      11.41408348
H       13.61315250      18.78547287      10.29124069
H       12.38338375      19.18641472      11.51348877
H       15.63187599      17.73560905      11.02576923
H       15.94922161      19.10458755      12.18022633
H       15.82356358      17.52804184      14.14536190
H       17.06814384      16.99066162      12.96792793
H       15.04916954      14.05469227      13.57560921
H       16.74153137      14.60567093      13.58062267
H       15.62639999      15.20440865      14.85576439
C       17.02729225       7.58862400      20.96603966
O       15.87662506       6.82065678      20.63747025
C       15.97665501       6.29533768      19.31366539
C       14.66609383       5.64515781      18.90387726
O       13.74123573       6.69236898      18.51546669
C       12.55054092       6.14702749      17.93705940
H       17.92878914       6.95754004      21.04231071
H       17.19235992       8.37220001      20.19511795
H       16.86016083       8.09332561      21.93064690
H       16.18104744       7.11899328      18.60434341
H       16.78569794       5.54646587      19.23553085
H       14.24049187       5.06674147      19.74311066
H       14.82590580       4.97276402      18.03790855
H       11.95697975       6.97319508      17.51206398
H       12.77710152       5.42317057      17.12894630
H       11.93336296       5.60857105      18.67750168
C       31.51382446      25.60281372      23.90062714
O       31.16815186      25.16975975      22.59975815
C       29.97093391      24.39367485      22.59481430
C       29.91850853      23.60498047      21.27854347
O       31.07886887      22.78852654      21.22954178
C       31.05391884      21.89059830      20.12925720
H       30.76294327      26.30097771      24.32180977
H       31.58313560      24.75329590      24.60874557
H       32.49239731      26.10969162      23.86723900
H       29.94419289      23.69785500      23.45725822
H       29.07755280      25.05315590      22.67454338
H       29.87062645      24.26803589      20.39160347
H       28.99039078      22.99758911      21.28994560
H       31.97407722      21.29312706      20.14644432
H       30.19196892      21.20177650      20.21118927
H       30.99008751      22.40706253      19.15053940
C        2.72160101      23.30640030      21.21752930
O        2.07717919      22.13104439      21.67831612
C        2.97529507      21.31894875      22.43702888
C        2.15465879      20.09457397      22.82434845
O        2.07427478      19.27516556      21.65199089
C        0.89175451      18.48265839      21.58978844
H        3.06494117      23.92356300      22.07219315
H        3.59641409      23.07355309      20.58155632
H        1.97505713      23.86310005      20.63208961
H        3.84524131      21.03894424      21.81149673
H        3.34230542      21.86425209      23.33307838
H        1.14967513      20.38273621      23.18616676
H        2.68310809      19.54039764      23.62305069
H        0.97549862      17.83473969      20.70605278
H        0.78334028      17.86112595      22.49546051
H       -0.00417860      19.11137772      21.46890259
C       18.68371773      25.02668190       4.06240940
O       17.54674911      24.21680832       3.79412794
C       17.66180801      23.40736580       2.62345243
C       16.39425850      22.58014870       2.51720166
O       15.33063793      23.48735619       2.21802425
C       14.04465580      22.89629745       2.32674742
H       19.60455894      24.42987442       4.19991493
H       18.87843323      25.77183533       3.26020169
H       18.50096893      25.56215096       5.00883293
H       17.77081871      24.03304863       1.71939969
H       18.52538109      22.72429466       2.68446493
H       16.20979309      22.07088089       3.47695231
H       16.47690392      21.82396126       1.71422613
H       13.30698395      23.69954681       2.21128321
H       13.86769390      22.14845657       1.53874958
H       13.90249252      22.40751076       3.30240607
C       18.04456711      11.54498291      22.77113342
O       18.81941795      10.37452030      23.07220840
C       19.23143005      10.37086773      24.43713379
C       20.24835777       9.24946022      24.56023407
O       21.41689682       9.69952106      23.85963249
C       22.24320221       8.61388397      23.42692375
H       17.11790085      11.58273506      23.36077309
H       18.64023781      12.45127678      22.97866249
H       17.75922775      11.46951103      21.71105576
H       19.69214058      11.34083366      24.69607735
H       18.37335777      10.23967552      25.10994148
H       19.84343529       8.32691383      24.10809898
H       20.47694778       9.05209255      25.62354851
H       23.01539803       9.01460838      22.75142288
H       22.72480583       8.08509064      24.26676750
H       21.62560654       7.90500736      22.84783936
C        2.17978525      18.04186249      13.71682072
O        3.23133373      18.99415207      13.58709240
C        4.31607914      18.69318771      14.49006653
C        5.66579914      19.03631401      13.89176750
O        5.61106491      20.39822769      13.41136742
C        6.72694492      20.61455345      12.56191635
H        2.47836113      17.07262039      13.27369404
H        1.91627347      17.86479759      14.77510929
H        1.28899610      18.42561531      13.19609928
H        4.16201210      19.20106697      15.45335484
H        4.32729864      17.61359024      14.71676540
H        5.91386318      18.37586594      13.04349709
H        6.45085669      18.93293953      14.66792774
H        6.66978121      21.65244102      12.18706036
H        7.70033693      20.45476151      13.07193470
H        6.70854187      19.90702820      11.70320320
C       24.07845116       3.59743714      14.42763138
O       23.16818428       3.54546094      13.35471439
C       22.76443100       2.23540854      12.95362759
C       22.06076431       2.35907459      11.61008644
O       23.08750916       2.48491311      10.60286427
C       22.53228188       2.77416348       9.32835865
H       23.78970337       2.93749189      15.26860809
H       25.10337448       3.32556772      14.09011364
H       24.04709816       4.63827229      14.78115082
H       23.63181305       1.55220938      12.88013744
H       22.04223633       1.84732592      13.69341564
H       21.39308357       3.23986793      11.60970402
H       21.42972183       1.47155929      11.40019894
H       23.34326744       2.90841246       8.59816074
H       21.89960670       1.92969656       8.98134136
H       21.89627457       3.67835307       9.36245728
C       26.04102707      15.45443344       9.37810421
O       26.90643501      16.54370880       9.58683014
C       26.61765671      17.70582008       8.79981518
C       27.53049088      18.80655670       9.35726547
O       28.41669083      19.27589989       8.32638550
C       29.77186203      19.33022690       8.76894569
H       24.99321175      15.66637707       9.66832256
H       26.06001854      15.09482288       8.32954121
H       26.39484596      14.62702560      10.01424122
H       26.83502579      17.52110291       7.73066950
H       25.54343414      17.97583580       8.88806629
H       28.09580612      18.40038872      10.21187115
H       26.94254303      19.65921402       9.74191093
H       30.38347244      19.63373375       7.90923262
H       29.91098022      20.05800247       9.58504105
H       30.11843681      18.33617592       9.09354591
C       18.43398666      13.69792938       1.26969481
O       19.36809921      13.14400196       2.17467618
C       19.95754433      11.90704823       1.74107778
C       20.40480042      11.20551586       3.02386808
O       19.23073578      10.83088684       3.73117471
C       19.55943680      10.43623924       5.05809975
H       18.94237328      14.07660484       0.35334879
H       17.66755486      12.94964027       0.97142833
H       17.91523361      14.53198242       1.76061952
H       19.23271561      11.28334332       1.18118346
H       20.83342552      12.09000397       1.08350635
H       21.05231667      11.86324501       3.64238977
H       20.98590469      10.31008434       2.71506715
H       18.62549400      10.12441158       5.53825617
H       20.27371788       9.58946991       5.06971836
H       20.00152016      11.27089024       5.63152122
C       26.87448120       1.48216248      27.70993233
O       27.66478539       2.57491803      28.14255905
C       29.07276726       2.38053226      27.96758652
C       29.71975517       3.57912803      28.66908455
O       29.51166916       3.40945220      30.06071472
C       29.92123985       4.51527929      30.84978104
H       27.13194656       1.17376828      26.67694664
H       26.97634506       0.61129856      28.38404274
H       25.82423019       1.80857885      27.71255684
H       29.41037941       1.44527400      28.44389725
H       29.32530785       2.35117888      26.88943863
H       29.25633621       4.51036310      28.30116844
H       30.80075073       3.60275865      28.42676926
H       29.76963234       4.25264025      31.90653610
H       30.98662186       4.75983620      30.68590355
H       29.32344055       5.42051172      30.66208839
C       10.11147213      14.39755058      26.16564751
O       11.48713589      14.61323261      26.48292160
C       11.99935341      13.78672218      27.52787590
C       13.43673038      14.22924995      27.78603935
O       13.42811871      15.28191185      28.77661896
C       14.74595356      15.74345016      29.01770401
H        9.99532127      13.71865368      25.30105209
H        9.54525757      13.95727062      27.00180817
H        9.64553833      15.35848618      25.91138840
H       11.39717865      13.88084984      28.45516396
H       11.99571800      12.72895718      27.21685791
H       13.90357971      14.58908558      26.84895706
H       14.04910278      13.37196255      28.13393974
H       14.73732948      16.46819496      29.84082413
H       15.43297482      14.92090607      29.29976654
H       15.17730904      16.20847511      28.10391235
C       18.83685875       4.58818054      11.87729168
O       17.44356918       4.43333673      11.65725803
C       17.02339935       5.33972692      10.66055202
C       15.53155041       5.07496357      10.48413754
O       14.93029785       5.43821144      11.73280239
C       13.75871181       4.69187021      12.04971218
H       19.41680717       4.29126358      10.97168541
H       19.09807014       5.63200426      12.11096668
H       19.12003326       3.94326234      12.71565056
H       17.21598816       6.38411236      10.96951962
H       17.55227089       5.16120243       9.69724274
H       15.35728264       4.01449537      10.23318958
H       15.11787987       5.70251322       9.66382694
H       13.21701813       5.19843292      12.86450195
H       13.10096931       4.63971949      11.16993046
H       14.00099468       3.65507698      12.34914875
C        7.21472597       3.02611804      11.04129505
O        7.64565420       3.01575756       9.69825172
C        7.01277018       4.03757429       8.94873333
C        7.62858248       4.14624453       7.55801010
O        7.48850584       2.91786337       6.81431818
C        7.96626997       2.99829674       5.46704483
H        7.39437437       4.01005363      11.51853180
H        6.13644552       2.80634546      11.14544201
H        7.77521706       2.26010847      11.59805584
H        5.93171310       3.84277868       8.85011768
H        7.10020971       5.01514339       9.45517731
H        8.70212364       4.40425491       7.63971186
H        7.08956718       4.95774221       7.03127956
H        7.53395081       2.17531967       4.87039566
H        7.65844440       3.93839264       4.96553516
H        9.06138229       2.87418222       5.39401722
C       27.48809242      26.38839531      15.57875824
O       26.24496460      25.70199776      15.43925571
C       25.19585037      26.61483002      15.15810299
C       23.99891853      25.81030846      14.67062092
O       23.45479965      25.07921028      15.80241585
C       22.43606377      24.20783806      15.29127121
H       27.73441505      26.93476677      14.65220356
H       27.44433784      27.10828209      16.41309738
H       28.25443459      25.63749313      15.80350971
H       24.96952057      27.22007561      16.05933380
H       25.48496246      27.30428123      14.33560848
H       24.30612183      25.09797668      13.89054394
H       23.20825005      26.45681190      14.24009037
H       21.93317032      23.71833611      16.13751793
H       21.68121338      24.77304649      14.71240997
H       22.86687088      23.43342781      14.63102150
C        1.10431957      14.75573063      23.26406097
O        1.24110425      13.47629547      23.91978455
C        0.31289998      13.31570625      25.00511551
C        0.86121941      12.19538021      25.89189148
O        2.01261020      12.75457859      26.54600334
C        2.59377575      11.90241432      27.53487778
H        0.26677004      14.75679874      22.54904747
H        0.94081140      15.54554462      24.01536751
H        2.03016949      14.96268845      22.70648193
H        0.25648412      14.26322556      25.57193947
H       -0.68650591      13.05654907      24.61034966
H        1.15776253      11.31515121      25.29235268
H        0.09527224      11.88441181      26.62566376
H        3.49492812      12.41726303      27.89098358
H        1.89086902      11.75081253      28.37137413
H        2.85507870      10.93182278      27.08329010
C       23.26013565      15.35361671      13.71723747
O       24.08300781      16.51576614      13.64297295
C       23.83170700      17.25293922      12.44076538
C       24.72476387      18.49740028      12.51211929
O       26.06011963      18.02512932      12.60716534
C       26.96180534      18.94328690      13.20534039
H       22.21081924      15.58361721      13.44882584
H       23.60785294      14.55163765      13.03572178
H       23.28215218      14.99914455      14.76092148
H       24.06722832      16.65630913      11.53761959
H       22.76668167      17.55076981      12.36713314
H       24.45230293      19.13556862      13.37584114
H       24.56790733      19.08731461      11.58883190
H       27.95390129      18.46499252      13.25035381
H       27.02163696      19.87350273      12.61537457
H       26.67007446      19.19568253      14.23940086
C       23.19539642      14.69262505       1.25600219
O       22.74603844      15.29683876       2.45540857
C       22.00791168      16.50018501       2.18327880
C       21.48484802      17.08413124       3.50314331
O       22.53085899      17.79728317       4.16472626
C       22.12783623      18.32384109       5.42797470
H       22.32533073      14.45462322       0.59952277
H       23.88941956      15.34912682       0.69506425
H       23.69600487      13.74468327       1.51148963
H       22.65330696      17.23608208       1.66628397
H       21.14868355      16.24717903       1.52795660
H       21.07057953      16.29131508       4.15254879
H       20.66200447      17.79377365       3.27435040
H       22.98922920      18.83252335       5.89045143
H       21.31287575      19.06435585       5.31013489
H       21.73674011      17.51956940       6.07835150
C       11.31893444      15.16831493      22.00662613
O       10.27317142      16.07988739      21.66879082
C        9.17620182      16.02292442      22.60663414
C        8.11976433      17.07050705      22.21799278
O        6.88796854      16.39136124      21.95243645
C        5.77199411      17.24741364      22.19531631
H       12.01380253      15.61737156      22.73635864
H       10.91491795      14.22407246      22.44195366
H       11.88479519      14.91983986      21.08313942
H        8.71440792      15.02102852      22.53266907
H        9.52270699      16.15026283      23.65435028
H        8.43939209      17.63022995      21.30704308
H        7.95292425      17.80366325      23.03991127
H        4.84350538      16.65977859      22.13825989
H        5.82823563      17.70342064      23.20325851
H        5.71465588      18.07550812      21.46562004
C       30.36430740      14.38765717       2.21471190
O       30.27649879      13.33010864       3.16173959
C       31.46286774      13.26003742       3.95810699
C       31.23386955      12.18771935       5.02523661
O       31.53588295      10.91120529       4.42403793
C       31.36308098       9.85562611       5.37834120
H       30.56668282      15.34556293       2.71655083
H       31.15565872      14.19262123       1.46494818
H       29.38692284      14.43943787       1.71334934
H       32.31671906      13.00619984       3.29572082
H       31.68167686      14.21642971       4.46247673
H       30.18988037      12.21279335       5.37337589
H       31.88273430      12.37296104       5.89767551
H       31.67242622       8.91787624       4.90169954
H       31.95708656      10.04924583       6.28771973
H       30.29753113       9.76275444       5.65306282
C       23.95927048      31.17300224      15.18872547
O       23.49981880      30.16113281      16.08390999
C       22.44887733      29.40283012      15.46021557
C       21.94528770      28.46375084      16.55880547
O       21.12063789      29.25020409      17.42703247
C       20.48744202      28.50924110      18.45867157
H       24.31060410      30.73943901      14.23609543
H       23.14921188      31.88605309      14.95536613
H       24.78057098      31.69687843      15.69280910
H       21.61163330      30.04095078      15.12594891
H       22.81220436      28.82811165      14.58615398
H       22.79274178      28.03336525      17.12580872
H       21.37241173      27.64852333      16.08481026
H       19.74816322      29.15280724      18.95074272
H       19.92357254      27.64577103      18.05451012
H       21.21741676      28.16634369      19.21435165
C        8.80010509      20.52346611      23.52169037
O       10.18293667      20.23101807      23.74065971
C       10.41151905      18.82782364      23.74936867
C       11.88037586      18.54901505      23.99690056
O       12.29194450      19.22041893      25.18262291
C       13.39135742      18.56631660      25.78719139
H        8.44660568      20.08222771      22.57036209
H        8.16564655      20.10647774      24.32490158
H        8.66950512      21.61255646      23.45923424
H        9.79653263      18.34675026      24.53148460
H       10.15132236      18.39510536      22.75926590
H       12.49926853      18.85991859      23.13062286
H       12.00421906      17.44657707      24.08278465
H       13.47786140      18.96987534      26.80691910
H       13.25306320      17.46854591      25.85295296
H       14.32608318      18.73696136      25.20129395
C       23.45349693      13.82050991       5.08260489
O       22.58512306      14.66504002       5.84063864
C       21.75489426      13.91639900       6.73656797
C       20.61341667      14.81290817       7.21126842
O       19.84653664      15.14645767       6.04964113
C       18.60593414      15.77944660       6.34699631
H       24.06295395      13.18138313       5.74793720
H       22.88464355      13.15786457       4.40111971
H       24.11252022      14.45972633       4.47743988
H       21.34793091      13.03398895       6.20990849
H       22.32978630      13.55628300       7.60830927
H       20.96918106      15.74897385       7.69946337
H       19.97417068      14.28450775       7.94472361
H       18.06202316      15.90390587       5.40166664
H       17.98956108      15.15372467       7.01532125
H       18.74880981      16.76140213       6.83394575
C       14.08511353       8.59745502      23.23180199
O       14.34282589       9.78017044      22.47990417
C       13.98013687       9.59009552      21.11485672
C       14.21860981      10.89813900      20.39862823
O       15.59830952      11.23354340      20.54698181
C       15.75118542      12.54095554      19.99566650
H       13.11949158       8.13556862      22.96237373
H       14.86997604       7.83532810      23.06960678
H       14.04359245       8.86320877      24.29855156
H       14.54474354       8.76070309      20.64579964
H       12.91032505       9.33171940      21.01859093
H       13.55649185      11.68790627      20.80782700
H       13.96916866      10.77423573      19.32527733
H       16.80337906      12.84185123      20.11256218
H       15.46919823      12.54235840      18.92721176
H       15.10601234      13.26533508      20.52410889
C       21.30638313      10.44928932      29.74109650
O       20.46413231       9.31251717      29.78597832
C       19.23055077       9.56896019      29.11020660
C       18.32580566       8.36061192      29.24143028
O       18.12671280       8.14103222      30.63870621
C       17.20211792       7.08204222      30.85532951
H       21.61284256      10.66858292      28.69209480
H       20.80433083      11.35606956      30.13004684
H       22.20061684      10.25260925      30.35138893
H       18.74915314      10.46853924      29.54507446
H       19.37765312       9.75786686      28.02633667
H       18.78923607       7.47443962      28.76709366
H       17.37546349       8.56671619      28.71369171
H       17.38321495       6.67015743      31.85709381
H       16.15748215       7.44249868      30.78695107
H       17.31422424       6.26198339      30.12489510
C        5.98032427       6.53235769       4.26818705
O        5.53336000       5.78882933       5.40310001
C        4.42525816       4.96686840       5.04456377
C        4.00144100       4.19805241       6.30531883
O        3.56527734       5.12553453       7.29515982
C        3.04884982       4.59749603       8.50447845
H        6.29336166       5.86031437       3.44731927
H        5.20819807       7.22475958       3.89616632
H        6.84271860       7.12985182       4.60740805
H        3.59036064       5.58797932       4.66243982
H        4.71957970       4.24827480       4.25077057
H        4.84900284       3.60185671       6.68581533
H        3.18284106       3.50533223       6.03366232
H        2.57773447       5.42373323       9.04954910
H        2.30614734       3.80116749       8.32282448
H        3.83375955       4.20751143       9.18050480
C       25.94634056      17.60781670      23.39754677
O       24.64377403      17.30376053      23.90587616
C       23.64185905      17.75647736      23.01599884
C       22.41167068      16.85614395      23.09923553
O       21.87280273      16.89371109      24.41348648
C       20.64119720      16.16880226      24.42594910
H       26.10555267      17.12546730      22.41552734
H       26.09918404      18.69223785      23.27521133
H       26.68128395      17.21642876      24.11228561
H       23.36173630      18.80376053      23.23897552
H       23.97873306      17.69598961      21.95592690
H       22.68220329      15.81445312      22.81341553
H       21.65806961      17.20909882      22.36371231
H       20.16446495      16.29945374      25.40014076
H       19.94067383      16.55420113      23.65659714
H       20.78516960      15.08493233      24.24916267
C       25.20892143      24.89597511      22.41606903
O       24.99817848      26.29650116      22.17910385
C       23.90793991      26.53179932      21.24346542
C       23.60811615      28.03614807      21.27855492
O       23.73162651      28.57924843      19.95165253
C       23.40642738      29.97260284      20.01389885
H       24.33368492      24.43786240      22.90867996
H       25.36381721      24.36380196      21.45956039
H       26.09691620      24.80792618      23.05683517
H       24.19665146      26.18376541      20.23427582
H       23.02258301      25.95509911      21.55217552
H       24.30155563      28.55788231      21.97430611
H       22.58689880      28.21534157      21.65664673
H       23.50637817      30.37702560      18.99480438
H       22.35611153      30.09739494      20.33318329
H       24.06284904      30.51744652      20.71544838
C        7.70470572       5.65891933      28.25856972
O        7.15543222       4.41180468      27.89237595
C        7.87173700       3.78169441      26.84635353
C        7.14050436       2.47031617      26.49307632
O        6.05557156       2.83642483      25.63936996
C        5.27062035       1.76955950      25.16042328
H        8.70621490       5.55409288      28.71862221
H        7.77832937       6.33517075      27.38709831
H        7.03984642       6.12072992      29.00319862
H        7.89040232       4.42192602      25.93553162
H        8.91878605       3.57040834      27.14751625
H        6.76785851       1.98152387      27.40972328
H        7.81784582       1.77334940      25.96218300
H        4.49836159       2.20829439      24.51803970
H        5.87553072       1.06309104      24.55731392
H        4.78035069       1.21143854      25.97811127
C       10.25506401      23.42372322      16.76314735
O       11.35478973      22.74155617      16.17574310
C       11.02362251      21.84487724      15.11274433
C       12.30727291      21.06395721      14.78559780
O       12.78106689      20.51305580      16.01689720
C       13.63472462      19.41327095      15.73824596
H        9.55305386      23.80681419      15.99016666
H        9.69950104      22.76413345      17.45359802
H       10.62816620      24.26664162      17.36457253
H       10.23562527      21.12923431      15.41711235
H       10.67368221      22.38936615      14.20899868
H       13.07415199      21.73209953      14.32924271
H       12.05246735      20.26387787      14.05627537
H       13.97698689      19.00377464      16.70512009
H       13.11835861      18.61388016      15.17378616
H       14.51476669      19.72920609      15.13038731
C       12.88095760      28.15066528      31.65492249
O       12.72791862      26.76786804      31.42503166
C       12.14684868      26.49533272      30.16420555
C       11.96071243      24.98779678      30.05166626
O       10.99544525      24.66524887      31.05944061
C       10.60847664      23.30681038      30.96554184
H       13.49886799      28.61850548      30.86615562
H       11.89758778      28.65188599      31.69004440
H       13.36781216      28.27680588      32.63047409
H       11.17026901      26.99889374      30.06157684
H       12.78966904      26.83345604      29.33144760
H       12.91266251      24.45584297      30.23648834
H       11.60343933      24.71181870      29.03697777
H        9.90196991      23.11481094      31.78308296
H       10.10470772      23.09213638      30.00611496
H       11.46540642      22.61860466      31.07074547
C       30.86461639       7.52331257      27.59465027
O       29.80401611       7.18375444      28.50313568
C       28.52445602       7.38745117      27.89960098
C       27.41178131       6.93567753      28.84257507
O       27.61270714       7.46151972      30.15287209
C       26.41055679       7.42478228      30.96979332
H       30.88538933       6.84258556      26.72827721
H       30.73262024       8.54869461      27.20760155
H       31.79899788       7.45211077      28.16611290
H       28.39228630       8.46313667      27.67356873
H       28.43617058       6.83916712      26.94284821
H       27.35701561       5.83343744      28.85397720
H       26.44188881       7.27430487      28.43069649
H       26.57348633       7.99832010      31.88772011
H       25.56525612       7.85708618      30.40407181
H       26.15092468       6.38843250      31.23855591
C       14.00847721       2.86557293      15.45818329
O       14.73599529       4.07172155      15.63541889
C       15.99845314       4.07528639      14.93972492
C       16.46240425       5.51289034      14.91847610
O       16.83984566       5.90881729      16.24650192
C       17.17146873       7.29508352      16.30356598
H       13.94542885       2.58809900      14.38856030
H       14.48592472       2.01787996      15.98270988
H       12.98817730       3.03853416      15.82861137
H       16.72682381       3.41323876      15.43791771
H       15.87325764       3.71005416      13.90148735
H       15.62199879       6.12878275      14.54888439
H       17.31733704       5.61399221      14.21940136
H       17.80690193       7.47524452      17.18367195
H       17.74398994       7.59950447      15.40675640
H       16.25991821       7.92302084      16.38088989
C       10.30570316      20.23138428      20.13374710
O       11.57311535      19.57854462      20.27984047
C       11.63972569      18.36220360      19.50252342
C       13.00583935      17.72545433      19.73593140
O       13.19637203      17.65662003      21.15033722
C       14.34638691      16.88781357      21.47038078
H       10.14682388      20.54527283      19.08186340
H        9.49076939      19.53548431      20.39937592
H       10.25298023      21.11668396      20.78666115
H       10.82940674      17.67979813      19.81686401
H       11.48104477      18.57422066      18.42121506
H       13.81022263      18.33209419      19.27482414
H       13.01452732      16.72028923      19.27418137
H       14.45534706      16.91302490      22.56747818
H       14.20991993      15.83232975      21.16608620
H       15.26082420      17.27545547      20.98151207
C       21.66887474       1.06737852      27.79089928
O       21.70922089       2.42566872      27.37416458
C       21.64032173       2.57626510      25.95512581
C       21.09003258       3.96381688      25.66007614
O       21.87479591       4.96737862      26.29120445
C       21.18965530       6.21055555      26.22318268
H       20.86032104       0.51361394      27.28022957
H       22.62986565       0.55658865      27.59692764
H       21.47492218       1.05387223      28.87229347
H       22.64053917       2.41643000      25.50668716
H       20.95788383       1.84460890      25.48543739
H       20.03402519       4.01134872      25.97528648
H       21.10121727       4.08549595      24.55713081
H       21.85827637       7.00203276      26.59233093
H       20.88368225       6.39727736      25.16886330
H       20.27083778       6.20861816      26.83777428
C       28.62450409      25.48645401       4.25278568
O       27.64474297      26.17067909       5.01019716
C       28.16928673      26.84394836       6.14880705
C       27.00051880      27.60836029       6.79535580
O       26.13239861      26.61641884       7.31102037
C       25.07352638      27.19854164       8.05100727
H       29.45765305      26.15660095       3.96010804
H       29.06108475      24.64168549       4.81883097
H       28.16136551      25.08700943       3.33968854
H       28.59080887      26.11875153       6.86559820
H       28.95288467      27.56688690       5.84584522
H       26.48375511      28.21169090       6.02047729
H       27.35050583      28.27031136       7.61059046
H       24.36255455      26.39190483       8.25805378
H       25.41446114      27.62242889       9.01325035
H       24.56467056      27.98745728       7.46448755
C       16.44118881      13.01304436       4.99251366
O       15.47885704      13.70059586       4.20670319
C       14.18531418      13.52687073       4.77556944
C       13.15649033      14.07484341       3.78409958
O       13.14202976      13.18345070       2.65406513
C       12.19964790      13.54521847       1.66420913
H       16.46085739      13.38000584       6.03690672
H       16.21778679      11.93093395       5.02180433
H       17.43736839      13.15485191       4.53278971
H       13.98096275      12.44779491       4.97438574
H       14.08394432      14.07604790       5.73415852
H       13.43759155      15.09687424       3.45771146
H       12.15857029      14.14719009       4.26118279
H       12.18845558      12.76166916       0.89081687
H       11.17886162      13.63330364       2.07807755
H       12.47340107      14.51175213       1.20171762
C       15.48780441      29.00732613      28.24541092
O       15.99882221      28.01659203      29.11814690
C       15.80809402      26.68610573      28.61869240
C       16.59085846      25.77264214      29.55643463
O       15.70046616      24.90336800      30.28524780
C       16.47765732      24.13470650      31.20410919
H       15.93759441      28.92973900      27.24014854
H       14.39395332      28.91473389      28.13524437
H       15.73555946      29.97521019      28.70149040
H       14.73512268      26.42747879      28.60743713
H       16.17135811      26.58797455      27.57511711
H       17.17876244      26.37007332      30.27441216
H       17.30172729      25.15528297      28.98667908
H       15.81289768      23.77575111      31.99905777
H       16.95257759      23.26004791      30.71425056
H       17.28620720      24.73649025      31.64792442
C        6.27363110      14.36527920       7.74927044
O        5.39768744      15.41976833       7.33407354
C        5.30746794      16.40824509       8.38095284
C        4.28457785      17.50987244       8.07204819
O        3.39573741      17.60595512       9.17800045
C        2.34994507      18.52664948       8.96644020
H        7.26533461      14.75923443       8.01840496
H        5.86307287      13.83722878       8.62786674
H        6.38216114      13.64753628       6.92338848
H        5.04641294      15.91290092       9.32959080
H        6.31426191      16.83561516       8.52671242
H        3.72803354      17.31447792       7.12193918
H        4.81255770      18.47370720       7.95155191
H        1.56411231      18.34311295       9.71129417
H        2.70401478      19.57153130       9.05230999
H        1.89266908      18.40236092       7.96699238
C       28.50866699      11.69433308      18.07468224
O       27.99479294      10.91925907      19.15643883
C       28.23791695       9.53019238      18.89338112
C       27.71025848       8.76731014      20.09825134
O       26.33556938       9.14032078      20.31565475
C       25.63110352       8.15547562      21.05355644
H       29.58325768      11.51274109      17.91120148
H       27.97036552      11.49577999      17.13076782
H       28.34838104      12.74062729      18.35995483
H       27.72379494       9.22455788      17.96560097
H       29.32091522       9.34166241      18.77446938
H       28.28959846       8.96884632      21.01135635
H       27.79822540       7.69211817      19.87846565
H       24.58359909       8.48873043      21.11128044
H       25.63391113       7.17663765      20.52963638
H       26.03716278       8.00038910      22.06568146
C       19.96320343      19.90089035      23.82291985
O       19.03004456      19.47788620      24.82235909
C       19.51513100      19.75883102      26.13910484
C       18.72072792      18.87580490      27.08763885
O       19.46193314      17.65145493      27.25791931
C       18.70590591      16.63566780      27.92310333
H       20.14034271      20.98677254      23.86276054
H       20.93281555      19.39789009      23.96369743
H       19.53896332      19.62058258      22.84759521
H       20.58713341      19.50977325      26.21219444
H       19.40121460      20.82777023      26.39453125
H       17.75804520      18.61455345      26.59496880
H       18.52226830      19.35067749      28.06618309
H       19.22216034      15.67070675      27.74635887
H       18.60110474      16.84529305      29.00015259
H       17.69210625      16.52891731      27.48859024
C        3.88630676       7.24306726      27.34569931
O        4.31696272       6.65752602      26.14011002
C        3.27321863       6.13828802      25.32812309
C        3.76700020       5.87214518      23.89526749
O        5.09991121       5.33959770      23.95299149
C        5.55175352       4.90589285      22.68367004
H        3.13002372       8.02722454      27.15851593
H        3.45962572       6.49604225      28.04214668
H        4.76103210       7.70916796      27.82476044
H        2.87785792       5.19577169      25.76178932
H        2.43860793       6.86265087      25.27061081
H        3.75646615       6.80189896      23.29621506
H        3.08059788       5.15260744      23.40792656
H        6.54972029       4.45371866      22.83976746
H        4.89651823       4.13242483      22.24283028
H        5.66448069       5.72138929      21.94689369
C        5.24612856      11.83118820      17.70311737
O        4.43056154      12.09549618      16.57954407
C        4.52964830      11.04747391      15.62868023
C        3.47107196      11.16048336      14.53797913
O        3.74062967      12.32622528      13.75899029
C        2.68864369      12.53463936      12.82245827
H        5.06730509      10.82160950      18.10984993
H        6.32234144      11.92650700      17.44530869
H        5.01864243      12.55581760      18.49152184
H        5.54699278      11.07487106      15.18399811
H        4.40363407      10.06295681      16.11960983
H        2.44969225      11.19269466      14.97155666
H        3.50246429      10.26287651      13.87964821
H        2.94847679      13.41244507      12.21138477
H        2.58102465      11.66243839      12.14741421
H        1.71903050      12.68239594      13.33221722
C        9.86977386      28.88607025       9.66133022
O        9.71581364      27.70856667      10.45261288
C       10.56001091      26.64963341       9.96868896
C       10.36457920      25.50637436      10.95036411
O        8.99388218      25.07871628      10.84744072
C        8.81028366      24.00140953      11.78261662
H       10.92961216      29.18194771       9.64902878
H        9.52580357      28.71483231       8.63095856
H        9.25319290      29.67073250      10.11278820
H       10.29422092      26.37217140       8.93150330
H       11.61308861      26.96894646      10.02835274
H       10.58255196      25.83643150      11.97842216
H       11.06019783      24.68126869      10.72605324
H        7.77255440      23.65788651      11.69629288
H        9.49990463      23.16946793      11.55707932
H        8.99421501      24.34344482      12.81742287
C       25.15965652      25.16975212      26.30373764
O       25.57130432      24.02567482      27.01253319
C       26.92910194      23.61657715      26.77972221
C       27.03871727      22.22119331      27.36203194
O       26.88990402      21.28460121      26.29086113
C       26.70799065      19.96512985      26.76483536
H       25.52600098      26.09180641      26.78544235
H       25.52341080      25.15361404      25.25351334
H       24.05813980      25.17777443      26.27328682
H       27.14325142      23.59757805      25.69022560
H       27.61915016      24.30729675      27.29579353
H       26.23030472      22.09678459      28.10619354
H       28.00878716      22.08367157      27.86557579
H       26.89388084      19.26677704      25.93652725
H       27.40733719      19.73044968      27.58954048
H       25.66614532      19.81117821      27.09718895
C       24.42097855       9.61524487       2.16431022
O       24.55137062       8.79575443       3.30580878
C       23.56886101       9.17372513       4.27572393
C       23.51068687       8.09399986       5.35560513
O       24.61422539       8.24280071       6.22577620
C       24.57462120       7.19968414       7.19966459
H       23.43862152       9.44163704       1.67171204
H       24.52373123      10.68577194       2.43758488
H       25.19503403       9.32733250       1.43351495
H       23.78948021      10.18815899       4.68177509
H       22.57183075       9.22338104       3.77446771
H       23.51895142       7.09932899       4.86222839
H       22.56062126       8.18636131       5.92143393
H       25.37211609       7.38192558       7.92975187
H       23.60663414       7.19539261       7.73223591
H       24.71137619       6.21517754       6.72072220
C       26.09052658      14.68903446      17.05145073
O       27.07883072      15.68492031      17.28679466
C       26.87736320      16.32217979      18.56643486
C       27.90666771      17.43438721      18.67582703
O       27.53755379      18.41224480      17.69853020
C       28.60761261      19.36484337      17.61199760
H       26.02054214      13.97866631      17.89939117
H       25.09331322      15.14364910      16.89465141
H       26.35129547      14.11404133      16.15712547
H       25.84778595      16.73073006      18.62948799
H       27.03343964      15.60764122      19.39621544
H       28.92577171      17.04615784      18.48381424
H       27.88929176      17.88988495      19.68918800
H       28.25825500      20.15217590      16.93066406
H       28.84048462      19.80493164      18.59380722
H       29.52910233      18.90322113      17.22275543
C       25.93055534       3.24335504      23.37817192
O       26.02386284       4.32115602      24.29606056
C       24.85137177       4.51669884      25.09642029
C       25.01975060       5.77032709      25.94021225
O       24.82003975       6.90998125      25.08434296
C       25.02663040       8.09924316      25.83874321
H       25.68625450       2.29259157      23.88489342
H       25.14617348       3.44368267      22.62344551
H       26.89318848       3.13770652      22.86103058
H       23.95187759       4.60432434      24.45993233
H       24.67430305       3.66926742      25.78310013
H       26.03742218       5.82029057      26.36749268
H       24.27842140       5.79312563      26.75802422
H       24.86865425       8.94673538      25.15592384
H       24.34354782       8.20001316      26.70790672
H       26.06424522       8.15544033      26.21345711
C       18.07567787      29.08407211      15.39495659
O       18.45433807      28.02648544      14.51009846
C       18.53596115      26.77707291      15.19259739
C       18.66185379      25.68418121      14.12894535
O       19.81776428      25.98370934      13.30088902
C       19.97592926      25.07732582      12.21586132
H       17.13509941      28.85717010      15.92040539
H       18.87100220      29.30029106      16.13258934
H       17.90583992      29.97047806      14.77073002
H       19.38630676      26.77844238      15.90690994
H       17.61207771      26.61490250      15.78396988
H       17.74491501      25.63341522      13.51275253
H       18.80431557      24.70835876      14.62633801
H       20.95633698      25.23801422      11.75147057
H       19.91095161      24.02464104      12.54711723
H       19.19805908      25.21625328      11.44275951
C       14.68769932       5.97384739      25.21218872
O       13.39694118       6.19799948      24.63399887
C       12.37640858       6.31409979      25.63575172
C       11.19012737       7.05741501      25.04207611
O       10.86760330       6.47722101      23.77919579
C        9.84672451       7.19367933      23.09061050
H       14.93990517       6.75445127      25.94599342
H       14.72895145       4.98363686      25.70640564
H       15.40083027       5.98779964      24.37150764
H       12.08550072       5.30671692      25.98955345
H       12.73651028       6.89238453      26.50564194
H       11.45839024       8.11575508      24.90270042
H       10.32227898       7.02825832      25.72920609
H        9.66413784       6.68764353      22.12902069
H        8.89602280       7.18107939      23.65114975
H       10.14619732       8.24273205      22.92846298
C       11.70341587      13.58068371      13.77667618
O       11.14175320      12.60783005      12.91169453
C       11.90118504      11.41053963      12.93479824
C       11.01246357      10.24848652      12.52034760
O       10.78177834      10.26063442      11.10062408
C        9.64724636       9.50271797      10.70887089
H       11.65867138      13.25381470      14.83860016
H       12.76881695      13.78066826      13.53009415
H       11.13046837      14.51833248      13.70759106
H       12.78361607      11.50720119      12.25959778
H       12.30572987      11.21594429      13.95572472
H       10.04076576      10.35461330      13.04728127
H       11.46055794       9.28267956      12.81068897
H        9.35896492       9.76970387       9.68296242
H        9.80075741       8.41128063      10.76817894
H        8.76758575       9.70635986      11.34631157
C       26.48011398      28.67053413      18.69069290
O       26.28275108      27.27642822      18.50576782
C       27.25006294      26.51254654      19.26342392
C       26.91800690      25.04676056      18.99218941
O       27.90520477      24.49933434      18.08704948
C       27.56813049      23.15221405      17.74757957
H       26.34086609      28.96913910      19.74303055
H       27.49240112      28.96880722      18.35932541
H       25.70960045      29.17948914      18.08983803
H       28.27160835      26.74300575      18.90357399
H       27.16744423      26.77497673      20.33683968
H       25.91083145      24.97342491      18.53435898
H       26.90284729      24.47531509      19.93872452
H       28.36565590      22.71377945      17.13366127
H       27.42170715      22.53633308      18.65531158
H       26.62916756      23.12579536      17.16144371
C       17.78129768      19.56656837      16.64028549
O       17.05334473      20.55980492      17.36711502
C       16.36041641      20.08651733      18.53611374
C       15.47705173      21.23862839      19.02188873
O       14.11119556      20.82178307      18.83322334
C       13.23273945      21.92936516      18.63757324
H       18.60659599      19.14599228      17.23723793
H       17.10482407      18.74692917      16.32535362
H       18.17275429      20.03018570      15.71877289
H       15.73090363      19.22274208      18.26577568
H       17.05607033      19.76658440      19.33077049
H       15.67107964      22.14962196      18.42411041
H       15.65659332      21.48555565      20.08750725
H       12.20391560      21.54436874      18.54036903
H       13.25570393      22.65219498      19.48308372
H       13.45658493      22.44493866      17.68946075
C       13.21835136      27.22814369      19.38912964
O       14.54363346      27.25977898      19.89070702
C       15.37742615      26.31215477      19.21644020
C       16.78328133      26.48578835      19.79587555
O       16.80070305      26.09252739      21.18187904
C       18.06877708      26.41089630      21.74451256
H       13.18063545      27.58144379      18.34253311
H       12.79570198      26.20848274      19.40435791
H       12.57697678      27.86381340      20.01263428
H       15.00268745      25.27722740      19.35285950
H       15.40079403      26.51004982      18.12093163
H       17.09618378      27.54197693      19.69994736
H       17.47821617      25.84902382      19.20694733
H       18.08695030      26.05482483      22.78618813
H       18.88848495      25.92441559      21.17878342
H       18.25716972      27.49807930      21.71448898
C       22.43457222      22.05728340       5.75571918
O       23.76661491      21.59485245       5.83654308
C       24.65434837      22.50315666       6.50257969
C       26.03423882      21.86280251       6.40432882
O       26.48005295      21.96779823       5.04165983
C       27.77669716      21.40024376       4.85524511
H       21.95193100      22.08018494       6.75548363
H       22.38149834      23.06472397       5.31260395
H       21.85476685      21.36356354       5.13479328
H       24.64288139      23.48695946       5.99108839
H       24.37274170      22.65859032       7.55994701
H       26.01971626      20.80387688       6.71318245
H       26.70972824      22.40768051       7.08780527
H       28.09487534      21.63309288       3.82711744
H       28.50951385      21.84683418       5.54996395
H       27.79067802      20.30856133       4.99430037
C       19.66391754      14.01036167      20.19425392
O       20.96182632      13.43995476      19.91189194
C       21.12549973      13.31911659      18.47344780
C       22.50006294      12.73346806      18.17498970
O       22.65863991      11.54509354      18.92829323
C       24.03513527      11.15155602      18.93685722
H       19.57213211      15.02375984      19.77162361
H       18.87675667      13.39644241      19.72410774
H       19.49955559      14.02750397      21.28026962
H       20.33156967      12.69089317      18.04625130
H       21.01761246      14.31152439      18.00744820
H       23.29248810      13.45909500      18.46158981
H       22.62150192      12.55602646      17.08795929
H       24.09331512      10.16385746      19.40833664
H       24.43112755      11.06320190      17.90930748
H       24.65598297      11.85883617      19.51170540
C        7.91528511       3.09334731      17.72377586
O        6.86270666       4.05551720      17.87139702
C        5.67151165       3.49614549      18.47537804
C        4.58227682       4.57955360      18.46349335
O        3.88269258       4.44345760      17.21788406
C        2.63961744       5.12696314      17.19296837
H        8.24755478       2.71110010      18.70760345
H        7.59584427       2.23861694      17.10333061
H        8.76669312       3.60229349      17.23762321
H        5.35568428       2.61183214      17.89668274
H        5.88482809       3.20264888      19.51850510
H        5.02605724       5.58732319      18.55190086
H        3.87388968       4.44546604      19.30011177
H        2.14695954       4.88311577      16.24087524
H        2.00142288       4.80223799      18.03493881
H        2.76924419       6.22059393      17.25313377
C        3.52947497      15.06206417       0.51683307
O        3.44164491      16.18767357       1.39369667
C        2.14719343      16.40240669       1.96682024
C        2.05395317      17.84220314       2.47221661
O        2.04900002      18.68129539       1.31448674
C        1.71077955      20.02177620       1.62003338
H        3.11362052      14.15891361       0.98947012
H        3.00972986      15.25402164      -0.43638343
H        4.59312201      14.88752937       0.30799323
H        1.34950697      16.19870377       1.22993648
H        1.97940719      15.73841763       2.83581758
H        2.90815020      18.10428429       3.13172913
H        1.11506486      17.97269821       3.04641247
H        1.67943764      20.57731438       0.66947418
H        0.70006084      20.07574081       2.08358097
H        2.43628049      20.49950981       2.30063820
C       22.16628075       6.42389297       1.79819381
O       20.92114830       6.98489475       2.22223759
C       20.51767540       6.56544495       3.52988958
C       18.99363708       6.43726254       3.52115965
O       18.73023224       5.29416180       2.70251513
C       17.40225983       4.82934237       2.80950403
H       23.01279449       6.79343271       2.40410519
H       22.15001106       5.31716490       1.83947492
H       22.30597687       6.70947027       0.74780285
H       20.97342682       5.59250450       3.77476501
H       20.80987930       7.32157183       4.28321695
H       18.49807739       7.33742666       3.10000825
H       18.59912682       6.29952288       4.54762459
H       17.30905724       3.90453196       2.22684264
H       17.09608841       4.60426760       3.84923649
H       16.69366264       5.57534122       2.39466238
C        8.70786858      18.72278786       7.38402319
O        8.69797802      18.11212921       6.10615635
C        8.71411991      16.66978836       6.11874008
C        7.79959822      16.15631294       4.99079180
O        8.52276039      16.01042175       3.74663329
C        7.70987177      15.46471596       2.71595836
H        7.92135525      18.31548309       8.05634785
H        9.67670441      18.60145187       7.90004539
H        8.49499035      19.79623222       7.24403667
H        9.74960995      16.27759743       6.04446459
H        8.32506180      16.31945610       7.09623003
H        6.96683693      16.87565422       4.83744335
H        7.37203074      15.17718601       5.27327585
H        8.30940819      15.40304279       1.79653108
H        7.35666609      14.44597816       2.97338533
H        6.82382774      16.10001373       2.53060031
C       28.46921349      29.39640808      29.22431564
O       28.18799400      29.21331787      27.84650421
C       28.34753227      27.85794449      27.37896729
C       27.87375832      27.82264328      25.93338776
O       28.83671379      28.48030853      25.09300041
C       28.34522820      28.55969620      23.75637627
H       27.66156960      28.98476982      29.85409164
H       29.40816307      28.90588951      29.53199005
H       28.53187370      30.47793770      29.41011429
H       29.39551163      27.53233147      27.47469139
H       27.72482872      27.16071510      27.96688843
H       26.89586639      28.34559250      25.86231041
H       27.70744133      26.78923607      25.57121277
H       29.11745453      29.02242661      23.12372780
H       28.08625984      27.56572342      23.35113525
H       27.41840553      29.16210938      23.72143745
C        9.46618843      22.24127197      26.38216209
O       10.10118580      22.96984863      25.34021568
C       11.49963093      22.67317581      25.25318336
C       11.98271847      23.06297684      23.86301041
O       11.59589481      24.41057014      23.60306168
C       12.07410240      24.77843666      22.30543709
H        9.67403793      21.16092682      26.30490875
H        9.76014519      22.59037209      27.38714027
H        8.37881565      22.36881447      26.27450943
H       12.03085423      23.20631409      26.05938148
H       11.67793179      21.58846855      25.36030388
H       11.51873970      22.38969994      23.10166740
H       13.09035397      22.95281219      23.82836151
H       11.77232265      25.82059288      22.12204552
H       13.17674160      24.70448494      22.24323082
H       11.63460255      24.14825249      21.51134491
C       27.33206177      12.23419094       0.58045328
O       26.99267197      12.21325493       1.96229017
C       27.74173164      11.18223858       2.63881922
C       27.55889320      11.38825703       4.13376760
O       26.18930626      11.45084000       4.53034878
C       26.14767838      11.47641373       5.95414209
H       28.42815971      12.26065350       0.41809511
H       26.97297287      11.30000305       0.08965370
H       26.87979889      13.11594200       0.10452311
H       27.41188240      10.18763542       2.28260422
H       28.82264709      11.27895832       2.40945983
H       28.06307411      12.31088448       4.48100376
H       28.03658676      10.52031994       4.62665081
H       25.09680748      11.44323540       6.27931499
H       26.62838745      10.57647419       6.37659645
H       26.61216927      12.39182854       6.36363792
C       16.24695206      20.38890076      23.22038460
O       17.06517601      20.89811707      22.15969276
C       17.46005058      22.26854515      22.39952850
C       18.54888344      22.60382271      21.39623642
O       18.04830742      22.31847954      20.07902718
C       18.97571945      22.74629974      19.07354927
H       16.70756149      20.54290009      24.21424484
H       15.24896812      20.87261009      23.23673820
H       16.09929085      19.31250000      23.04471016
H       16.57970428      22.93255615      22.30080605
H       17.85056686      22.38339233      23.42612648
H       19.45790100      21.99883080      21.57755089
H       18.79148674      23.67739868      21.51429367
H       18.58215141      22.41583824      18.09822273
H       19.06721878      23.84589386      19.09500885
H       19.97005272      22.28816795      19.22301674
C       22.77262497      30.36991310       9.31155872
O       22.27454758      30.50588989       7.96445942
C       23.27868271      30.99999237       7.04042339
C       22.82478714      30.65716171       5.61918163
O       21.60873413      31.38179207       5.38695526
C       20.87580299      30.88491631       4.26672411
H       23.67714500      29.74234581       9.31564808
H       22.98804665      31.35155487       9.76587582
H       21.98285675      29.86793327       9.89123249
H       23.42597008      32.07963181       7.19670010
H       24.23006058      30.47629166       7.23747301
H       22.67254257      29.57290268       5.50694656
H       23.59621239      30.96887207       4.88814974
H       20.08923912      31.61264610       4.02665186
H       21.52454758      30.71035194       3.38851309
H       20.40214157      29.91680527       4.50988913
C        8.90859699      19.05790710       0.59528428
O        9.65757370      18.99582100       1.79153407
C       10.07272434      20.24366760       2.31210375
C       10.74755764      19.93132401       3.64500332
O       11.87261677      19.09210777       3.38268638
C       12.46653748      18.74654007       4.62231207
H        7.99864006      19.67100525       0.72313553
H        9.48081589      19.46146774      -0.26267362
H        8.59809113      18.03866196       0.34193173
H       10.76592827      20.74069595       1.60261917
H        9.20029926      20.90454292       2.49346066
H       10.02205276      19.42322540       4.31033182
H       11.07369614      20.86464310       4.15380335
H       13.24188423      17.98099327       4.45799112
H       12.93586063      19.62198257       5.12188196
H       11.72205162      18.32083511       5.31949091
C       13.02443695       1.37017882      25.76616478
O       13.00317478       2.15037036      24.57736206
C       11.67364216       2.57641506      24.25126648
C       11.76678467       3.49480557      23.03400993
O       11.20357323       2.77190018      21.90702629
C       11.61228371       3.26398754      20.61929131
H       12.55404854       1.93293047      26.59934807
H       12.46044922       0.42827824      25.64285851
H       14.07365799       1.15836978      26.01921654
H       11.05814934       1.69827652      23.98569298
H       11.18654251       3.06957030      25.11203003
H       12.82637501       3.75421953      22.85261917
H       11.22207355       4.43655682      23.19956779
H       11.49547195       2.45750117      19.88510132
H       10.98931408       4.12123823      20.31975555
H       12.66892815       3.57129979      20.64521790
C       24.26126289      20.46591568      20.76866531
O       23.35807800      21.42598343      20.21350098
C       24.09767151      22.25318336      19.30093002
C       23.15384293      23.26726151      18.67147446
O       22.53197861      24.02777290      19.71204758
C       21.74788475      25.09070587      19.17019463
H       24.79857254      19.90624619      19.97812653
H       25.00186348      20.93445778      21.44104004
H       23.62417603      19.76358223      21.32452965
H       24.92254829      22.75711060      19.83662033
H       24.54009247      21.63669014      18.49355888
H       22.37982750      22.75150299      18.06679726
H       23.74028969      23.92581177      18.00111008
H       21.30511856      25.64090919      20.01277924
H       22.35214043      25.74769402      18.52192879
H       20.90784264      24.70590591      18.55951691
C       27.94570541      28.14939690      11.34514046
O       28.28481102      28.52558136      12.66818047
C       28.99802589      29.75697517      12.70975780
C       29.22970009      30.12129021      14.18279362
O       30.02030754      29.08872986      14.77075481
C       30.20981407      29.30996704      16.15233612
H       27.32127571      28.92931938      10.86611271
H       28.84615326      27.98458672      10.72399902
H       27.37781143      27.21008873      11.40077591
H       29.96378708      29.65693474      12.17565060
H       28.41379356      30.56889915      12.23166561
H       28.25919342      30.19793320      14.71210861
H       29.76375198      31.08895683      14.27147579
H       30.73988152      28.43186569      16.56110382
H       30.79267502      30.22999382      16.36226082
H       29.23581696      29.37498283      16.67551231
C       12.05488300      15.38922310      17.07467842
O       11.16832542      15.42405987      18.19639015
C       10.47842503      14.17548180      18.36912346
C        9.17446327      14.48421192      19.14404678
O        8.06082058      14.10743141      18.31589890
C        6.86552572      14.48325062      18.99408150
H       12.94907188      14.75896454      17.24501228
H       11.53966045      14.99789524      16.17598343
H       12.36719990      16.42084885      16.84370041
H       10.21711349      13.72008991      17.38977432
H       11.13468838      13.46500969      18.91987419
H        9.10692310      15.56160450      19.40732574
H        9.10970402      13.94486141      20.11375809
H        6.03824759      14.49899292      18.26513481
H        6.58918524      13.73758698      19.76804352
H        6.92319632      15.47633839      19.48147964
C       19.10240555       4.55030251      22.78659058
O       18.68853951       3.48809457      23.64160347
C       17.40827560       3.79384804      24.19506454
C       17.13466263       2.84857798      25.35969734
O       17.63065529       3.47154355      26.55774117
C       17.49197006       2.63736987      27.70681953
H       18.38599968       4.71041489      21.95934296
H       19.19127655       5.49872589      23.35140610
H       20.08193588       4.28034353      22.35640526
H       17.36801910       4.83015776      24.57701111
H       16.62240601       3.70892262      23.41531563
H       17.64563751       1.88327980      25.18724823
H       16.05050278       2.67781496      25.46239090
H       17.97014046       3.13748240      28.55895424
H       16.42379951       2.47467494      27.93077087
H       17.95875168       1.65069795      27.54156685
C       13.73784924      24.72196579      16.50780678
O       14.48466682      23.69233131      15.87550640
C       15.89019108      23.85940552      16.00696564
C       16.49615097      22.70446014      15.19497395
O       16.50944710      23.16632462      13.83851910
C       16.96527863      22.18137360      12.91835403
H       13.55971432      24.51838493      17.58332253
H       14.22551441      25.70483589      16.38544273
H       12.74871922      24.73906708      16.02385139
H       16.16555786      24.84025574      15.56979084
H       16.19551849      23.84519386      17.07507133
H       15.86956596      21.80413246      15.31032181
H       17.52016449      22.48515129      15.55331039
H       17.08845329      22.63657951      11.92611980
H       17.92966461      21.74879265      13.24779320
H       16.22940826      21.36342621      12.83827400
C       25.59918022      24.93888664      30.31890678
O       26.99860764      25.14170456      30.14100838
C       27.58210564      25.77293015      31.28230095
C       29.10614586      25.66732597      31.19249153
O       29.56230354      26.24082947      29.95642281
C       30.99006271      26.20077515      29.94267464
H       25.37790298      24.43714523      31.27888298
H       25.04117203      25.89116859      30.28562927
H       25.22941017      24.30604172      29.49958611
H       27.26618767      26.83539772      31.34053421
H       27.24950409      25.27738762      32.21213913
H       29.43631935      24.60392952      31.21912956
H       29.54904938      26.20790291      32.05025482
H       31.32990456      26.64593887      28.99478149
H       31.42458153      26.76317024      30.79079628
H       31.36054611      25.15927315      29.99003601
C       18.23480415      11.05784798      17.29227257
O       16.83373642      10.85223293      17.12199402
C       16.35593414      11.63207054      16.00965881
C       14.85182667      11.41074467      15.87200546
O       14.19928169      11.88680363      17.05974770
C       12.84791183      11.45586777      17.13624191
H       18.82191658      10.51017189      16.52669334
H       18.47785568      12.13468456      17.19296837
H       18.52192688      10.70660877      18.30086517
H       16.59984207      12.70286751      16.16781998
H       16.82744598      11.29396152      15.06040192
H       14.64444828      10.33339405      15.71528244
H       14.45240593      11.93725014      14.97839642
H       12.42249680      11.79600906      18.09490585
H       12.23731518      11.88504791      16.31208801
H       12.75835037      10.34757614      17.07901192
C        3.98388934      16.05039406      26.91688156
O        4.61325502      15.05706024      26.12736511
C        5.93669605      15.44561005      25.69760895
C        6.53226519      14.26532078      24.92803383
O        5.71334219      14.03300667      23.78558540
C        6.28642225      13.21488762      22.76048088
H        4.65658569      16.36457634      27.73439407
H        3.71824765      16.92731285      26.29602814
H        3.07649255      15.60349751      27.34234238
H        5.84558868      16.31576347      25.02388382
H        6.54705095      15.70828342      26.57510757
H        6.60012388      13.37159538      25.56809998
H        7.55548525      14.53070641      24.60741997
H        5.71814728      13.37028408      21.83599854
H        7.33767176      13.49115562      22.57725334
H        6.24797630      12.14786720      23.01335907
C       26.75744820      22.61669350      14.18442059
O       28.05640221      23.14744759      14.41125011
C       29.03499031      22.91534996      13.38258266
C       29.85955811      24.20007133      13.31745911
O       30.37322426      24.40798187      14.62958622
C       31.36412811      25.41221619      14.69217873
H       26.44774628      22.73780441      13.13126183
H       26.68667221      21.55172157      14.47271442
H       26.05470657      23.17839050      14.81688309
H       29.67464638      22.05477142      13.65061951
H       28.55274010      22.71063423      12.41143036
H       29.19009399      25.02895737      13.02454090
H       30.67023849      24.08816528      12.56833553
H       31.78194809      25.41726112      15.71234322
H       32.17445374      25.21389771      13.97116661
H       30.93294144      26.40531158      14.47508430
C       13.53660870      25.64367867      26.00214195
O       12.23043633      25.81001282      26.55708504
C       11.52678967      26.85878563      25.88592529
C       10.05157280      26.76460266      26.28797913
O       10.00679970      26.94530296      27.71064758
C        8.73887920      26.76773643      28.30499840
H       13.46244431      25.41777802      24.92003250
H       14.14230537      26.55371094      26.14404106
H       13.97748566      24.77363968      26.51999664
H       11.95517349      27.82821846      26.19668007
H       11.60132217      26.73769188      24.78833961
H        9.66952133      25.77596474      25.99281502
H        9.45456219      27.53706169      25.77202415
H        8.89339352      26.64903069      29.38920975
H        8.07691860      27.63426971      28.11583328
H        8.25079918      25.85368729      27.92877960
C        1.61609745      29.14756775       3.90098166
O        2.85308146      28.93191147       4.52782536
C        2.98617721      29.56955338       5.80093336
C        4.36462879      29.19260788       6.32123518
O        5.29990149      29.64204979       5.31149435
C        6.59990120      29.04914284       5.47745037
H        0.78573245      28.76670456       4.52092266
H        1.45206141      30.22590446       3.71010828
H        1.60930121      28.60040474       2.94670987
H        2.87021661      30.66849136       5.70036268
H        2.21019053      29.22512627       6.50287199
H        4.44741201      28.10509872       6.43578482
H        4.59271574      29.64324570       7.29753733
H        7.27205563      29.50475121       4.72264338
H        6.98312330      29.22262001       6.49138451
H        6.55523825      27.96544647       5.29085493
C       10.25303650      11.78091717      21.35007477
O       10.56937504      10.48749256      20.84309006
C        9.83858585      10.18645954      19.65806580
C       10.15185165       8.73744678      19.28921509
O        8.88367653       8.09828186      19.03064728
C        8.92136288       6.66287899      19.08124542
H       10.69161797      12.54666615      20.68979263
H        9.15953159      11.94241524      21.40833664
H       10.66727066      11.89667130      22.35988426
H        8.74688911      10.32294750      19.78448486
H       10.13905907      10.86363983      18.83132935
H       10.69162178       8.26311970      20.12867928
H       10.80269527       8.65715027      18.39542961
H        7.89722824       6.29121399      19.23846436
H        9.29458618       6.22319508      18.13965225
H        9.58172703       6.33361530      19.90235329
C        3.87519979      23.06637955      15.75043392
O        4.88003683      22.42081451      16.50090790
C        6.16828203      22.67188072      15.92660809
C        7.18568707      21.80574036      16.67333221
O        6.83636904      20.43328285      16.51347160
C        7.77185297      19.58618927      17.16623306
H        4.05923796      24.15430832      15.68873882
H        3.83078384      22.66089439      14.72079849
H        2.90809703      22.88312721      16.23336983
H        6.15334320      22.39104080      14.84928513
H        6.42671251      23.73678589      16.02961731
H        7.23977566      22.08258438      17.74290276
H        8.18406391      21.96730995      16.21318626
H        7.42922640      18.56226921      16.96064186
H        8.80166054      19.70686913      16.75682449
H        7.79548502      19.74443817      18.25509071
C       11.02135754       6.93348885      14.34650707
O       12.21211815       7.37750483      13.71924591
C       13.21319008       7.81411982      14.66020584
C       14.43586540       8.20139980      13.84205818
O       14.12483311       9.40001392      13.13693905
C       15.30635929       9.76193428      12.38440228
H       11.19334888       6.04511452      14.99018192
H       10.57103634       7.74212170      14.96340656
H       10.27862167       6.69495821      13.57057095
H       12.81146336       8.65916061      15.26521969
H       13.45813084       6.97580528      15.34735489
H       14.69424057       7.41051388      13.10778904
H       15.29791355       8.36625862      14.52520561
H       15.03548050      10.58420372      11.71010876
H       16.11797142      10.10601616      13.05454922
H       15.68761730       8.90674973      11.79185772
C       24.12177658      19.09744263      16.61312866
O       23.31917763      18.94379425      17.79013062
C       22.17918015      18.12658882      17.48587036
C       21.37387276      18.02309799      18.78545570
O       20.45858002      19.13176155      18.86704445
C       19.73802567      19.05787086      20.09777069
H       24.40395164      18.12198257      16.17701912
H       23.57662010      19.65876961      15.83025169
H       25.03293419      19.63985634      16.90588188
H       21.56098366      18.58711052      16.68871307
H       22.49096298      17.12094307      17.13199234
H       22.04980659      18.05965805      19.66203690
H       20.78719902      17.08788872      18.80107689
H       18.99940109      19.87886238      20.14478874
H       19.17835999      18.10586166      20.17156219
H       20.41787148      19.13962555      20.96713257
C       26.08466911      20.74976349      31.61881447
O       25.22215271      19.65151596      31.34976387
C       24.35940361      19.98487473      30.27667999
C       23.27079010      18.92218590      30.09942055
O       22.41341591      19.05111313      31.25374413
C       21.09210396      18.57865906      31.07020187
H       26.65703583      21.03949928      30.71468544
H       25.51045799      21.63714790      31.94385719
H       26.77830505      20.47470665      32.42715073
H       23.85910416      20.95474625      30.45681763
H       24.91829491      20.05525017      29.31934166
H       23.69004822      17.89979935      30.02112389
H       22.71030426      19.13978195      29.17207718
H       20.45073509      18.93575096      31.88599968
H       20.66024971      18.90349007      30.10314369
H       21.05194855      17.46811676      31.11794472
