1824
Lattice="32.27000045776367 0.0 0.0 0.0 32.27000045776367 0.0 0.0 0.0 32.27000045776367" Properties=species:S:1:pos:R:3 pbc="T T T"
Na       8.79590130       2.97738767      22.37891960
Na      23.29984283      15.29231834      20.12852859
Na       8.91407204       8.82678986      16.68175507
Na      13.01880455      21.10477257      21.47012520
Na      26.03960991       6.27639008      14.28063869
Na      14.45567894       5.32392406       0.79497278
Na      22.18856239      11.75407887      25.95191956
Na       5.76088858      31.89153099       4.75199461
Na       9.95093250      31.69846535       4.17477036
Na      12.26347065      12.97946262       7.37632418
Na      26.66054726      11.70003700      27.54220390
Na       4.45342302       5.46644831      13.40672970
Na      19.81999969       8.11991978      18.97718048
Na      13.22117519       3.35446167      29.36100769
Na      12.99843788       7.00664854       9.38777828
Na      24.54330254      30.63028717      25.82441139
Na      22.66398811       5.93823051      21.56496429
Na      15.63728619      18.99044037      27.43261337
Na       9.68406487       6.57351208       6.35662413
Na      21.03553772      24.67246437       0.39111146
Na      24.24927711      16.14058876       6.99513865
Na       8.45375252       5.06226254      14.92685795
Na      18.17910194      28.69232750       5.85592031
Na      20.15506172      31.75464821       8.37521935
Na      28.55678940       9.67300797      30.38003731
Na      17.39798355      13.44574261      26.79251480
Na       1.78925705      11.23574066       4.29546547
Na      19.42708397      23.64831734       7.12954140
Na      -1.11237621      23.17150497       1.93699241
Na      21.01467705      10.98605156      20.98233795
Na      14.72950649      11.96056652      31.25868797
Na       5.75854731      21.00630569       9.39665127
Na       4.30853081      15.57430840       5.03624773
Na      17.83382988      13.04775143      30.56259346
Na      22.69058418      10.57167912      12.84562206
Na       7.67287350      27.06896782      11.87964535
Na      21.29168701      15.24635601      29.96869469
Na       3.58796144      13.23259926      24.62915421
Na      25.05308723      11.26904011      30.77137375
Na      24.03765678      27.26321411      24.50119972
O        5.98657084       8.61711216      10.16913605
S        5.13400793       7.58235121      10.70750523
O        4.83621407       6.47605276       9.82885551
N        3.98516059       8.06437778      11.69146156
S        2.55995107       8.55430031      11.20704556
O        2.55953622       9.09891033       9.86792946
O        1.92242384       9.26809311      12.27745342
F        1.71577621       7.16583490      11.08091259
F        6.05563211       6.95110369      11.84912014
O       18.41976357      24.76002312      26.84502220
S       19.54073906      25.66539574      26.74480247
O       20.73750687      25.28090286      26.04825211
N       19.83879089      26.44960594      28.07822037
S       20.24823952      26.25704956      29.54456711
O       19.60708809      25.18389511      30.28467560
O       20.28551674      27.52979279      30.22266960
F       21.77993965      25.83690262      29.49211121
F       18.97325897      26.91951942      25.96228981
O       10.84380722      17.83209610      29.22059631
S        9.85150146      17.98755646      28.18159676
O        9.45903206      19.33771515      27.84054756
N        8.64849091      16.97317314      28.18358231
S        7.56937838      16.79623985      29.30330849
O        7.98029804      17.08249664      30.65313339
O        6.80539227      15.60395622      29.02072144
F        6.53110409      17.97035408      28.96633720
F       10.56489754      17.45831108      26.88029480
O       15.61506653      16.43680573      17.15493393
S       16.78761482      16.25793076      17.97758865
O       17.29954147      17.44013786      18.63154793
N       17.88370514      15.25777435      17.47826195
S       18.76716042      15.49488068      16.15638542
O       18.07559013      15.99233627      14.99613857
O       19.68899345      14.38810062      16.06039810
F       19.72725868      16.71156883      16.56989861
F       16.32049751      15.34857082      19.18470192
O        1.04636383      12.22422028      17.77811241
S        0.65133464      13.19943333      16.78019714
O        1.61312377      13.55239773      15.75752354
N       -0.13267101      14.45873356      17.36024857
S        0.60928553      15.49807358      18.29624557
O        1.26975501      14.94081879      19.45879364
O       -0.23557223      16.65087509      18.51053810
F        1.80176091      16.04652596      17.38034058
F       -0.56035858      12.51424789      15.98613453
O        6.34428358      18.31436157       3.25386000
S        5.89055347      19.68413734       3.33726549
O        6.84178782      20.76414871       3.28287840
N        4.79092121      19.86300659       4.47704411
S        4.84724903      20.47742653       5.88516998
O        6.02356863      20.19669533       6.68833733
O        3.57622027      20.31826401       6.54968977
F        4.96460915      22.04306793       5.67636967
F        4.98326254      19.89033890       2.06865811
O        6.15688848       6.11781931      14.72655964
S        5.68753290       7.35149240      15.38574409
O        4.26348162       7.54902506      15.19707870
N        6.63105917       8.56211662      15.17069721
S        7.36917925       9.26167679      13.94506550
O        8.28127670       8.35279942      13.28949165
O        7.90077400      10.49189186      14.48299122
F        6.17507982       9.56063747      12.95225620
F        5.97395325       7.11799574      16.91386032
O        3.29038191       9.38945293      25.02240753
S        4.39844704       9.87861919      24.23379135
O        4.93311739      11.14745045      24.69614601
N        4.33765936       9.69435501      22.70890617
S        3.33544445      10.25484753      21.60436630
O        1.96616781      10.31917763      22.04216194
O        3.67836308       9.67111111      20.33298492
F        3.82927108      11.77851582      21.52522278
F        5.58699751       8.88534546      24.51184464
O       23.57659340       8.73917770      17.41299438
S       24.65952301       7.93687725      16.87958527
O       25.75354958       7.63368654      17.76667976
N       25.09978104       8.23544502      15.40167141
S       25.87928200       9.50391674      14.84391403
O       25.24790001      10.76256466      15.18050957
O       26.28771973       9.22622299      13.48816490
F       27.23986816       9.48970699      15.66127586
F       23.99825096       6.53235340      16.55604553
O       14.54163074      27.18942070       5.25013542
S       14.94067287      28.07618141       4.17160273
O       16.27306747      28.66878128       4.35931969
N       13.87625408      29.09984016       3.67295194
S       13.37276649      30.45857620       4.26159763
O       13.05482292      30.50129128       5.67130041
O       12.37178230      31.00279236       3.34612679
F       14.64116192      31.40935135       4.10578823
F       15.07615948      27.19834900       2.88218188
O       28.23099899       6.77774334      22.36987877
S       29.04537201       7.13760328      23.51499939
O       29.33258820       8.55180454      23.66472054
N       30.17560768       6.16793442      23.94641876
S       31.43256760       5.61981773      23.14672661
O       31.37164879       5.79260015      21.71383476
O       31.86244011       4.36088181      23.70332909
F       32.58073807       6.62397814      23.62077713
F       28.08343315       6.85301638      24.74468613
O        2.29814339      11.43145180       6.87311745
S        3.01075697      12.63812447       7.24059105
O        3.51711130      12.76948833       8.58531952
N        2.37648535      13.96243095       6.61986971
S        1.10858786      14.63514042       7.30583143
O        0.19456576      13.68678665       7.88743496
O        0.63710576      15.67011738       6.41594124
F        1.68215322      15.43557930       8.55548954
F        4.29861689      12.63743114       6.33615685
O       17.83501434       0.26969448      15.27772713
S       18.29723740       0.91756499      14.07101154
O       18.52206039       2.34726691      14.14551353
N       17.76580048       0.40199816      12.68136120
S       16.25345993       0.48074070      12.21065521
O       15.27425098       0.58449107      13.26920700
O       16.03180885      -0.44290772      11.12195873
F       16.20670128       1.90667701      11.50108814
F       19.78482819       0.35412854      13.89127159
O        7.73134375      24.92592621      19.46032333
S        8.42613792      24.05982018      20.38347435
O        9.65233421      23.42423248      19.93204498
N        7.55749321      23.13612747      21.33707047
S        6.60272837      22.02013779      20.80470276
O        5.78032970      22.36848450      19.66576004
O        6.03249836      21.29294968      21.91264915
F        7.61973095      20.94013405      20.15767097
F        8.90840721      25.03558159      21.55123138
O        8.58988285       9.66280365      23.97183800
S        8.79993629      10.82042885      24.80406189
O        8.27304840      12.07698441      24.32784653
N       10.18325424      10.95846176      25.53090286
S       11.60910511      10.83102417      24.89655304
O       11.66643238      10.14281178      23.62903404
O       12.55060768      10.45496273      25.92223740
F       12.04588413      12.31426239      24.55459404
F        7.99249887      10.49779892      26.13986015
O       24.18997765      11.63936901      11.22992992
S       24.30118179      11.45614815       9.78653049
O       24.38214111      12.67950726       9.01004982
N       23.46223450      10.28135681       9.18891239
S       22.02914619      10.48746681       8.54071712
O       21.35826492      11.71133804       8.90640831
O       21.32300186       9.23536015       8.54206944
F       22.43413162      10.70848942       7.00863600
F       25.74302864      10.84131145       9.64775944
O       27.04530525      17.88662338       5.25347757
S       27.10816193      16.50562668       4.83977509
O       25.93361282      15.69586372       5.13152838
N       28.44938278      15.78118038       5.14064837
S       29.03400993      15.45702457       6.57160807
O       29.12894058      16.57108879       7.46975851
O       30.17508316      14.59374142       6.41470766
F       27.91228867      14.47428608       7.21475792
F       27.20584297      16.55929947       3.27664781
O       22.67646599      23.46751595      25.22432899
S       22.72231674      22.21189117      25.93260002
O       21.83916092      21.15884399      25.47843170
N       22.81268692      22.34698296      27.51891327
S       21.70685577      22.61968231      28.56698227
O       20.50302315      23.32250023      28.18108749
O       22.29103279      22.96433449      29.84350967
F       21.10838699      21.16167641      28.88907051
F       24.16845703      21.66747475      25.70143127
O       26.36541367       5.64887619       5.01170206
S       26.39222717       5.15203142       3.65645981
O       26.89796066       3.81643176       3.45027661
N       26.82867813       6.18229723       2.56946516
S       28.19123077       6.92975044       2.37232733
O       28.57288933       7.81278658       3.44244719
O       28.25860786       7.49634218       1.04116750
F       29.30634499       5.80288506       2.35463619
F       24.85594368       5.05682182       3.22385669
O       13.98613358      29.40104485      14.11237144
S       13.86392117      28.31235886      15.04824066
O       15.05279064      27.90139389      15.76660061
N       12.96077061      27.10650826      14.62566471
S       13.09089851      26.17711067      13.36820602
O       13.10626793      26.88603973      12.10796833
O       12.15992260      25.07144165      13.48650742
F       14.56061077      25.55747604      13.47662449
F       12.89648438      28.90363884      16.16720772
O       17.73414803      14.34751892      10.25802517
S       17.54096031      12.97523212      10.65774155
O       16.35198021      12.58875465      11.39517117
N       18.89064217      12.36558628      11.26139069
S       19.19801903      11.87795734      12.68313503
O       18.39916039      12.36756611      13.78802872
O       20.64077950      11.86152363      12.94961739
F       18.88046074      10.30531216      12.68015194
F       17.46318817      12.18402767       9.29606628
O        5.38555765      18.93043900      19.32300758
S        4.49606323      18.16219902      18.47536659
O        5.02160120      17.80974579      17.16836739
N        2.91902947      18.47429466      18.53222466
S        2.42063189      19.96950340      18.27740479
O        3.31401014      21.04295158      18.66057396
O        1.01560020      20.09719849      18.57634354
F        2.41164422      20.05071640      16.66353989
F        4.38789701      16.74076843      19.18590927
O       29.23910522      19.14848900      25.15046692
S       29.88788223      20.25999832      24.49390221
O       31.03710747      19.99097252      23.65808296
N       30.01536942      21.58601761      25.34612846
S       30.77062607      21.81513023      26.69393539
O       30.80515099      20.70911598      27.62036514
O       30.39198494      23.10486031      27.22702217
F       32.29470062      22.04313850      26.26483345
F       28.79401398      20.82648277      23.48652077
O        4.11040831      10.94966221       4.00048685
S        4.84060144      11.76780891       3.04834390
O        4.29152775      13.09255600       2.83194375
N        5.34628153      11.02305412       1.81912088
S        4.82750845       9.80060577       0.95700139
O        4.60415554       8.61196804       1.74963319
O        5.59631634       9.68099594      -0.25070873
F        3.36585712      10.28610706       0.51547611
F        6.19064808      12.07675171       3.79239130
O       19.34191704       5.76060772      19.38008881
S       20.04029274       4.58622837      18.85098648
O       21.37994385       4.44788885      19.40064240
N       19.81644630       4.22854519      17.35845375
S       20.27442360       5.21373796      16.16939354
O       20.40383530       6.58599567      16.62953186
O       19.50645638       4.93968010      14.98689938
F       21.74030685       4.69763899      15.90518856
F       19.22952461       3.38910699      19.49989700
O       14.87570953      15.44402504       9.98836613
S       13.47310066      15.09900284       9.93472099
O       13.21625805      13.72308636       9.49486732
N       12.46466827      16.17836571       9.41616631
S       12.21782875      16.13289452       7.77327967
O       13.45789146      15.65488148       7.11478901
O       11.77490234      17.47328758       7.37182903
F       10.67159653      14.56051445       6.77831221
F       13.00936413      15.11852837      11.43326092
O       11.19859982      16.69134903      14.10160828
S       10.26180267      17.71445465      14.51478481
O       10.72846413      18.65615082      15.51183128
N        8.72617626      17.33173752      14.67047119
S        8.32481194      16.05904961      15.52242374
O        9.03402615      14.82158852      15.25273418
O        6.89344597      16.00574493      15.67665291
F        8.87124825      16.55408478      16.97793198
F       10.10590553      18.62353706      13.22000122
O       11.60105228       8.13973808       6.14156914
S       11.53501892       9.34856987       6.94835663
O       11.50149155      10.60309696       6.23486948
N       12.39973640       9.24338627       8.26859951
S       13.81278133       9.96538067       8.47766876
O       14.27369690      10.75277138       7.35807228
O       14.67447376       9.03592873       9.17366600
F       13.49152279      11.04625988       9.57746029
F       10.09342098       9.23768997       7.63076067
O       16.28116798      11.09879494       2.37492156
S       15.87698269       9.85786533       1.75958574
O       14.85063839       9.94233513       0.72935683
N       15.58997631       8.69461632       2.76585579
S       15.29928303       8.88163376       4.30832338
O       16.25776100       9.63194847       5.07154322
O       14.88569260       7.59475327       4.82283545
F       13.97805595       9.75110340       4.31963968
F       17.13666534       9.29787064       1.01688397
O        4.78455448      29.84616470      10.23554897
S        3.66710615      28.96271706      10.50469685
O        3.29580736      28.74993324      11.87951756
N        3.65705872      27.70374870       9.59387302
S        4.48533821      26.40232849       9.48934269
O        5.78101015      26.49310684      10.14771366
O        4.48319244      25.92044830       8.12714767
F        3.66641164      25.34861946      10.36559391
F        2.42922497      29.70324898       9.83623409
O       25.97583008      14.55422878      24.47751808
S       24.86984444      13.71743965      24.88415337
O       25.17982483      12.85556030      26.03635597
N       23.90566635      13.01860142      23.80704308
S       24.52457428      11.98439980      22.72705269
O       25.66261673      12.45953274      21.98215103
O       23.38957977      11.40830803      22.02968407
F       25.08094788      10.77052784      23.59857941
F       23.80012131      14.71408176      25.45775223
O       15.87582493      21.23607635       8.30296803
S       16.03004646      22.35854721       7.41125011
O       17.30449486      22.43779182       6.69798708
N       15.61692047      23.74735260       7.99155569
S       16.33517265      24.68542099       8.98937511
O       17.00580788      24.07491112      10.10910511
O       15.57278728      25.89481163       9.17664528
F       17.62124634      25.26788902       8.10134029
F       14.95044422      22.22558784       6.27593279
O       22.48568153      25.14297104       6.56730270
S       22.17158127      26.35728264       5.85855150
O       20.85136795      26.39209938       5.26597691
N       23.29318810      26.96562767       5.00133991
S       23.95894051      26.41357613       3.66027641
O       24.23672295      24.99639893       3.69132566
O       24.99330521      27.33575058       3.28424358
F       22.82928848      26.57274055       2.53652525
F       22.11508560      27.47419739       6.95854235
O       17.64420128      15.39735985      25.12935638
S       16.53183746      15.90223598      24.34718895
O       15.57663536      16.69334793      25.10343742
N       15.91137218      14.85546398      23.37091446
S       14.84516048      13.80909824      23.89986229
O       15.18792343      13.32994366      25.22607422
O       14.59016991      12.85293198      22.86613083
F       13.55574036      14.68693447      24.07783318
F       17.18446541      16.83975792      23.30565071
O        8.02201653      27.76867867      14.15954304
S        7.74451113      27.08893776      15.42211342
O        7.08090496      25.81062889      15.29106140
N        7.24894333      28.02376747      16.55713463
S        5.92484713      28.84686089      16.71580887
O        5.50634861      29.51075745      15.50129604
O        5.95434141      29.62357140      17.93180466
F        4.81224966      27.73877716      16.94530106
F        9.16380024      26.77270508      15.98913574
O       19.86600113       4.75810623      29.00523376
S       20.37997818       4.93478870      30.34506989
O       19.52757454       5.64256096      31.26520729
N       21.85360909       5.29163980      30.45679092
S       23.09247971       5.95738077      29.83121681
O       22.87570381       6.68057871      28.59601402
O       24.27205849       5.14351082      29.93973541
F       23.34049797       7.13636923      30.87675667
F       20.42613220       3.44674635      30.92306137
O       26.98519135      22.48653030      10.38646507
S       26.84321976      23.91286850      10.17203140
O       27.48496056      24.79194641      11.12528992
N       25.42545891      24.42140007       9.63113308
S       24.33898163      24.60694885      10.77965641
O       24.50579643      23.76651955      11.94629097
O       23.02434349      24.75265312      10.19439793
F       24.62236786      26.08086205      11.33621216
F       27.65646935      24.15355873       8.83751869
O       12.09935188       2.38223934      10.02784538
S       11.79179955       3.31127882       8.97916889
O       12.74232006       3.58305240       7.93656445
N       11.39263439       4.75876665       9.57710648
S       10.43319798       5.10647774      10.75812531
O       10.60390663       4.37936735      11.98528290
O        9.09473324       5.49456644      10.38509083
F       11.09569168       6.52752018      11.10013866
F       10.47644043       2.78458643       8.27578068
O        4.90152407      14.64250469      11.24488735
S        5.41574049      15.69277477      12.10855007
O        4.74062014      16.96082115      11.97844410
N        6.96090698      15.72561264      12.29815960
S        8.05798149      16.20529556      11.28087521
O        7.75906229      15.99171543       9.87696743
O        9.37456799      15.81233692      11.71851063
F        8.10678673      17.79051208      11.41518879
F        5.09163952      15.19042206      13.57320404
O       22.58631706       6.77103472      13.95826054
S       22.20714188       6.95273638      12.58138561
O       21.27510834       6.01268578      12.00556183
N       23.34790421       7.52751732      11.63620567
S       24.65213966       6.73799372      11.20382309
O       25.20541382       5.88548088      12.25323772
O       25.61501122       7.60313988      10.57471752
F       24.12337303       5.73124504      10.10743904
F       21.35223007       8.30954838      12.62518406
C       20.83141327      28.46243477      23.77332878
O       21.67662621      28.50613594      24.93196487
C       21.26777840      29.48490715      25.90328217
C       21.82772064      29.07174683      27.25277519
O       23.27499199      29.16927910      27.24955750
C       23.84855461      28.34475899      28.29853249
H       19.78259277      28.33278275      24.07748604
H       20.93869209      29.37739372      23.17036057
H       21.10451508      27.57628441      23.18702507
H       21.62182426      30.48888206      25.59216309
H       20.16520500      29.50580788      25.97138596
H       21.53785896      28.02840233      27.42414665
H       21.41776085      29.67992210      28.07697296
H       24.93232918      28.52470398      28.29655838
H       23.40299797      28.61036491      29.27210999
H       23.63008499      27.28575325      28.09528160
C       13.02596378      19.99872971      29.30109215
O       14.06480217      20.51931953      28.45989037
C       14.29458046      21.91908455      28.72492790
C       15.45630264      22.36563301      27.85907936
O       15.02333164      22.40863609      26.48945427
C       16.03552628      23.06990623      25.70222855
H       13.22296524      20.22330284      30.36350060
H       12.03890991      20.40386009      29.01871300
H       12.97245216      18.90920830      29.16082954
H       13.38039684      22.48562241      28.47692680
H       14.52748775      22.08148384      29.79026794
H       16.33876801      21.69759750      27.93071747
H       15.74854469      23.36700249      28.22483063
H       15.69512653      23.04918289      24.65466690
H       16.19113159      24.10021210      26.05307961
H       17.00579453      22.55238914      25.79124832
C       15.59106541      10.51311874      25.99272919
O       15.15990639       9.38639259      26.74399948
C       14.59832764       9.82387447      27.97670937
C       13.74641895       8.68799782      28.52785683
O       14.52874565       7.49112129      28.39600372
C       13.96406937       6.36200619      29.05400658
H       14.76307678      11.21216488      25.81800270
H       16.38035202      11.05528831      26.55849648
H       15.97654915      10.16281033      25.01844978
H       15.40815544      10.10459614      28.68345261
H       13.93800354      10.70370865      27.84808540
H       12.81189919       8.59406471      27.94153976
H       13.46707153       8.89622211      29.57410240
H       14.61802292       5.50308657      28.84020233
H       13.90446663       6.53795433      30.14427567
H       12.94187355       6.15657663      28.68021202
C        9.93850899      13.20405483       9.55100536
O        8.57728004      12.92760754       9.88668156
C        8.48712921      12.62758636      11.28149796
C        7.03681803      12.31394291      11.58486080
O        6.57229710      11.41118526      10.58330059
C        5.15419292      11.36125660      10.52759457
H       10.34308720      14.02361393      10.17540169
H       10.57603645      12.30479240       9.73039436
H        9.99221897      13.52692890       8.48595333
H        9.17955971      11.79951668      11.49461269
H        8.82960415      13.47632885      11.90317154
H        6.42261791      13.22722721      11.56267929
H        6.95013571      11.89654350      12.60991955
H        4.87555838      10.80741119       9.62018871
H        4.74195814      10.83144188      11.40615845
H        4.71947002      12.37241077      10.47470856
C        7.87669897      11.12461376       6.41577959
O        6.53961897      10.64629936       6.55452585
C        6.55437279       9.39118195       7.23320246
C        5.10636425       8.94612980       7.36600542
O        4.51510954       8.85459042       6.08103323
C        3.16929412       8.40672874       6.14447260
H        8.37705135      11.27904415       7.38991499
H        8.48851299      10.43665695       5.79787970
H        7.81778574      12.09739017       5.91175556
H        7.14890766       8.64311314       6.64876175
H        7.01344109       9.48865795       8.23833084
H        4.53803253       9.65818119       7.99927855
H        5.07038164       7.96205807       7.86088037
H        2.82774639       8.21156025       5.11652803
H        3.07882714       7.47218943       6.73210812
H        2.51892924       9.17717171       6.58787680
C       17.80639267       2.75473881       6.62733841
O       16.72317886       3.37716722       5.96123362
C       15.66897678       3.82288241       6.83806133
C       14.75567722       4.75417995       6.05562639
O       14.00137234       3.97559237       5.12896013
C       13.11957741       4.76909447       4.36329365
H       17.98277473       3.20248437       7.62276506
H       17.62005997       1.67007887       6.76844120
H       18.70257759       2.86837626       5.99603415
H       15.10003757       2.98097253       7.25325871
H       16.11033821       4.38486433       7.68151331
H       15.36299324       5.49911165       5.51303959
H       14.07684708       5.30426121       6.73653555
H       12.55147934       4.12606907       3.68415308
H       12.40051556       5.32162046       4.99424219
H       13.68187141       5.51445770       3.76844907
C       13.46686268      19.15019989      11.32452679
O       14.04470062      18.26579285      12.26989079
C       15.45327950      18.12433815      12.05088806
C       15.97904491      17.15003586      13.11111259
O       15.26387024      15.94057941      12.91793442
C       15.70146179      14.91381550      13.79232025
H       13.89882660      20.16778946      11.41409874
H       13.61316872      18.78548241      10.29124069
H       12.38339424      19.18639374      11.51348495
H       15.63188934      17.73561478      11.02576828
H       15.94922161      19.10458946      12.18023396
H       15.82357502      17.52804375      14.14536190
H       17.06814575      16.99065399      12.96792412
H       15.04918575      14.05468464      13.57560921
H       16.74154472      14.60567093      13.58061886
H       15.62641716      15.20440769      14.85576248
C       17.02729607       7.58861732      20.96604156
O       15.87662983       6.82065439      20.63747025
C       15.97665882       6.29533148      19.31365776
C       14.66609478       5.64516211      18.90387535
O       13.74124527       6.69236708      18.51545715
C       12.55054760       6.14702177      17.93706131
H       17.92879868       6.95753336      21.04230309
H       17.19236183       8.37219429      20.19512558
H       16.86016655       8.09331131      21.93065262
H       16.18106461       7.11898708      18.60433960
H       16.78570557       5.54646444      19.23552704
H       14.24049473       5.06673956      19.74310493
H       14.82591057       4.97276211      18.03790665
H       11.95698452       6.97318935      17.51206207
H       12.77709103       5.42315674      17.12895966
H       11.93336582       5.60857868      18.67751884
C       31.51382637      25.60282135      23.90062332
O       31.16815186      25.16976166      22.59975815
C       29.97094727      24.39367294      22.59481621
C       29.91852570      23.60496521      21.27855492
O       31.07887459      22.78850937      21.22955513
C       31.05393028      21.89058876      20.12926102
H       30.76295662      26.30098343      24.32180405
H       31.58314514      24.75330353      24.60873413
H       32.49240494      26.10968971      23.86723518
H       29.94420242      23.69786072      23.45726013
H       29.07756233      25.05315971      22.67453194
H       29.87064743      24.26803207      20.39161301
H       28.99040222      22.99758720      21.28994751
H       31.97409630      21.29311752      20.14645004
H       30.19197845      21.20176888      20.21119308
H       30.99011230      22.40706444      19.15054321
C        2.72162151      23.30641747      21.21750069
O        2.07719350      22.13106155      21.67828941
C        2.97529221      21.31897163      22.43701744
C        2.15464115      20.09460640      22.82434082
O        2.07426167      19.27519035      21.65199089
C        0.89174980      18.48267174      21.58979034
H        3.06496477      23.92358017      22.07217598
H        3.59643674      23.07356644      20.58153725
H        1.97507155      23.86311913      20.63207245
H        3.84523964      21.03894806      21.81149292
H        3.34229827      21.86428070      23.33306122
H        1.14965296      20.38277435      23.18614388
H        2.68308306      19.54043579      23.62305260
H        0.97549731      17.83475113      20.70605659
H        0.78335333      17.86112213      22.49547005
H       -0.00419206      19.11136818      21.46891975
C       18.68375015      25.02669716       4.06239557
O       17.54677010      24.21681786       3.79413223
C       17.66182327      23.40738487       2.62345266
C       16.39427567      22.58016396       2.51719546
O       15.33064938      23.48737335       2.21804190
C       14.04466820      22.89630318       2.32674623
H       19.60458755      24.42988586       4.19989872
H       18.87844086      25.77182961       3.26017570
H       18.50100136      25.56217003       5.00881577
H       17.77082825      24.03306961       1.71940553
H       18.52538681      22.72430611       2.68445897
H       16.20980835      22.07087898       3.47693849
H       16.47692299      21.82398987       1.71421134
H       13.30699444      23.69954681       2.21128178
H       13.86772919      22.14846611       1.53873324
H       13.90251350      22.40748978       3.30239773
C       18.04456711      11.54499340      22.77112961
O       18.81944084      10.37454605      23.07219887
C       19.23144341      10.37088585      24.43712234
C       20.24837112       9.24947166      24.56023026
O       21.41691017       9.69952774      23.85962868
C       22.24321938       8.61388493      23.42692757
H       17.11789703      11.58271790      23.36076164
H       18.64021111      12.45130157      22.97868538
H       17.75924873      11.46953487      21.71105194
H       19.69216728      11.34085083      24.69608688
H       18.37337112      10.23969650      25.10993004
H       19.84344101       8.32692432      24.10810089
H       20.47695541       9.05209923      25.62354851
H       23.01540947       9.01460838      22.75142860
H       22.72481346       8.08508396      24.26675797
H       21.62561035       7.90502071      22.84783173
C        2.17978072      18.04186440      13.71684361
O        3.23132825      18.99415588      13.58710194
C        4.31607580      18.69320107      14.49007416
C        5.66579676      19.03631973      13.89176655
O        5.61107159      20.39823914      13.41137695
C        6.72694921      20.61455917      12.56192493
H        2.47835851      17.07262802      13.27370834
H        1.91628194      17.86479950      14.77512646
H        1.28898275      18.42560768      13.19612598
H        4.16201639      19.20107269      15.45336342
H        4.32730436      17.61359787      14.71676159
H        5.91385508      18.37587929      13.04349804
H        6.45086002      18.93293190      14.66792393
H        6.66978931      21.65245819      12.18706322
H        7.70034361      20.45475960      13.07193661
H        6.70854759      19.90704155      11.70321083
C       24.07846451       3.59743810      14.42763329
O       23.16820145       3.54545975      13.35471439
C       22.76443100       2.23540926      12.95363903
C       22.06074905       2.35907578      11.61010456
O       23.08748436       2.48490715      10.60287380
C       22.53226280       2.77415061       9.32837105
H       23.78970718       2.93749452      15.26860809
H       25.10338211       3.32555962      14.09011841
H       24.04710960       4.63827324      14.78114986
H       23.63180351       1.55220234      12.88014507
H       22.04224205       1.84733427      13.69343472
H       21.39307785       3.23987293      11.60971832
H       21.42970657       1.47156084      11.40023041
H       23.34324265       2.90838766       8.59817219
H       21.89958000       1.92968202       8.98135757
H       21.89625740       3.67835188       9.36246490
C       26.04102516      15.45442772       9.37811089
O       26.90642929      16.54371643       9.58683491
C       26.61766052      17.70581818       8.79981899
C       27.53048325      18.80655670       9.35726547
O       28.41668892      19.27590561       8.32639027
C       29.77186584      19.33023834       8.76895237
H       24.99321365      15.66637325       9.66833019
H       26.06002617      15.09482098       8.32955456
H       26.39484596      14.62703037      10.01425648
H       26.83502769      17.52110100       7.73067474
H       25.54342651      17.97584343       8.88806534
H       28.09580231      18.40039253      10.21187496
H       26.94253731      19.65920830       9.74191380
H       30.38347054      19.63373184       7.90923452
H       29.91098213      20.05801010       9.58504105
H       30.11842728      18.33617592       9.09355164
C       18.43395042      13.69792938       1.26969492
O       19.36806297      13.14400864       2.17468286
C       19.95754623      11.90707397       1.74107885
C       20.40479851      11.20553493       3.02386689
O       19.23073578      10.83088589       3.73117280
C       19.55944633      10.43623638       5.05809689
H       18.94235229      14.07660484       0.35335529
H       17.66753197      12.94964504       0.97142172
H       17.91518974      14.53197765       1.76061285
H       19.23274040      11.28335571       1.18116379
H       20.83342743      12.09004879       1.08352780
H       21.05230904      11.86327267       3.64240360
H       20.98591805      10.31011486       2.71507025
H       18.62550163      10.12441349       5.53825188
H       20.27372360       9.58946705       5.06971884
H       20.00151634      11.27089119       5.63151884
C       26.87448120       1.48217702      27.70993996
O       27.66478539       2.57492399      28.14255905
C       29.07276726       2.38053274      27.96757889
C       29.71976280       3.57912612      28.66908264
O       29.51167870       3.40944862      30.06071663
C       29.92124939       4.51527500      30.84978294
H       27.13191795       1.17379832      26.67693901
H       26.97636414       0.61131400      28.38403130
H       25.82422829       1.80859447      27.71259308
H       29.41037750       1.44527817      28.44388771
H       29.32530212       2.35118437      26.88943863
H       29.25635338       4.51036739      28.30116844
H       30.80076408       3.60273862      28.42677116
H       29.76963425       4.25263548      31.90654182
H       30.98663521       4.75983000      30.68591309
H       29.32344437       5.42049932      30.66208649
C       10.11148071      14.39756203      26.16564941
O       11.48714924      14.61323833      26.48292160
C       11.99936867      13.78672314      27.52787209
C       13.43675041      14.22925377      27.78602791
O       13.42813587      15.28190804      28.77662659
C       14.74596214      15.74345112      29.01770401
H        9.99532127      13.71865749      25.30106926
H        9.54527092      13.95728779      27.00182724
H        9.64555359      15.35849190      25.91139412
H       11.39719486      13.88084602      28.45516586
H       11.99573708      12.72896290      27.21685410
H       13.90359020      14.58909416      26.84895706
H       14.04911900      13.37196732      28.13393402
H       14.73735046      16.46818352      29.84083176
H       15.43299198      14.92089653      29.29975891
H       15.17731953      16.20848846      28.10391235
C       18.83685112       4.58817387      11.87727833
O       17.44356918       4.43333483      11.65724277
C       17.02340126       5.33973551      10.66053581
C       15.53154659       5.07497311      10.48413086
O       14.93030834       5.43820953      11.73279858
C       13.75871277       4.69187784      12.04970551
H       19.41680717       4.29126263      10.97166729
H       19.09807396       5.63199520      12.11096287
H       19.12002373       3.94324088      12.71562767
H       17.21598816       6.38411951      10.96952438
H       17.55227089       5.16122007       9.69723129
H       15.35728264       4.01450729      10.23317719
H       15.11787701       5.70252275       9.66382027
H       13.21702194       5.19844246      12.86449718
H       13.10096931       4.63974047      11.16992092
H       14.00098324       3.65508437      12.34913540
C        7.21473217       3.02610016      11.04130268
O        7.64566422       3.01574445       9.69825935
C        7.01276922       4.03755569       8.94874382
C        7.62858486       4.14623642       7.55802488
O        7.48851061       2.91786003       6.81432867
C        7.96626568       2.99830389       5.46704960
H        7.39437771       4.01003647      11.51853466
H        6.13645458       2.80632138      11.14545059
H        7.77522898       2.26009130      11.59805679
H        5.93171644       3.84275007       8.85012341
H        7.10019875       5.01512384       9.45519543
H        8.70212460       4.40424204       7.63972855
H        7.08956766       4.95773935       7.03129911
H        7.53394938       2.17532754       4.87039948
H        7.65842199       3.93839955       4.96555185
H        9.06137657       2.87419581       5.39400816
C       27.48808289      26.38839531      15.57876873
O       26.24496460      25.70199013      15.43926907
C       25.19584274      26.61483002      15.15811539
C       23.99891281      25.81029701      14.67061996
O       23.45478821      25.07919693      15.80241489
C       22.43605423      24.20782852      15.29126740
H       27.73440552      26.93476486      14.65220737
H       27.44433784      27.10828209      16.41309547
H       28.25442886      25.63748550      15.80351543
H       24.96950912      27.22006226      16.05935097
H       25.48495102      27.30428314      14.33562374
H       24.30612946      25.09796524      13.89055252
H       23.20824242      26.45680428      14.24007988
H       21.93316078      23.71832085      16.13751221
H       21.68120575      24.77304077      14.71240425
H       22.86686707      23.43342781      14.63101482
C        1.10433578      14.75572014      23.26405334
O        1.24109960      13.47627831      23.91975784
C        0.31290245      13.31569862      25.00510788
C        0.86122030      12.19538021      25.89189720
O        2.01260829      12.75458145      26.54600525
C        2.59377885      11.90241909      27.53488541
H        0.26678753      14.75681400      22.54903984
H        0.94084340      15.54553127      24.01537132
H        2.03018570      14.96267033      22.70647812
H        0.25651884      14.26323128      25.57192802
H       -0.68650591      13.05655956      24.61035347
H        1.15776563      11.31513882      25.29237366
H        0.09525660      11.88442612      26.62567329
H        3.49492574      12.41727352      27.89098930
H        1.89087486      11.75082874      28.37138367
H        2.85507751      10.93182182      27.08331108
C       23.26012039      15.35361671      13.71724033
O       24.08300400      16.51576233      13.64296818
C       23.83168793      17.25294495      12.44077015
C       24.72476387      18.49740791      12.51212311
O       26.06010818      18.02512169      12.60715961
C       26.96180916      18.94328308      13.20533276
H       22.21080208      15.58363152      13.44883347
H       23.60783195      14.55163670      13.03572464
H       23.28214836      14.99914551      14.76092052
H       24.06719780      16.65632820      11.53760910
H       22.76666260      17.55078697      12.36714935
H       24.45230293      19.13556480      13.37584591
H       24.56789398      19.08730888      11.58883953
H       27.95390320      18.46498299      13.25032711
H       27.02163124      19.87349129      12.61536884
H       26.67009163      19.19566536      14.23939896
C       23.19540596      14.69262505       1.25600982
O       22.74603653      15.29683495       2.45541334
C       22.00790977      16.50017738       2.18327999
C       21.48484421      17.08412743       3.50314569
O       22.53086281      17.79727554       4.16472578
C       22.12784004      18.32384109       5.42797518
H       22.32534218      14.45461082       0.59952784
H       23.88941574      15.34913254       0.69506872
H       23.69602394      13.74468517       1.51149285
H       22.65330124      17.23608017       1.66628683
H       21.14868164      16.24717331       1.52796650
H       21.07058144      16.29131317       4.15254688
H       20.66200829      17.79377365       3.27435207
H       22.98923111      18.83252716       5.89044952
H       21.31287956      19.06435013       5.31013727
H       21.73674202      17.51957321       6.07835579
C       11.31893539      15.16833210      22.00662422
O       10.27317142      16.07989693      21.66880608
C        9.17619419      16.02292442      22.60662842
C        8.11975574      17.07051659      22.21799278
O        6.88796329      16.39137077      21.95244408
C        5.77199221      17.24743080      22.19532967
H       12.01380634      15.61738110      22.73634720
H       10.91492176      14.22409153      22.44195557
H       11.88478661      14.91984653      21.08313370
H        8.71439934      15.02103710      22.53264427
H        9.52269554      16.15024567      23.65435791
H        8.43939209      17.63024330      21.30704117
H        7.95292473      17.80366707      23.03990746
H        4.84349823      16.65978622      22.13828850
H        5.82824183      17.70343399      23.20327568
H        5.71463919      18.07552910      21.46563911
C       30.36430740      14.38766479       2.21471071
O       30.27649689      13.33010960       3.16172886
C       31.46285820      13.26004887       3.95810914
C       31.23386383      12.18772411       5.02523947
O       31.53587532      10.91121292       4.42404079
C       31.36308098       9.85562420       5.37833452
H       30.56667137      15.34556770       2.71655703
H       31.15567017      14.19263554       1.46495402
H       29.38693428      14.43943596       1.71333623
H       32.31672287      13.00621891       3.29573369
H       31.68165016      14.21644020       4.46248960
H       30.18986893      12.21279526       5.37337637
H       31.88272285      12.37296486       5.89767933
H       31.67242241       8.91788292       4.90168953
H       31.95707321      10.04924107       6.28771114
H       30.29752350       9.76275730       5.65305185
C       23.95925903      31.17299843      15.18872547
O       23.49982071      30.16113281      16.08391190
C       22.44887543      29.40283394      15.46022129
C       21.94528198      28.46374702      16.55880356
O       21.12063789      29.25020409      17.42703056
C       20.48744965      28.50923347      18.45867538
H       24.31058311      30.73943710      14.23608875
H       23.14920425      31.88605881      14.95537090
H       24.78056908      31.69687843      15.69279575
H       21.61162949      30.04095078      15.12595844
H       22.81220245      28.82810783      14.58616066
H       22.79273796      28.03336143      17.12581253
H       21.37241364      27.64852524      16.08480644
H       19.74816322      29.15279770      18.95075226
H       19.92357063      27.64575768      18.05450058
H       21.21741295      28.16633415      19.21435738
C        8.80010796      20.52346802      23.52168083
O       10.18293858      20.23100853      23.74066353
C       10.41151428      18.82782173      23.74937439
C       11.88037395      18.54901123      23.99689865
O       12.29194069      19.22042274      25.18261909
C       13.39136410      18.56633377      25.78718758
H        8.44661331      20.08221245      22.57035065
H        8.16563034      20.10647964      24.32487869
H        8.66950607      21.61254883      23.45921516
H        9.79652691      18.34674644      24.53149414
H       10.15131950      18.39509201      22.75927734
H       12.49926186      18.85991859      23.13061714
H       12.00422478      17.44656372      24.08278465
H       13.47787762      18.96989632      26.80691147
H       13.25307846      17.46856689      25.85295868
H       14.32608795      18.73697472      25.20127869
C       23.45348740      13.82051373       5.08260775
O       22.58512306      14.66504097       5.84064531
C       21.75489235      13.91640377       6.73657846
C       20.61341095      14.81290340       7.21127319
O       19.84653282      15.14645386       6.04964113
C       18.60593987      15.77944279       6.34699345
H       24.06295204      13.18138599       5.74794436
H       22.88463593      13.15786457       4.40112877
H       24.11251640      14.45972347       4.47744083
H       21.34793854      13.03398991       6.20992756
H       22.32978630      13.55629730       7.60831881
H       20.96916771      15.74898434       7.69946337
H       19.97417259      14.28450108       7.94473314
H       18.06202507      15.90391445       5.40166759
H       17.98955536      15.15373039       7.01531792
H       18.74881363      16.76139259       6.83394957
C       14.08510494       8.59744644      23.23178673
O       14.34282398       9.78016186      22.47988510
C       13.98013306       9.59008789      21.11484528
C       14.21862221      10.89814091      20.39862251
O       15.59831524      11.23354244      20.54697609
C       15.75118828      12.54094982      19.99565506
H       13.11947536       8.13557243      22.96236038
H       14.86995983       7.83531284      23.06959534
H       14.04358673       8.86320210      24.29854012
H       14.54473686       8.76070023      20.64578438
H       12.91032219       9.33172131      21.01857567
H       13.55649757      11.68790627      20.80781937
H       13.96917248      10.77423859      19.32526398
H       16.80338097      12.84184551      20.11255074
H       15.46920490      12.54235172      18.92721367
H       15.10602093      13.26532936      20.52410698
C       21.30638885      10.44928741      29.74109268
O       20.46415138       9.31251526      29.78598213
C       19.23055840       9.56895733      29.11021614
C       18.32582283       8.36061287      29.24143219
O       18.12672424       8.14103031      30.63870430
C       17.20212364       7.08202934      30.85532761
H       21.61284447      10.66858578      28.69208908
H       20.80436134      11.35607624      30.13004494
H       22.20064163      10.25261211      30.35136604
H       18.74916840      10.46853638      29.54508400
H       19.37766266       9.75786972      28.02634048
H       18.78924561       7.47443390      28.76709557
H       17.37548065       8.56671619      28.71369362
H       17.38323021       6.67015886      31.85709763
H       16.15749168       7.44249439      30.78694725
H       17.31424332       6.26197910      30.12489319
C        5.98032475       6.53236294       4.26818657
O        5.53335953       5.78883791       5.40310335
C        4.42526054       4.96687365       5.04456520
C        4.00144529       4.19805813       6.30532169
O        3.56528711       5.12553310       7.29516792
C        3.04885316       4.59749699       8.50448608
H        6.29336739       5.86031437       3.44732380
H        5.20819521       7.22475910       3.89615679
H        6.84271336       7.12986374       4.60740519
H        3.59036279       5.58797932       4.66243887
H        4.71958780       4.24828053       4.25077772
H        4.84900475       3.60185552       6.68581438
H        3.18284297       3.50533986       6.03366327
H        2.57772708       5.42372894       9.04954720
H        2.30614614       3.80116606       8.32282162
H        3.83375525       4.20751047       9.18051434
C       25.94632721      17.60780716      23.39755058
O       24.64376068      17.30377197      23.90587425
C       23.64184761      17.75648308      23.01599884
C       22.41165543      16.85614395      23.09923935
O       21.87279892      16.89371300      24.41349602
C       20.64118385      16.16880417      24.42594910
H       26.10553932      17.12545586      22.41553116
H       26.09918022      18.69223022      23.27519798
H       26.68128014      17.21643066      24.11228371
H       23.36172485      18.80376434      23.23898125
H       23.97872734      17.69598961      21.95592690
H       22.68220520      15.81444359      22.81343269
H       21.65806580      17.20908546      22.36371231
H       20.16445923      16.29945183      25.40015221
H       19.94066238      16.55419731      23.65658951
H       20.78517914      15.08492947      24.24916267
C       25.20890617      24.89596939      22.41605759
O       24.99818230      26.29650116      22.17909813
C       23.90794563      26.53180122      21.24345016
C       23.60811996      28.03615189      21.27854919
O       23.73162842      28.57924652      19.95163727
C       23.40642357      29.97261238      20.01388550
H       24.33368111      24.43786812      22.90868378
H       25.36380005      24.36378479      21.45955276
H       26.09690285      24.80792618      23.05681992
H       24.19664001      26.18375969      20.23426819
H       23.02257729      25.95510101      21.55215836
H       24.30156708      28.55787659      21.97427559
H       22.58690262      28.21534157      21.65664291
H       23.50637245      30.37703514      18.99479866
H       22.35611534      30.09739876      20.33317947
H       24.06284142      30.51744652      20.71544266
C        7.70470762       5.65890551      28.25857544
O        7.15544081       4.41178465      27.89239120
C        7.87173796       3.78168559      26.84635925
C        7.14050722       2.47030854      26.49307632
O        6.05556774       2.83642149      25.63938141
C        5.27061272       1.76956189      25.16041946
H        8.70621681       5.55408669      28.71862411
H        7.77832365       6.33514881      27.38709450
H        7.03985310       6.12071180      29.00320435
H        7.89040327       4.42191696      25.93553543
H        8.91878414       3.57039714      27.14751625
H        6.76786327       1.98150980      27.40971756
H        7.81784344       1.77334321      25.96217346
H        4.49835825       2.20830941      24.51803398
H        5.87553024       1.06310081      24.55730057
H        4.78034449       1.21143472      25.97809601
C       10.25505924      23.42372513      16.76313400
O       11.35478210      22.74154663      16.17574120
C       11.02362156      21.84487534      15.11274052
C       12.30726910      21.06395340      14.78559017
O       12.78106403      20.51305771      16.01689148
C       13.63472176      19.41326904      15.73824978
H        9.55305672      23.80680847      15.99014282
H        9.69948864      22.76414871      17.45359612
H       10.62816048      24.26665306      17.36454582
H       10.23561573      21.12923431      15.41709805
H       10.67367935      22.38936043      14.20899200
H       13.07414722      21.73210526      14.32922935
H       12.05246544      20.26387596      14.05626869
H       13.97697639      19.00378227      16.70512772
H       13.11835194      18.61388588      15.17379665
H       14.51476097      19.72920418      15.13038635
C       12.88094902      28.15065384      31.65493774
O       12.72790623      26.76786804      31.42505074
C       12.14683247      26.49532127      30.16421890
C       11.96071053      24.98778725      30.05167770
O       10.99544048      24.66523743      31.05944443
C       10.60847950      23.30679131      30.96554947
H       13.49886131      28.61849785      30.86616898
H       11.89757156      28.65188599      31.69004631
H       13.36779594      28.27681160      32.63048553
H       11.17026138      26.99887657      30.06159401
H       12.78965569      26.83345413      29.33146477
H       12.91265678      24.45583153      30.23649788
H       11.60344219      24.71181107      29.03698158
H        9.90197563      23.11478424      31.78308678
H       10.10470009      23.09211731      30.00611305
H       11.46540260      22.61859131      31.07072639
C       30.86462021       7.52332306      27.59465790
O       29.80400467       7.18378019      28.50314713
C       28.52445221       7.38744545      27.89961815
C       27.41177368       6.93566370      28.84257507
O       27.61269379       7.46150589      30.15287018
C       26.41052818       7.42478418      30.96978378
H       30.88538742       6.84258509      26.72830582
H       30.73262596       8.54869556      27.20759010
H       31.79899979       7.45212555      28.16611862
H       28.39224434       8.46312046      27.67355919
H       28.43617821       6.83915281      26.94286919
H       27.35702515       5.83342123      28.85397530
H       26.44187927       7.27427578      28.43070030
H       26.57345581       7.99833345      31.88770485
H       25.56524277       7.85709143      30.40404320
H       26.15089226       6.38843203      31.23855209
C       14.00846767       2.86558127      15.45817566
O       14.73602104       4.07170725      15.63542557
C       15.99846172       4.07527256      14.93971348
C       16.46241570       5.51287699      14.91845798
O       16.83986282       5.90880775      16.24648666
C       17.17147064       7.29507494      16.30355072
H       13.94539070       2.58814168      14.38854313
H       14.48590374       2.01786613      15.98267269
H       12.98818111       3.03856540      15.82862949
H       16.72684479       3.41322494      15.43788910
H       15.87325191       3.71005511      13.90147591
H       15.62200642       6.12876940      14.54887390
H       17.31734657       5.61397743      14.21937847
H       17.80691338       7.47522926      17.18365669
H       17.74399567       7.59950781      15.40674114
H       16.25992012       7.92300510      16.38088608
C       10.30570507      20.23138618      20.13375092
O       11.57311916      19.57854271      20.27983856
C       11.63972378      18.36220932      19.50251961
C       13.00583839      17.72545815      19.73592758
O       13.19638252      17.65662384      21.15033150
C       14.34638500      16.88780212      21.47037506
H       10.14681911      20.54526901      19.08186340
H        9.49077034      19.53548050      20.39937592
H       10.25297832      21.11668396      20.78666878
H       10.82940483      17.67980385      19.81686020
H       11.48104954      18.57422638      18.42122078
H       13.81021976      18.33209801      19.27481079
H       13.01453018      16.72029305      19.27417755
H       14.45533848      16.91300774      22.56747437
H       14.20990086      15.83231640      21.16607285
H       15.26082706      17.27543449      20.98150063
C       21.66887665       1.06738567      27.79090309
O       21.70922661       2.42567277      27.37416649
C       21.64032555       2.57625937      25.95513535
C       21.09002304       3.96381593      25.66007614
O       21.87479973       4.96738338      26.29120445
C       21.18965149       6.21055651      26.22317123
H       20.86033249       0.51361972      27.28024483
H       22.62987709       0.55659097      27.59692764
H       21.47494698       1.05387330      28.87230301
H       22.64053726       2.41642642      25.50668716
H       20.95787239       1.84460402      25.48543930
H       20.03402328       4.01134872      25.97529602
H       21.10120964       4.08549404      24.55713654
H       21.85827637       7.00202847      26.59233856
H       20.88368988       6.39727783      25.16885185
H       20.27083588       6.20861483      26.83776283
C       28.62452507      25.48646545       4.25279331
O       27.64475060      26.17068672       5.01020241
C       28.16929436      26.84394836       6.14881897
C       27.00052071      27.60836029       6.79536104
O       26.13240051      26.61642265       7.31102943
C       25.07352066      27.19853783       8.05100822
H       29.45767021      26.15661240       3.96010613
H       29.06111336      24.64169693       4.81883669
H       28.16139984      25.08699989       3.33969665
H       28.59080505      26.11874962       6.86561155
H       28.95288467      27.56688499       5.84586716
H       26.48375893      28.21167755       6.02046585
H       27.35050201      28.27031898       7.61058903
H       24.36255264      26.39190674       8.25805283
H       25.41445732      27.62242508       9.01325703
H       24.56467819      27.98746109       7.46449184
C       16.44118309      13.01304626       4.99251127
O       15.47884941      13.70059490       4.20670033
C       14.18530941      13.52687263       4.77557516
C       13.15648174      14.07484150       3.78410339
O       13.14202595      13.18344402       2.65406704
C       12.19962692      13.54520893       1.66421986
H       16.46085930      13.38001251       6.03690147
H       16.21776962      11.93093586       5.02181292
H       17.43736267      13.15483856       4.53278351
H       13.98095798      12.44780064       4.97439861
H       14.08393669      14.07605934       5.73415422
H       13.43757915      15.09687328       3.45771313
H       12.15856552      14.14718533       4.26118422
H       12.18844414      12.76166725       0.89082086
H       11.17884064      13.63327217       2.07810116
H       12.47336578      14.51174927       1.20173025
C       15.48780155      29.00732803      28.24540710
O       15.99881554      28.01658821      29.11813927
C       15.80807686      26.68610191      28.61868668
C       16.59084511      25.77264977      29.55643463
O       15.70045376      24.90337372      30.28524208
C       16.47762871      24.13470459      31.20410919
H       15.93758297      28.92974091      27.24014664
H       14.39395523      28.91474342      28.13524246
H       15.73556137      29.97521210      28.70148468
H       14.73511887      26.42747688      28.60743523
H       16.17135048      26.58796692      27.57511902
H       17.17875290      26.37008286      30.27441025
H       17.30172729      25.15528297      28.98668289
H       15.81287766      23.77575874      31.99905396
H       16.95255852      23.26004791      30.71426010
H       17.28619194      24.73649788      31.64792633
C        6.27365017      14.36527920       7.74925947
O        5.39771223      15.41977215       7.33407307
C        5.30747461      16.40823936       8.38096523
C        4.28458691      17.50986671       8.07204819
O        3.39575148      17.60595322       9.17800236
C        2.34995770      18.52664566       8.96644306
H        7.26535177      14.75923347       8.01841354
H        5.86307859      13.83721256       8.62783813
H        6.38218689      13.64755535       6.92335844
H        5.04640293      15.91288090       9.32959080
H        6.31426620      16.83560944       8.52674484
H        3.72804308      17.31446457       7.12194157
H        4.81257010      18.47369194       7.95155144
H        1.56411827      18.34311676       9.71129417
H        2.70401955      19.57153130       9.05230141
H        1.89268255      18.40234756       7.96698904
C       28.50866318      11.69433117      18.07468796
O       27.99479866      10.91926289      19.15644646
C       28.23790741       9.53019428      18.89337349
C       27.71026421       8.76730537      20.09824944
O       26.33558273       9.14031792      20.31566811
C       25.63110924       8.15547371      21.05357552
H       29.58323860      11.51272106      17.91117668
H       27.97033691      11.49579430      17.13077736
H       28.34839439      12.74063301      18.35996819
H       27.72377968       9.22456837      17.96560097
H       29.32090759       9.34165764      18.77445412
H       28.28961372       8.96884155      21.01135254
H       27.79822350       7.69211340      19.87845993
H       24.58360481       8.48872471      21.11129951
H       25.63391685       7.17663527      20.52965736
H       26.03717995       8.00038910      22.06569481
C       19.96320343      19.90088844      23.82291412
O       19.03004074      19.47789001      24.82235909
C       19.51512909      19.75883102      26.13909721
C       18.72072983      18.87581253      27.08764076
O       19.46194267      17.65146446      27.25792313
C       18.70590210      16.63566780      27.92309761
H       20.14033890      20.98676109      23.86276245
H       20.93280792      19.39787102      23.96369171
H       19.53896141      19.62058067      22.84759140
H       20.58712959      19.50977135      26.21218109
H       19.40121078      20.82777786      26.39452553
H       17.75804520      18.61455536      26.59497452
H       18.52227211      19.35068703      28.06618118
H       19.22216606      15.67070961      27.74635124
H       18.60111237      16.84528732      29.00015068
H       17.69211006      16.52891922      27.48858070
C        3.88631415       7.24304962      27.34569550
O        4.31696367       6.65751266      26.14010048
C        3.27322078       6.13827753      25.32810593
C        3.76700377       5.87213993      23.89526176
O        5.09990072       5.33957338      23.95298767
C        5.55175829       4.90589190      22.68365860
H        3.13003755       8.02721977      27.15851402
H        3.45963168       6.49602747      28.04213715
H        4.76105022       7.70913649      27.82475853
H        2.87786055       5.19575644      25.76177597
H        2.43860555       6.86263561      25.27060318
H        3.75648475       6.80189466      23.29621124
H        3.08059263       5.15261459      23.40791321
H        6.54972124       4.45371294      22.83975601
H        4.89652300       4.13243198      22.24280739
H        5.66448832       5.72140217      21.94689941
C        5.24611759      11.83120441      17.70311356
O        4.43055677      12.09550095      16.57953262
C        4.52964735      11.04748058      15.62868118
C        3.47107100      11.16047764      14.53797817
O        3.74061489      12.32622719      13.75899601
C        2.68863058      12.53463936      12.82246208
H        5.06729841      10.82162666      18.10984802
H        6.32233191      11.92652321      17.44530678
H        5.01862860      12.55583763      18.49151230
H        5.54699373      11.07487869      15.18399811
H        4.40363789      10.06295776      16.11960983
H        2.44969010      11.19267845      14.97155476
H        3.50246644      10.26287460      13.87964630
H        2.94845772      13.41245079      12.21139717
H        2.58101916      11.66244602      12.14741230
H        1.71901250      12.68238163      13.33222675
C        9.86977863      28.88609123       9.66131687
O        9.71584320      27.70858574      10.45259953
C       10.56006527      26.64966583       9.96867752
C       10.36458969      25.50640678      10.95034409
O        8.99387741      25.07873535      10.84739590
C        8.81029606      24.00138855      11.78252411
H       10.92961979      29.18197441       9.64900875
H        9.52577686      28.71486473       8.63095188
H        9.25318623      29.67073822      10.11279869
H       10.29430962      26.37220764       8.93147182
H       11.61313438      26.96902466      10.02830601
H       10.58250237      25.83643150      11.97841930
H       11.06018353      24.68127251      10.72604942
H        7.77258301      23.65782166      11.69617558
H        9.49993324      23.16947174      11.55697250
H        8.99419212      24.34337044      12.81735611
C       25.15964890      25.16975594      26.30374336
O       25.57129288      24.02567673      27.01253510
C       26.92909241      23.61658669      26.77973366
C       27.03872299      22.22120667      27.36204147
O       26.88990211      21.28460503      26.29087067
C       26.70799255      19.96513367      26.76485062
H       25.52598953      26.09180832      26.78544235
H       25.52341270      25.15361786      25.25351334
H       24.05813408      25.17777443      26.27327919
H       27.14324760      23.59758377      25.69023514
H       27.61914253      24.30730247      27.29579163
H       26.23030281      22.09678841      28.10620689
H       28.00878716      22.08367348      27.86558151
H       26.89389038      19.26677895      25.93654060
H       27.40733147      19.73045921      27.58955956
H       25.66613960      19.81117821      27.09718513
C       24.42096519       9.61524391       2.16430640
O       24.55136299       8.79575729       3.30580950
C       23.56885529       9.17372417       4.27572966
C       23.51069069       8.09399796       5.35560894
O       24.61424637       8.24278545       6.22576284
C       24.57464981       7.19966936       7.19965267
H       23.43860626       9.44163036       1.67171144
H       24.52370834      10.68577003       2.43758988
H       25.19501495       9.32734299       1.43351030
H       23.78948784      10.18815899       4.68178129
H       22.57182503       9.22338676       3.77448034
H       23.51893616       7.09932470       4.86222553
H       22.56062698       8.18637085       5.92145538
H       25.37215233       7.38190174       7.92972851
H       23.60666847       7.19537735       7.73223734
H       24.71137619       6.21515512       6.72070408
C       26.09048653      14.68906689      17.05145073
O       27.07880020      15.68495560      17.28677368
C       26.87736320      16.32219696      18.56642151
C       27.90666580      17.43439484      18.67580795
O       27.53755188      18.41226196      17.69852066
C       28.60762024      19.36485481      17.61198807
H       26.02052689      13.97868824      17.89938354
H       25.09327888      15.14368439      16.89468384
H       26.35123062      14.11408520      16.15710831
H       25.84778023      16.73074913      18.62949753
H       27.03343964      15.60765266      19.39618874
H       28.92577744      17.04616737      18.48379135
H       27.88931274      17.88988876      19.68917847
H       28.25826645      20.15218925      16.93065453
H       28.84049034      19.80494690      18.59379578
H       29.52910042      18.90322685      17.22273636
C       25.93054581       3.24335146      23.37817574
O       26.02386475       4.32114887      24.29606056
C       24.85137558       4.51668358      25.09642220
C       25.01976585       5.77032232      25.94021034
O       24.82001686       6.90996885      25.08434296
C       25.02662849       8.09923077      25.83872986
H       25.68623734       2.29258800      23.88488960
H       25.14616966       3.44368362      22.62344360
H       26.89318466       3.13769960      22.86102486
H       23.95188332       4.60429907      24.45996284
H       24.67432976       3.66925597      25.78312111
H       26.03743935       5.82029963      26.36747551
H       24.27844810       5.79311848      26.75803947
H       24.86864090       8.94672108      25.15591812
H       24.34354782       8.20001125      26.70790863
H       26.06423378       8.15543079      26.21343040
C       18.07567215      29.08407784      15.39494610
O       18.45434570      28.02648735      14.51010227
C       18.53596687      26.77708435      15.19260120
C       18.66185188      25.68418694      14.12895489
O       19.81776810      25.98370552      13.30089188
C       19.97592163      25.07732010      12.21586704
H       17.13509560      28.85716248      15.92039013
H       18.87099075      29.30030060      16.13259125
H       17.90584946      29.97048569      14.77072525
H       19.38631058      26.77844429      15.90691280
H       17.61207962      26.61491585      15.78397751
H       17.74491882      25.63342094      13.51276302
H       18.80431366      24.70836639      14.62634659
H       20.95632935      25.23800278      11.75148392
H       19.91094017      24.02463722      12.54712677
H       19.19806290      25.21626663      11.44275475
C       14.68769741       5.97385168      25.21219635
O       13.39694214       6.19800425      24.63400078
C       12.37641239       6.31409931      25.63574982
C       11.19013214       7.05741358      25.04207230
O       10.86760521       6.47722340      23.77919006
C        9.84672642       7.19367743      23.09061241
H       14.93990231       6.75445318      25.94599915
H       14.72894955       4.98363733      25.70640755
H       15.40082932       5.98781061      24.37151146
H       12.08550453       5.30671024      25.98955345
H       12.73651123       6.89238119      26.50564384
H       11.45838737       8.11575222      24.90270805
H       10.32227325       7.02825499      25.72920418
H        9.66413212       6.68764305      22.12902832
H        8.89602089       7.18107605      23.65116692
H       10.14619160       8.24273300      22.92847061
C       11.70342541      13.58068562      13.77667332
O       11.14176083      12.60783482      12.91168499
C       11.90119267      11.41054726      12.93478584
C       11.01246738      10.24848938      12.52034760
O       10.78177643      10.26063633      11.10062218
C        9.64725208       9.50271130      10.70886898
H       11.65867329      13.25381184      14.83859348
H       12.76881981      13.78067970      13.53009415
H       11.13047123      14.51833439      13.70758438
H       12.78362083      11.50720119      12.25957966
H       12.30574036      11.21594429      13.95571232
H       10.04076958      10.35462761      13.04727936
H       11.46054935       9.28268242      12.81068707
H        9.35899067       9.76967430       9.68295479
H        9.80075550       8.41127682      10.76820755
H        8.76757717       9.70637226      11.34629059
C       26.48013496      28.67054367      18.69070244
O       26.28277016      27.27643394      18.50577545
C       27.25006676      26.51255035      19.26343346
C       26.91800880      25.04677200      18.99219894
O       27.90521812      24.49934769      18.08706093
C       27.56813622      23.15222931      17.74758339
H       26.34087944      28.96914482      19.74304199
H       27.49241829      28.96881866      18.35934067
H       25.70962143      29.17950439      18.08985329
H       28.27162170      26.74301720      18.90359497
H       27.16743851      26.77497673      20.33685303
H       25.91084099      24.97343254      18.53435516
H       26.90284920      24.47532272      19.93872833
H       28.36566925      22.71379471      17.13367081
H       27.42170334      22.53633881      18.65530205
H       26.62918854      23.12581062      17.16144943
C       17.78131866      19.56657410      16.64029121
O       17.05335999      20.55980873      17.36711884
C       16.36042404      20.08651924      18.53610992
C       15.47705460      21.23863029      19.02188301
O       14.11120319      20.82177734      18.83321953
C       13.23274040      21.92936134      18.63757515
H       18.60660553      19.14598656      17.23725510
H       17.10484505      18.74693871      16.32534599
H       18.17278671      20.03019524      15.71878338
H       15.73091125      19.22274590      18.26577187
H       17.05606651      19.76657104      19.33077240
H       15.67108917      22.14961433      18.42410469
H       15.65659428      21.48556137      20.08750153
H       12.20391941      21.54436302      18.54036713
H       13.25570774      22.65219307      19.48309708
H       13.45657921      22.44494057      17.68946838
C       13.21835613      27.22813988      19.38912010
O       14.54363251      27.25976753      19.89070702
C       15.37743092      26.31215286      19.21644592
C       16.78328133      26.48578453      19.79588699
O       16.80070114      26.09252739      21.18188477
C       18.06877708      26.41090202      21.74451065
H       13.18064880      27.58142471      18.34252357
H       12.79570198      26.20847511      19.40435410
H       12.57697201      27.86381721      20.01260948
H       15.00268745      25.27723503      19.35285568
H       15.40080833      26.51005745      18.12093353
H       17.09616280      27.54198074      19.69994736
H       17.47823715      25.84904099      19.20696449
H       18.08695793      26.05482483      22.78618431
H       18.88848686      25.92441750      21.17877769
H       18.25717354      27.49809074      21.71448708
C       22.43456459      22.05728340       5.75573158
O       23.76660538      21.59485435       5.83654881
C       24.65435219      22.50316811       6.50257397
C       26.03423500      21.86282349       6.40432549
O       26.48005295      21.96782303       5.04165936
C       27.77669525      21.40025711       4.85524559
H       21.95193672      22.08017921       6.75550365
H       22.38148308      23.06472588       5.31261683
H       21.85475731      21.36355209       5.13481426
H       24.64287567      23.48696899       5.99106741
H       24.37273979      22.65862274       7.55993652
H       26.01971245      20.80389977       6.71317005
H       26.70972252      22.40770149       7.08780289
H       28.09488297      21.63310242       3.82711315
H       28.50951576      21.84685326       5.54996729
H       27.79066467      20.30857468       4.99431038
C       19.66391754      14.01033497      20.19426155
O       20.96182442      13.43994045      19.91190338
C       21.12549973      13.31909466      18.47344971
C       22.50005913      12.73344898      18.17498970
O       22.65864754      11.54508305      18.92829704
C       24.03514671      11.15155506      18.93685722
H       19.57212067      15.02372646      19.77162552
H       18.87676239      13.39641476      19.72411156
H       19.49954796      14.02747536      21.28027153
H       20.33157158      12.69087219      18.04625893
H       21.01760483      14.31150055      18.00745583
H       23.29248619      13.45908451      18.46158981
H       22.62149811      12.55600643      17.08796692
H       24.09333801      10.16385651      19.40834045
H       24.43112946      11.06320477      17.90930939
H       24.65599823      11.85884666      19.51170158
C        7.91529417       3.09335351      17.72373009
O        6.86271906       4.05552340      17.87138748
C        5.67151928       3.49614906      18.47535515
C        4.58228016       4.57955360      18.46348190
O        3.88269258       4.44345856      17.21786880
C        2.63961148       5.12694979      17.19295883
H        8.24755573       2.71106791      18.70754814
H        7.59584188       2.23864245      17.10327721
H        8.76669693       3.60231304      17.23759651
H        5.35569620       2.61183500      17.89667130
H        5.88483334       3.20265484      19.51849556
H        5.02605295       5.58732605      18.55188370
H        3.87389612       4.44546509      19.30010033
H        2.14694405       4.88311005      16.24086571
H        2.00142217       4.80220366      18.03492546
H        2.76922441       6.22058105      17.25315475
C        3.52948451      15.06207085       0.51679468
O        3.44164777      16.18767548       1.39366364
C        2.14720893      16.40238762       1.96682096
C        2.05396032      17.84218597       2.47221971
O        2.04899693      18.68128204       1.31448650
C        1.71078241      20.02175713       1.62003577
H        3.11366057      14.15890884       0.98944324
H        3.00970531      15.25401688      -0.43640271
H        4.59312868      14.88756943       0.30791754
H        1.34951448      16.19866753       1.22995245
H        1.97945487      15.73839760       2.83582044
H        2.90815449      18.10426903       3.13172603
H        1.11507726      17.97267151       3.04641867
H        1.67946124      20.57730293       0.66948193
H        0.70004880      20.07573891       2.08356118
H        2.43627214      20.49948120       2.30067277
C       22.16627693       6.42387724       1.79819942
O       20.92115402       6.98488474       2.22223854
C       20.51767349       6.56544733       3.52988815
C       18.99363518       6.43726444       3.52115607
O       18.73023224       5.29416227       2.70251489
C       17.40225220       4.82934475       2.80950665
H       23.01280403       6.79341888       2.40410185
H       22.15001678       5.31715250       1.83948135
H       22.30597687       6.70945024       0.74780554
H       20.97342110       5.59250736       3.77477169
H       20.80988121       7.32157564       4.28321505
H       18.49807739       7.33742857       3.10001016
H       18.59913063       6.29952383       4.54762268
H       17.30904770       3.90453768       2.22684741
H       17.09609222       4.60427713       3.84924459
H       16.69366646       5.57534456       2.39466166
C        8.70786476      18.72279549       7.38401699
O        8.69797325      18.11213493       6.10615396
C        8.71411991      16.66979790       6.11873484
C        7.79960251      16.15631485       4.99078846
O        8.52276421      16.01041603       3.74662542
C        7.70985889      15.46471596       2.71595860
H        7.92136431      18.31548309       8.05635357
H        9.67670727      18.60145950       7.90004396
H        8.49497795      19.79623795       7.24402905
H        9.74961376      16.27760506       6.04444885
H        8.32506943      16.31945038       7.09622192
H        6.96684027      16.87565804       4.83743906
H        7.37203121      15.17718887       5.27327824
H        8.30939293      15.40303421       1.79652739
H        7.35665226      14.44597721       2.97339082
H        6.82381582      16.10001945       2.53060484
C       28.46921158      29.39641953      29.22431374
O       28.18801117      29.21332359      27.84650040
C       28.34753609      27.85795593      27.37896347
C       27.87377548      27.82264328      25.93338776
O       28.83673477      28.48030281      25.09299660
C       28.34524345      28.55969810      23.75636101
H       27.66156197      28.98478508      29.85408211
H       29.40816498      28.90589523      29.53200340
H       28.53187943      30.47793961      29.41011047
H       29.39551735      27.53233528      27.47469521
H       27.72483635      27.16072845      27.96688461
H       26.89587402      28.34560013      25.86230469
H       27.70745087      26.78923798      25.57122231
H       29.11746597      29.02242279      23.12371826
H       28.08627319      27.56571960      23.35113335
H       27.41842270      29.16210938      23.72143364
C        9.46618652      22.24127197      26.38214493
O       10.10117912      22.96984863      25.34020615
C       11.49962616      22.67316818      25.25317192
C       11.98271656      23.06297874      23.86300850
O       11.59589386      24.41057014      23.60305023
C       12.07409763      24.77843475      22.30543518
H        9.67404079      21.16092110      26.30490303
H        9.76014137      22.59037018      27.38712692
H        8.37881088      22.36879921      26.27449608
H       12.03084183      23.20631218      26.05937004
H       11.67793179      21.58846855      25.36030579
H       11.51873875      22.38969421      23.10166550
H       13.09035873      22.95280838      23.82836342
H       11.77232742      25.82058716      22.12204933
H       13.17673779      24.70448875      22.24323273
H       11.63459873      24.14825439      21.51133919
C       27.33207321      12.23416901       0.58043849
O       26.99267197      12.21324635       1.96227610
C       27.74172974      11.18224525       2.63881946
C       27.55888367      11.38827038       4.13377094
O       26.18928909      11.45084953       4.53034878
C       26.14767647      11.47642994       5.95413637
H       28.42817497      12.26065540       0.41811398
H       26.97299385      11.29998016       0.08964425
H       26.87980461      13.11591434       0.10449222
H       27.41188049      10.18762970       2.28261399
H       28.82264137      11.27896404       2.40946746
H       28.06305695      12.31090736       4.48099804
H       28.03658104      10.52034283       4.62666416
H       25.09680367      11.44324112       6.27931356
H       26.62837982      10.57649422       6.37660265
H       26.61216164      12.39184284       6.36363792
C       16.24695206      20.38889694      23.22037888
O       17.06515503      20.89813423      22.15968132
C       17.46004486      22.26855087      22.39952087
C       18.54888344      22.60382080      21.39623070
O       18.04830742      22.31848145      20.07902336
C       18.97572517      22.74630928      19.07354355
H       16.70755768      20.54290581      24.21424294
H       15.24895668      20.87259865      23.23674011
H       16.09929466      19.31250381      23.04470253
H       16.57970428      22.93257141      22.30080605
H       17.85056114      22.38339043      23.42611885
H       19.45789719      21.99883080      21.57754326
H       18.79148102      23.67740440      21.51428604
H       18.58215714      22.41584969      18.09822464
H       19.06721497      23.84590530      19.09501076
H       19.97005844      22.28818512      19.22301292
C       22.77257156      30.36997795       9.31158066
O       22.27452087      30.50594902       7.96448231
C       23.27867317      31.00001335       7.04045486
C       22.82480049      30.65713692       5.61920643
O       21.60874176      31.38175011       5.38694429
C       20.87580299      30.88483047       4.26673889
H       23.67707634      29.74236679       9.31568623
H       22.98803139      31.35162354       9.76586437
H       21.98277855      29.86804008       9.89125443
H       23.42594719      32.07965469       7.19669533
H       24.23004341      30.47631645       7.23753405
H       22.67256355      29.57287788       5.50700712
H       23.59622192      30.96882820       4.88818645
H       20.08924675      31.61255836       4.02664661
H       21.52453613      30.71023750       3.38852310
H       20.40214729      29.91672897       4.50994205
C        8.90859318      19.05791092       0.59528714
O        9.65756798      18.99583054       1.79153967
C       10.07273102      20.24367714       2.31209540
C       10.74756145      19.93134117       3.64500403
O       11.87261391      19.09211540       3.38269687
C       12.46652794      18.74655151       4.62232733
H        7.99862671      19.67099380       0.72313303
H        9.48080826      19.46146774      -0.26267320
H        8.59809303      18.03866005       0.34193715
H       10.76593399      20.74069214       1.60260308
H        9.20030880      20.90456963       2.49343944
H       10.02204990      19.42325592       4.31032848
H       11.07370281      20.86466408       4.15378714
H       13.24185848      17.98098755       4.45801115
H       12.93586540      19.62199402       5.12188196
H       11.72203636      18.32086182       5.31951284
C       13.02444267       1.37018490      25.76616096
O       13.00318146       2.15036702      24.57736206
C       11.67365265       2.57641315      24.25127411
C       11.76678467       3.49480128      23.03400803
O       11.20358372       2.77189064      21.90703201
C       11.61227703       3.26398945      20.61929703
H       12.55404854       1.93294013      26.59934998
H       12.46044540       0.42828614      25.64286995
H       14.07365894       1.15836871      26.01922607
H       11.05815601       1.69827628      23.98570061
H       11.18655205       3.06957269      25.11203003
H       12.82637882       3.75421667      22.85262489
H       11.22207451       4.43655634      23.19956207
H       11.49544907       2.45751143      19.88510513
H       10.98930836       4.12124586      20.31978416
H       12.66892147       3.57129121      20.64521217
C       24.26127052      20.46592903      20.76866722
O       23.35808563      21.42599869      20.21351051
C       24.09767342      22.25318909      19.30092239
C       23.15384674      23.26726151      18.67147255
O       22.53197861      24.02776337      19.71204376
C       21.74788284      25.09070587      19.17018700
H       24.79855728      19.90624428      19.97812653
H       25.00187111      20.93446922      21.44103050
H       23.62417030      19.76359940      21.32454872
H       24.92255592      22.75710297      19.83660126
H       24.54009247      21.63667870      18.49355125
H       22.37982368      22.75149536      18.06679153
H       23.74029160      23.92581749      18.00110435
H       21.30511093      25.64089394      20.01277161
H       22.35213470      25.74768829      18.52191734
H       20.90783119      24.70589828      18.55950737
C       27.94570923      28.14939880      11.34513569
O       28.28481865      28.52558136      12.66817760
C       28.99803543      29.75697136      12.70975780
C       29.22970581      30.12129021      14.18279457
O       30.02032089      29.08873367      14.77075481
C       30.20980835      29.30996704      16.15234756
H       27.32129478      28.92932701      10.86610794
H       28.84616661      27.98457718      10.72399807
H       27.37781143      27.21010208      11.40076447
H       29.96380043      29.65692139      12.17564869
H       28.41381264      30.56889343      12.23166561
H       28.25919342      30.19792366      14.71210384
H       29.76375961      31.08895683      14.27147293
H       30.73989105      28.43187141      16.56111145
H       30.79265404      30.23000336      16.36227608
H       29.23580551      29.37496567      16.67551231
C       12.05489635      15.38922691      17.07468987
O       11.16832542      15.42405605      18.19639778
C       10.47842979      14.17547512      18.36912727
C        9.17446804      14.48420715      19.14405441
O        8.06082439      14.10742664      18.31590271
C        6.86552906      14.48325157      18.99408531
H       12.94908524      14.75897217      17.24502563
H       11.53967857      14.99786949      16.17599487
H       12.36719608      16.42085075      16.84370041
H       10.21711731      13.72008610      17.38977432
H       11.13470173      13.46500778      18.91987038
H        9.10693455      15.56159973      19.40732956
H        9.10970879      13.94485664      20.11376381
H        6.03826141      14.49900055      18.26513672
H        6.58918619      13.73760223      19.76805305
H        6.92320585      15.47634315      19.48148155
C       19.10241127       4.55030584      22.78658104
O       18.68853760       3.48809695      23.64160347
C       17.40827179       3.79386139      24.19505119
C       17.13465118       2.84858751      25.35968399
O       17.63064194       3.47155118      26.55773163
C       17.49196434       2.63737297      27.70680809
H       18.38600540       4.71041536      21.95933151
H       19.19127655       5.49873114      23.35139656
H       20.08194733       4.28033972      22.35640717
H       17.36801720       4.83017206      24.57700157
H       16.62240028       3.70894575      23.41530228
H       17.64562035       1.88329506      25.18723488
H       16.05048943       2.67783761      25.46237373
H       17.97012329       3.13748121      28.55894661
H       16.42378235       2.47468376      27.93076324
H       17.95873642       1.65070820      27.54155159
C       13.73784733      24.72195053      16.50781631
O       14.48466682      23.69232559      15.87551975
C       15.89019299      23.85940933      16.00697136
C       16.49615097      22.70446777      15.19498539
O       16.50944901      23.16632462      13.83852005
C       16.96526527      22.18137932      12.91835690
H       13.55970287      24.51837730      17.58333588
H       14.22550678      25.70482826      16.38544655
H       12.74871922      24.73905754      16.02384758
H       16.16555595      24.84025574      15.56979370
H       16.19552040      23.84520149      17.07507324
H       15.86956501      21.80413246      15.31032658
H       17.52017021      22.48514938      15.55332756
H       17.08845329      22.63659286      11.92612553
H       17.92966080      21.74878693      13.24779224
H       16.22939873      21.36343575      12.83827305
C       25.59916496      24.93889618      30.31891251
O       26.99859238      25.14171982      30.14099884
C       27.58209991      25.77293205      31.28230286
C       29.10614014      25.66732216      31.19249153
O       29.56230354      26.24082565      29.95641708
C       30.99005699      26.20077324      29.94267464
H       25.37789345      24.43716240      31.27888107
H       25.04116440      25.89117241      30.28563690
H       25.22939491      24.30605698      29.49958229
H       27.26618195      26.83540344      31.34053993
H       27.24950409      25.27738762      32.21213531
H       29.43630791      24.60393143      31.21912766
H       29.54904366      26.20791245      32.05025482
H       31.32990646      26.64592743      28.99477196
H       31.42457581      26.76317215      30.79079247
H       31.36053276      25.15926170      29.99004364
C       18.23479843      11.05788326      17.29230499
O       16.83373070      10.85226059      17.12202263
C       16.35593796      11.63207436      16.00966072
C       14.85183048      11.41073895      15.87201309
O       14.19928074      11.88681316      17.05973816
C       12.84790611      11.45587349      17.13623047
H       18.82192421      10.51015377      16.52676964
H       18.47787094      12.13471222      17.19294357
H       18.52190590      10.70671272      18.30092812
H       16.59984016      12.70286655      16.16779900
H       16.82745361      11.29393768      15.06042576
H       14.64445877      10.33338547      15.71529293
H       14.45242405      11.93723011      14.97837925
H       12.42249775      11.79601192      18.09490013
H       12.23730469      11.88503933      16.31207466
H       12.75835705      10.34757996      17.07900047
C        3.98390126      16.05037689      26.91690254
O        4.61326408      15.05706120      26.12738037
C        5.93669844      15.44561863      25.69760895
C        6.53226519      14.26532650      24.92802811
O        5.71333694      14.03302097      23.78558922
C        6.28640223      13.21489239      22.76047897
H        4.65659094      16.36454201      27.73442459
H        3.71826530      16.92731094      26.29605865
H        3.07649565      15.60347939      27.34235191
H        5.84558773      16.31576920      25.02389908
H        6.54706717      15.70828342      26.57511139
H        6.60013199      13.37159920      25.56808281
H        7.55548811      14.53071690      24.60741043
H        5.71812248      13.37028694      21.83600235
H        7.33764887      13.49115467      22.57723999
H        6.24795818      12.14787292      23.01337051
C       26.75744820      22.61667824      14.18441772
O       28.05639839      23.14743614      14.41125298
C       29.03498459      22.91534042      13.38257694
C       29.85955620      24.20007324      13.31745434
O       30.37321663      24.40797806      14.62959480
C       31.36411285      25.41220665      14.69218159
H       26.44773865      22.73778915      13.13125992
H       26.68667412      21.55170631      14.47270393
H       26.05469704      23.17835999      14.81689548
H       29.67463112      22.05476189      13.65062332
H       28.55273247      22.71062279      12.41142654
H       29.19009018      25.02893829      13.02454567
H       30.67022896      24.08816338      12.56834221
H       31.78193665      25.41725349      15.71234608
H       32.17443848      25.21389198      13.97117138
H       30.93293190      26.40530586      14.47509766
C       13.53660679      25.64366722      26.00214195
O       12.23043537      25.81001282      26.55709839
C       11.52678490      26.85879517      25.88593292
C       10.05157089      26.76461029      26.28799057
O       10.00679302      26.94533920      27.71065331
C        8.73887539      26.76774788      28.30500412
H       13.46243382      25.41777229      24.92003632
H       14.14230251      26.55370903      26.14404297
H       13.97748089      24.77363205      26.52000046
H       11.95518303      27.82821655      26.19668198
H       11.60132217      26.73770142      24.78834915
H        9.66951656      25.77597618      25.99284744
H        9.45456886      27.53707314      25.77202797
H        8.89339066      26.64905548      29.38921738
H        8.07690620      27.63427544      28.11583328
H        8.25081635      25.85369873      27.92879105
C        1.61610532      29.14758682       3.90098357
O        2.85308480      28.93191528       4.52783012
C        2.98618245      29.56954956       5.80093861
C        4.36463261      29.19261169       6.32124043
O        5.29990053      29.64205360       5.31149387
C        6.59989929      29.04914093       5.47743940
H        0.78572953      28.76673317       4.52092457
H        1.45208228      30.22592545       3.71010590
H        1.60930204      28.60041428       2.94671249
H        2.87021351      30.66849136       5.70037079
H        2.21020222      29.22512245       6.50288057
H        4.44741964      28.10510254       6.43579006
H        4.59272337      29.64324951       7.29754162
H        7.27204323      29.50474358       4.72262287
H        6.98313904      29.22261238       6.49137115
H        6.55522728      27.96544456       5.29084206
C       10.25302505      11.78091717      21.35007286
O       10.56936359      10.48749256      20.84307861
C        9.83857918      10.18645954      19.65804863
C       10.15184307       8.73745441      19.28920174
O        8.88367081       8.09827614      19.03066635
C        8.92137241       6.66286802      19.08127975
H       10.69161415      12.54666710      20.68978500
H        9.15952396      11.94241905      21.40833282
H       10.66726208      11.89667320      22.35987282
H        8.74688530      10.32295895      19.78447151
H       10.13905621      10.86364269      18.83131790
H       10.69163036       8.26312923      20.12865829
H       10.80266666       8.65715027      18.39541245
H        7.89724016       6.29119968      19.23849678
H        9.29459572       6.22317839      18.13968849
H        9.58174419       6.33362198      19.90238571
C        3.87519479      23.06634140      15.75039101
O        4.88002586      22.42079735      16.50088501
C        6.16828632      22.67188644      15.92661095
C        7.18568468      21.80575180      16.67333794
O        6.83638525      20.43328857      16.51346016
C        7.77185535      19.58619881      17.16622925
H        4.05922318      24.15427017      15.68870354
H        3.83078647      22.66084480      14.72075939
H        2.90809655      22.88308334      16.23333549
H        6.15337467      22.39106941      14.84927750
H        6.42669868      23.73678780      16.02964020
H        7.23974657      22.08258057      17.74291992
H        8.18406582      21.96733284      16.21321297
H        7.42925310      18.56227875      16.96061325
H        8.80167484      19.70689392      16.75685692
H        7.79545546      19.74443245      18.25509453
C       11.02136326       6.93348980      14.34650326
O       12.21212006       7.37751627      13.71924400
C       13.21319008       7.81411982      14.66020298
C       14.43586731       8.20140266      13.84205532
O       14.12482834       9.40001392      13.13693810
C       15.30635357       9.76193523      12.38439655
H       11.19335461       6.04512167      14.99018574
H       10.57103348       7.74212408      14.96339512
H       10.27862358       6.69495010      13.57056904
H       12.81146717       8.65915871      15.26522636
H       13.45812702       6.97579479      15.34734631
H       14.69424343       7.41051197      13.10779190
H       15.29791260       8.36626244      14.52520752
H       15.03547192      10.58420658      11.71010494
H       16.11795998      10.10602283      13.05454254
H       15.68761158       8.90674877      11.79184818
C       24.12177467      19.09745789      16.61312485
O       23.31916809      18.94381142      17.79012489
C       22.17918015      18.12659264      17.48585701
C       21.37388039      18.02310181      18.78545761
O       20.45858192      19.13175774      18.86705208
C       19.73802567      19.05786133      20.09777641
H       24.40394974      18.12199211      16.17701340
H       23.57663727      19.65877914      15.83024311
H       25.03293800      19.63987160      16.90587807
H       21.56098175      18.58710289      16.68870735
H       22.49098015      17.12095070      17.13199425
H       22.04981232      18.05966568      19.66202927
H       20.78722000      17.08788300      18.80107880
H       18.99940681      19.87885857      20.14479256
H       19.17837715      18.10585213      20.17156982
H       20.41787529      19.13962746      20.96713257
C       26.08467293      20.74977684      31.61879539
O       25.22215080      19.65152550      31.34975815
C       24.35940742      19.98486710      30.27667618
C       23.27079391      18.92216873      30.09942055
O       22.41341591      19.05111694      31.25374603
C       21.09209251      18.57866096      31.07021523
H       26.65703583      21.03949547      30.71466637
H       25.51045609      21.63717270      31.94382668
H       26.77831078      20.47471809      32.42712402
H       23.85909462      20.95474815      30.45680618
H       24.91828346      20.05523300      29.31933403
H       23.69004631      17.89978981      30.02113724
H       22.71030045      19.13976669      29.17207527
H       20.45073700      18.93574905      31.88600159
H       20.66025162      18.90349388      30.10314941
H       21.05194283      17.46812057      31.11794853
