1506
Lattice="31.6299991607666 0.0 0.0 0.0 31.6299991607666 0.0 0.0 0.0 31.6299991607666" Properties=species:S:1:pos:R:3 pbc="T T T"
Na      22.26152992       6.88983631      15.46982098
Na      29.58959579       8.98759365      17.20125389
Na      14.64901352      21.26401138      29.23095703
Na      14.64453411      11.30486774       8.33001328
Na      22.06154251      20.89401054      23.91596031
Na      16.68743515      22.54597855      25.54217148
Na       8.90298557       6.35418081       6.71068907
Na      18.57252312      18.96484947      10.85665321
Na      20.20306969      12.00031662      23.39990425
Na      17.42936325       5.91094685      15.06402588
Na      15.64875317       9.17177486      16.99443817
Na       3.91217232      17.37087631       9.66636562
Na      27.12770271       6.51472569       6.25903368
Na      12.57946587      25.27116776      24.56942749
Na      16.53694725      25.88872147       8.51584435
Na      27.75660324      23.66277504      14.26137924
Na      24.60031509      17.89228249       4.45419931
Na      16.37803078      17.27577972      28.34462166
Na       6.31549549      10.39440346       8.50967216
Na      20.02389717      18.81718636      26.14229774
Na       2.90387321       1.02549732      29.11576843
Na      17.44187355      13.85882473      18.52048683
Na      20.07123375      27.37048149      27.01094627
Na      17.59205437       4.73266888      21.47753143
Na       6.95229816      16.65041161       4.64268589
Na      16.48691177      12.81268597       3.43059206
Na       7.90590715      28.57222366      15.98151875
Na       6.22709227      13.93891144      27.61420250
Na      26.41745567      11.94088268      29.07179260
Na      18.60741997       0.96064979      13.04397774
Na      27.76333237      27.72269630      25.05924988
Na      23.07444954      14.85471725      24.23189354
Na      20.03945732      16.55720520       5.36035061
Na       6.70288515      11.37804031      19.11946487
Na      22.01170921      -1.40270281      15.97202969
Na      16.73219681      29.34724617       3.86897302
Na       3.21259069       7.06079960      16.64999199
Na       0.84657991      21.33753586       1.87330592
Na       7.32073212       0.91150707      30.53685760
Na      25.77300262      17.75644493      24.39146996
Na       0.28896815      16.58130455      28.47613716
Na      26.77013969      10.70128155      25.11371994
Na      19.11513138      31.41841507       3.55100036
Na      31.30087090       7.89245558       4.59904003
Na       7.01038647      13.16470814       7.08942509
Na      24.62566757       8.94018841      26.83228302
Na      17.39326859       2.56858969      28.03679657
Na      13.09903717      23.44976234       5.14532995
Na      16.52399063       3.78978205      12.28168583
Na       2.12369251      10.74621582      18.06957054
Na      17.11423111      19.04691315      31.05731392
Na      27.23695564       5.52284050      10.49686813
Na      26.15208817      28.10449409      15.30165291
Na       4.42425489       2.16286278       0.57041007
Na      20.00707817      29.04175568       1.90730047
Na      29.01909828       3.13215137      30.26099968
Na      16.53430176      21.99790382      31.61247063
Na      16.32946968      15.54606152      12.17031765
Na      22.09322166       4.06144667      11.88301086
Na      19.60440826       9.82045937      13.20908356
Na      30.98820305       8.68201733      12.85392570
Na       8.19401932       1.09692526       8.18354511
Na      30.73960114       4.08109856      19.09531403
Na       0.91270846      14.53822041      30.66054726
Na      11.97933388       4.99649429       3.08358765
Na       5.59392977       2.62572598      26.59849739
Na      25.61396790       8.21437931      12.25925159
Na       5.22545052      21.25317001      30.30950546
Na      23.95727921       5.01825047      20.54428864
Na       2.39448237      12.24815369      24.98114777
Na      30.39051819      13.95207310      26.90821075
Na      21.29763985      30.40360641      23.36122131
Na      11.09659195       9.78584957       6.52556324
Na      17.41875458      13.99304771       7.93201494
Na       5.21604776      14.67325497      12.15446758
Na      24.70269966      13.67760563       9.00881100
Na      24.56291389      28.11913681      23.85274887
Na      12.79331589       5.82854319      17.35239029
Na      20.10585213      24.17927361      14.56207848
Na       8.59481144      16.23503113       0.29974082
Na      25.05397224       4.64112425      14.42042828
Na       4.43611383      23.83876038      24.55473137
Na       8.70909691      11.92308521       1.71480620
Na      25.82053375      24.63668823      17.63550186
O       14.34382343      24.24531174      18.23630905
S       14.68095684      25.46447945      17.52795982
O       13.70814896      25.98757553      16.57922554
N       16.21040344      25.60701180      17.07874298
S       16.78825378      24.67951393      15.94012833
O       16.32645798      23.30652237      15.93676853
O       18.21587753      24.84246826      15.83512306
F       16.24196243      25.32289124      14.57883358
F       14.71213722      26.57366943      18.67868805
O        9.97178555      25.49112892      15.84016514
S        9.06153584      25.86737442      14.79667282
O        7.71883488      26.25176048      15.20726585
N        9.20586777      25.12732887      13.42034817
S        8.60418034      23.72235489      13.01747131
O        8.88140678      22.62787437      13.92282772
O        8.86180210      23.45441055      11.61735630
F        7.03278255      23.92563629      13.08928299
F        9.68122196      27.27118301      14.35704708
O       26.19944763      15.56727123      22.79060364
S       27.41916466      15.84633732      22.02659798
O       28.18658257      16.96681023      22.52750397
N       27.27862740      15.69613457      20.48648453
S       25.90173149      15.82457256      19.68360901
O       24.69067574      15.49613285      20.42235756
O       26.07394791      15.27574539      18.36239052
F       25.79235268      17.38148880      19.47141838
F       28.36726379      14.62886143      22.34880829
O        7.64916992      30.63181114      17.39891434
S        6.64648533      30.38340569      18.44974327
O        6.78436232      31.21745491      19.62737274
N        6.32595301      28.85730934      18.74290276
S        7.47511339      27.87902451      19.24680710
O        8.71895409      27.85268402      18.47507477
O        6.89112902      26.62445641      19.68632889
F        7.95300579      28.50588799      20.64333916
F        5.29240561      30.78030777      17.77445221
O       18.54027557      17.19535255      16.73874283
S       19.33544159      17.40091705      17.93620110
O       20.47149086      18.28820038      17.91069031
N       19.66947746      16.06994057      18.77821350
S       20.81905937      15.16916180      18.13872910
O       20.61740303      14.84748840      16.73293114
O       21.05107117      14.03843594      19.01769257
F       22.16630173      15.99019146      18.21684647
F       18.33166695      18.08935928      18.92902374
O       12.62712097       4.21076393       7.40482140
S       13.84116650       4.75626612       6.81343460
O       15.00237274       4.91216946       7.66713572
N       13.56384754       6.04579496       5.94861555
S       12.98274040       7.36119986       6.51647139
O       11.67150784       7.25159550       7.13897610
O       13.09491539       8.43168163       5.53483582
F       13.96248055       7.83303881       7.65625906
F       14.29394054       3.81464458       5.64033651
O       26.95348549      16.13378143      11.06961918
S       25.99863434      15.67234898      12.05070019
O       25.26264572      16.62887001      12.83878708
N       26.37280273      14.33984947      12.84593201
S       27.35208511      14.41834641      14.09335995
O       28.58638191      15.14081383      13.89887238
O       27.41674232      13.11463070      14.72699547
F       26.54958916      15.28064728      15.19145107
F       24.83263397      15.05216789      11.11483097
O       20.25087357      24.42274666       6.10587549
S       19.76869202      24.28263474       7.46493626
O       18.32853508      24.42093086       7.64380169
N       20.61322975      25.07397842       8.52329445
S       20.15581894      26.36524200       9.26779842
O       19.64749718      27.42893410       8.39819050
O       21.14641762      26.73760605      10.25901508
F       18.89954948      26.04922104      10.20001507
F       20.14577675      22.82954597       7.85532522
O       29.96298409      19.97096825      10.87867641
S       30.46224022      19.40400124      12.12213993
O       29.60401535      18.46067619      12.80476093
N       31.16934204      20.44490051      13.12303734
S       30.41160774      21.80024338      13.40409660
O       29.96918869      22.55074883      12.24597073
O       30.96541405      22.55209160      14.49588585
F       29.02082253      21.26195717      14.03913975
F       31.73016548      18.57241058      11.71648312
O        3.81339121      22.47228050      11.16365623
S        2.60027409      21.86355591      11.67320251
O        1.36137557      22.57723236      11.39406776
N        2.71493936      21.20556641      13.13455009
S        3.12986898      22.09320068      14.40056705
O        4.29162741      22.93839645      14.24782181
O        3.05970240      21.25688171      15.58236408
F        1.93659234      23.11592674      14.56758595
F        2.46429443      20.52453995      10.84726429
O       29.57808304       8.40695095       6.09230089
S       30.09747696       9.48483276       6.94656134
O       31.52002716       9.41314411       7.20019102
N       29.20191956       9.84546947       8.16937160
S       28.76538849       8.98920345       9.36531925
O       28.43332481       7.61522198       9.01218891
O       27.90510750       9.70253468      10.26567841
F       30.15143013       8.76593781      10.14408493
F       29.88754845      10.76409435       6.10106325
O       26.32745934      19.36482811      21.65649033
S       24.95578575      19.79948425      21.55279922
O       24.50331879      20.39595222      20.31881714
N       24.40734482      20.48957634      22.91808891
S       24.85143852      21.91277695      23.38698959
O       26.26300240      22.11233711      23.63680077
O       23.91740799      22.44537926      24.36058235
F       24.59384918      22.84613991      22.09724236
F       24.12178802      18.47675133      21.72812843
O       21.19360161      18.14833641       6.20177698
S       21.12750244      19.60634613       6.13453341
O       21.37773514      20.24716187       7.39655399
N       20.00375557      20.13606262       5.20846510
S       18.46508217      20.11925125       5.46673059
O       18.09022713      19.32882118       6.62573862
O       17.73366928      19.93575859       4.22697687
F       18.18144798      21.61234856       5.86641932
F       22.35509300      19.93625259       5.22124577
O        4.69622755       7.17877245      24.76293373
S        6.05249643       7.53100872      24.40005875
O        6.17264557       8.36613846      23.20359039
N        7.18060970       6.46521044      24.56748199
S        7.54085827       5.43875074      23.40602303
O        6.49670172       5.18502378      22.43757057
O        8.24841213       4.31846762      23.97889328
F        8.67201900       6.21992588      22.57098770
F        6.50815248       8.47329330      25.59897041
O       23.54015541      23.96722984      18.23446655
S       22.35685349      24.22362518      17.43180275
O       22.26813507      23.50141144      16.16111755
N       21.90236282      25.75258064      17.34037209
S       22.87676811      26.79587936      16.71743965
O       24.29009819      26.70657158      17.09537125
O       22.35983086      28.14947701      16.76305389
F       22.89633560      26.39337540      15.16556263
F       21.14870453      23.74504852      18.28464699
O       31.46767616      19.52249336      19.77867889
S       30.09057236      19.29424667      20.13251305
O       29.42565155      18.14411736      19.55335236
N       29.18184090      20.59890556      20.24957275
S       28.28289413      21.09750748      19.07173729
O       28.89170456      21.04631424      17.74863243
O       27.62960243      22.34242058      19.42704773
F       27.12055969      20.03553581      18.97041130
F       30.16640854      19.02729607      21.71100426
O       17.19229317      15.99465179      23.18802452
S       17.79825783      16.05350494      21.86725807
O       17.44053841      14.97417736      20.96050453
N       19.33634567      16.36863518      21.87274170
S       20.34868813      15.63408375      22.77381134
O       19.87971115      15.23209095      24.10341835
O       21.70108414      16.16866493      22.69387627
F       20.53208542      14.22043037      22.02589226
F       17.29827881      17.36629105      21.23053360
O        9.42968082      16.13024521       4.33235359
S       10.43263721      16.01554108       5.39299202
O       10.22993660      14.94974232       6.35724974
N       10.93960667      17.35443115       6.01637506
S        9.91448307      18.36436272       6.67836618
O        9.09911156      19.09390450       5.72892952
O       10.54987621      19.10628700       7.72711468
F        8.82953835      17.40765953       7.38844728
F       11.74079227      15.56249619       4.60745525
O       18.16372108      23.00849724      20.74309921
S       18.39157867      21.77875710      20.00776672
O       17.30915833      20.81884384      20.02729797
N       19.85529327      21.11318970      20.22008133
S       20.00661278      20.30027008      21.54163170
O       19.31619263      20.87733269      22.70226669
O       21.35705948      19.85876083      21.81652069
F       19.25535774      18.94083786      21.28802872
F       18.56195259      22.23022079      18.51604652
O       21.29138565       1.61735153      15.41777897
S       20.87813377       1.77767193      16.80041885
O       20.58376312       3.12562943      17.26138878
N       21.82199860       1.05962145      17.77658272
S       22.95423508       1.51381075      18.72767830
O       24.02807808       2.24809694      18.08035851
O       23.35094452       0.38937446      19.54414177
F       22.31427002       2.55951428      19.69902802
F       19.58364677       0.91881835      16.97537804
O       10.13209248       8.83465767       2.78706074
S        9.83392334       7.73822737       3.67623663
O       10.93776894       6.87353992       4.05332422
N        8.46069813       7.06602335       3.58243108
S        7.93240118       6.13831997       2.43372679
O        8.65626335       6.29001284       1.19558227
O        6.48908091       6.18081188       2.43327713
F        8.35332870       4.71918249       3.02482462
F        9.52407646       8.47417641       5.08851767
O       13.65010929      10.49714756      21.85458946
S       13.91616631      10.63229179      20.43260384
O       15.26868248      10.25323105      20.02442932
N       13.35702801      11.91432762      19.70864868
S       13.96854496      13.31760216      20.14824867
O       14.66473484      13.39192677      21.41874695
O       13.09468937      14.40242481      19.75248146
F       15.17825413      13.44239330      19.02583313
F       12.98826981       9.57025051      19.69333839
O       14.16667843      19.75515747       7.77299786
S       13.74710560      20.63418961       8.85802174
O       12.32394600      20.82717896       8.99468136
N       14.64433575      21.93067169       9.03072453
S       14.52224922      23.07800484       7.99522591
O       14.96167660      22.74526215       6.64603567
O       14.98309135      24.33869743       8.51421642
F       12.94929600      23.32152367       7.82040977
F       14.19731808      19.88420105      10.17583179
O       18.05867767       9.76830387       8.25430584
S       19.12070656      10.52403641       8.88621998
O       20.14948845       9.84978676       9.64094639
N       18.60831642      11.83365345       9.61731148
S       17.75565147      12.11378193      10.85889530
O       16.77542496      11.09369373      11.22340870
O       17.31190300      13.49165916      10.91152954
F       18.80373955      12.04903221      12.03433418
F       19.89409256      11.24419117       7.71913290
O       12.99984169      31.62580681      10.46991634
S       11.59045410      31.39448929      10.75467491
O       10.67927933      32.51585007      10.57533646
N       11.36174107      30.52107620      12.05290890
S       11.18215656      30.96431351      13.54164886
O       12.08708000      31.98303986      14.04450607
O       10.99296570      29.80616951      14.39466476
F        9.75395203      31.70894051      13.57563877
F       11.15018940      30.35797501       9.63465309
O        5.73934603      14.77696609       5.84639788
S        4.54577971      14.70786285       6.70730352
O        4.87591648      14.13436508       8.01640892
N        3.23159432      14.33612919       6.01716137
S        2.57557607      12.91818714       5.81233644
O        3.52174020      11.89003849       5.41816139
O        1.34685683      13.06011105       5.07869053
F        2.19625998      12.51804352       7.31792736
F        4.31357384      16.21886826       7.04474258
O       12.94200516       8.65604115      26.15852928
S       13.83956528       9.54240417      26.86451530
O       15.23527908       9.16227818      26.95886040
N       13.26860523      10.17265987      28.17735291
S       12.90501308       9.97043991      29.65384293
O       12.22098064       8.72476006      29.96818352
O       12.40466690      11.17052746      30.28978348
F       14.32538795       9.77446556      30.38093376
F       13.86309814      10.86412525      25.95520210
O        5.69626474      23.00409889      29.07743645
S        5.30495262      24.21212959      28.37288475
O        5.75685787      25.44215775      28.98030663
N        3.85039759      24.16446304      27.87321854
S        2.45242381      24.23879623      28.55214500
O        2.35503912      23.51331520      29.81396866
O        1.41208267      24.08547211      27.57237625
F        2.37813568      25.75708771      29.00190544
F        6.07591343      24.09189034      27.00131226
O       26.60830879       0.83708036       4.46832800
S       26.78363037       0.96595681       5.89298916
O       25.98912430       0.13315952       6.76817989
N       26.93919563       2.47058797       6.49198532
S       25.68490601       3.34205508       6.77746725
O       24.65117264       3.41451073       5.77162695
O       26.10635185       4.62026262       7.37700558
F       24.91805267       2.68996525       8.02595520
F       28.31845474       0.60166842       6.11200380
O       19.17972755      29.70120811      18.62480354
S       18.14014816      28.79583168      19.09426689
O       17.34592628      29.28550339      20.21469879
N       18.56882095      27.26337242      19.19224548
S       19.51845551      26.80992508      20.38558578
O       20.58684921      27.71865654      20.79121971
O       19.89797592      25.42385674      20.23912430
F       18.54197121      26.77498436      21.64943504
F       17.14894104      28.68421364      17.86813927
O       19.56055832      20.95283127      10.29957676
S       19.58480835      22.14756393      11.12393379
O       19.86787033      21.93277740      12.53433514
N       18.42038345      23.17846489      10.87677765
S       16.97873878      22.82325935      11.44319057
O       16.68420792      21.39808083      11.43784523
O       16.02835655      23.80692291      10.98917961
F       17.13956070      23.15757370      12.99686241
F       20.78297424      22.96402740      10.55179882
O        4.96655178      21.29542351       6.55703115
S        4.75786257      21.43804550       7.98936224
O        4.92146921      22.76282120       8.54854679
N        5.38162041      20.27656174       8.89958096
S        6.96121693      20.10983658       8.96224785
O        7.70793009      20.69115639       7.86132622
O        7.30206203      18.76699638       9.38001633
F        7.40683126      21.03359985      10.18089104
F        3.23366284      21.06153297       8.19501781
O       19.19803238      12.77617645      28.86044502
S       19.76296616      12.37421894      27.59449387
O       18.85573578      11.86958027      26.57902336
N       21.08708954      11.58637142      27.70633507
S       21.45026016      10.15703964      28.18768311
O       20.86132622       9.69588757      29.42388344
O       22.88196564       9.99009228      28.00789261
F       20.77616882       9.21162510      27.07176208
F       20.39420700      13.69363880      26.98046112
O       25.77319908      13.18899345      25.09785271
S       26.56725311      14.10873318      25.87864304
O       27.20924377      13.71046448      27.11539078
N       25.93782425      15.56536007      25.98327827
S       24.61283302      15.91836357      26.74856186
O       23.63959503      14.84136486      26.80269814
O       24.12758446      17.20436668      26.25681496
F       25.02408218      16.19964027      28.22587967
F       27.79252434      14.44403076      24.94917870
O       24.97855949       3.97653913       2.67019272
S       26.02512932       3.30612803       1.94869411
O       26.03715324       1.86409807       1.84543288
N       27.47329712       3.88249493       2.22119260
S       28.43556786       4.36086178       3.31427264
O       27.89463615       5.00467396       4.50023699
O       29.58639908       5.05281591       2.74494076
F       29.07458687       3.03714037       3.89540315
F       25.91240692       3.78808355       0.42421818
O       21.34312820      26.21410751      25.40443802
S       21.04607391      25.11602974      24.50233078
O       19.95771599      25.19355583      23.57259750
N       21.07393646      23.78231812      25.30953979
S       20.18539238      22.78517342      25.99463844
O       19.57530975      23.12084007      27.25364494
O       20.73660469      21.44098282      25.91718674
F       18.91824341      22.67156601      25.00479889
F       22.35186386      24.96644783      23.65618134
O       29.15436363       2.00344849      23.25678253
S       29.49334145       3.10711956      22.38488007
O       30.51379204       4.05642700      22.76673317
N       28.22760201       3.73394704      21.63839531
S       27.36912537       4.86934471      22.26898193
O       27.07792091       4.85260010      23.68361092
O       26.24840355       5.19676161      21.39352798
F       28.27621460       6.15786505      22.06109810
F       30.07621765       2.42775345      21.05734825
O        7.81916332      27.00757408      11.62367153
S        8.72600460      28.01936722      11.12558937
O        8.46493435      28.49379158       9.77002621
N       10.25027275      27.81209183      11.45584106
S       11.02853107      26.69730186      10.64457703
O       10.18156052      25.82303429       9.84993172
O       12.04476452      26.08377075      11.46945763
F       11.90529346      27.51483917       9.61117840
F        8.41809464      29.26627541      12.04383659
O       23.98012543      10.96452618      17.68561363
S       24.32603455      11.77060890      18.84617043
O       25.61027908      11.52579117      19.47601318
N       23.12178802      11.99539089      19.90231514
S       22.37350845      10.82937813      20.59203911
O       22.14124298       9.63602448      19.79450798
O       21.25118065      11.35663891      21.34657669
F       23.42423820      10.36830807      21.70701790
F       24.36508751      13.24504471      18.37331963
O       -0.55887568       7.88058901      15.39826584
S        0.58643687       9.00336266      15.63968277
O        0.31592926       9.77977085      17.02828217
N        4.50389242       9.13344479      17.42211533
S        5.01964760      10.02433968      16.34526825
O        4.39713430      10.36929512      15.05329037
O        6.23284674      10.89097595      16.59945297
F        3.34135294      12.31956387      16.72692490
F        1.13880134       6.62509203      18.30793571
O       16.45981026      28.09016418      28.91036987
S       17.79241943      28.33948898      29.40903854
O       18.72342873      29.03695297      28.53421021
N       18.48613548      27.14710426      30.07605743
S       18.53320694      25.60616112      29.89761543
O       17.36471176      25.02614403      29.25628281
O       19.06157303      25.00876045      31.10521698
F       19.70590973      25.39268494      28.85760307
F       17.61553574      29.31554794      30.64361572
O        8.56962299      15.32949543      23.01792717
S        9.83730125      16.04840088      23.08442307
O       10.77432060      15.61847782      24.10379982
N        9.68141842      17.64560699      22.94354439
S        9.30408955      18.43577766      24.26919365
O        8.21121693      17.87195015      25.04908180
O        9.21972752      19.87080574      24.04208946
F       10.55184555      18.31703758      25.25137138
F       10.50995350      15.72235203      21.70407104
O       24.23616219      20.15989876      27.29004288
S       25.35862732      21.04438019      27.58481407
O       25.76103401      21.95960808      26.53387451
N       26.52047348      20.42597389      28.39912796
S       27.59823227      19.35761452      28.15018082
O       27.23730850      18.31034279      27.19517517
O       28.22324371      18.91981888      29.37880516
F       28.76499557      20.12964058      27.39166260
F       24.79592133      21.99039268      28.70260811
O       13.32977581      21.68733597      26.02662086
S       13.76516628      20.98391533      24.82140350
O       15.20524025      20.70049477      24.80311966
N       13.17715263      21.41403008      23.43941879
S       13.85405064      22.66578102      22.74677849
O       14.26923847      23.68925667      23.70382690
O       13.13085461      23.09259796      21.57088089
F       15.23592472      22.11294365      22.18741035
F       13.12237835      19.58055115      24.91591835
O       26.80774879      25.12985229       8.30236721
S       28.06924057      25.80665779       8.02878475
O       29.15368462      25.54840660       8.95937347
N       27.96901131      27.31719971       7.51456642
S       27.21892357      28.39138412       8.42125034
O       25.83588600      28.13257599       8.77950001
O       27.52001572      29.70910072       7.90018177
F       27.98725128      28.42201233       9.83933353
F       28.56140709      25.15042877       6.66417313
O        4.14036894      17.68662643       4.25995255
S        3.12329912      18.12016487       3.33058214
O        1.86854684      18.59644318       3.86123610
N        2.95428872      17.24102020       2.01475596
S        2.87368321      15.66311646       2.03423285
O        4.04765987      14.98435783       2.54678512
O        2.39185286      15.16727448       0.74947083
F        1.69850528      15.35974979       3.04001427
F        3.74979329      19.40724373       2.59323788
O       23.11851692      17.38810158       8.55600643
S       24.36169815      17.64431953       7.83411884
O       25.58084297      17.08758163       8.36281872
N       24.47648430      18.98280334       7.04495859
S       24.82318306      20.45712090       7.53261471
O       23.92736626      21.08201790       8.47194004
O       25.20554352      21.21224976       6.35184669
F       26.23291397      20.26191330       8.28070068
F       24.09077644      16.71359634       6.49657440
O        8.70576954      10.55112648      28.83521652
S        8.41692162      11.35124779      29.99667549
O        7.01570034      11.51549625      30.35671616
N        9.28152180      12.60763359      30.26916504
S        9.39897060      14.02974129      29.66373253
O        9.62843609      14.14223862      28.25076103
O       10.18978405      14.85379982      30.57230759
F        7.91264963      14.63822460      29.81977654
F        9.01068974      10.48982811      31.21381950
O       14.54870605       4.95961428      19.33020782
S       14.81051350       3.51815176      19.35086632
O       15.95348454       3.13036442      18.54975128
N       13.56963253       2.59785175      19.34400368
S       12.74836731       2.26178455      18.02043152
O       12.98597717       3.26078033      16.97487259
O       11.38088036       1.93068695      18.35935020
F       13.42389202       0.95807165      17.45644188
F       15.24428368       3.25876379      20.85883713
O       20.62495232      17.71123314      10.43298340
S       20.81473732      16.67653275      11.44059372
O       19.58881569      15.94950962      11.77125645
N       21.81867218      16.99983978      12.56507492
S       21.59702873      17.22910118      14.11465168
O       21.51833916      18.61399460      14.51039124
O       22.48973465      16.41125488      14.88927841
F       20.12286377      16.65825462      14.42936897
F       21.66498375      15.60133362      10.61593437
O       12.10141277      24.39500427       3.20170069
S       12.64224720      24.06627655       1.90066350
O       12.70727444      22.65350723       1.55877650
N       13.94054699      24.82527542       1.51904976
S       15.20102787      25.11144257       2.40575361
O       14.94446754      25.65855789       3.72487569
O       16.25899887      25.70999718       1.61119175
F       15.74881649      23.63541985       2.71614742
F       11.61672592      24.67021751       0.85731727
O        2.16515183      15.31077194       9.18119335
S        0.81939876      15.55363083       8.67547894
O        0.46663368      14.88822365       7.44360971
N        0.31489110      17.03212166       8.83036041
S        0.95603001      18.18308258       7.95937490
O        2.39056468      18.04325867       7.73135567
O        0.50593430      19.47811890       8.41439819
F        0.32473233      17.99937439       6.51166916
F       -0.15148696      14.90684223       9.76777172
O       30.02462387      27.12866402      11.66532898
S       29.33901596      26.92166901      12.91229057
O       29.49810219      25.65884018      13.61777401
N       27.84844398      27.53841782      13.02350330
S       26.51638222      26.89329910      12.52403831
O       26.38515854      26.39412308      11.18248749
O       25.39802361      27.69076729      13.05769730
F       26.43886375      25.56658173      13.42685318
F       29.99465752      27.99425125      13.90315437
O       14.05819798      20.49657822      17.16871643
S       14.20788002      20.08514214      18.54965973
O       15.26451015      19.12477684      18.80276871
N       12.82886314      19.77756500      19.34980011
S       11.87886047      18.63279533      18.76927948
O       11.76524162      18.57819939      17.31469727
O       10.66164112      18.55981445      19.54125595
F       12.67434502      17.27232933      19.08717728
F       14.61160374      21.38200951      19.32809067
O       26.55105209      16.57774162       4.84379387
S       27.71157074      15.72600842       5.03751373
O       28.24864578      15.12706089       3.83055925
N       27.61350632      14.78758717       6.29305029
S       26.53055573      13.71133995       6.50025749
O       25.13334274      14.11056423       6.52262878
O       26.93175316      12.84014511       7.60648298
F       26.65942764      12.82423401       5.18602848
F       28.84786797      16.64341736       5.59336329
O       22.12979126      30.26503372      13.44510841
S       21.44314575      29.30015182      12.57669926
O       20.50865936      29.87469292      11.61809254
N       20.90300560      28.10630798      13.38209629
S       19.57227898      27.93673706      14.15821457
O       18.87994576      29.15699959      14.52953053
O       19.76538277      26.92816353      15.17332935
F       18.63691330      27.26206589      13.07581615
F       22.59121132      28.61335754      11.79245472
O       18.34037590      25.57533264      26.12677765
S       17.20156479      25.86182404      25.28166962
O       17.11911011      25.21644402      23.99424934
N       16.58328819      27.30916977      25.38099861
S       17.46512222      28.54774857      24.94418526
O       18.89951515      28.31819153      25.05160904
O       16.97906113      29.77943802      25.52182388
F       17.19522285      28.65345573      23.40596008
F       16.00186157      25.19897652      26.09734535
O       28.11324692       9.41318703      26.63196945
S       28.31676674       9.14192486      28.09579277
O       28.50050545      10.40304279      28.90518379
N       26.28107071       8.82339191      28.68737411
S       26.15174294       7.45424080      29.44122505
O       26.82696533       6.26715136      28.90363312
O       24.78831100       7.20198679      29.89662743
F       26.98682213       7.65076780      30.84152412
F       25.46745682      11.22849560      26.98218727
O        9.92116165      11.85493374       6.30772161
S        9.23508358      12.35013866       5.12356281
O        8.36929703      13.50391960       5.15921879
N        8.56187153      11.20344830       4.28216648
S        7.11273670      10.69997120       4.63431644
O        6.93122292      10.47723103       6.06664038
O        6.76356459       9.65837574       3.70255637
F        6.20384789      11.92100620       4.30480909
F       10.41051960      12.65705872       4.13339853
O       13.56373978      13.31300449       7.34017563
S       13.61000156      14.62951374       7.99402046
O       12.41614723      15.41619587       7.97032309
N       14.95198727      15.38990116       7.78889322
S       15.43510342      16.12261963       6.47297764
O       15.12343311      15.39607334       5.25577164
O       16.81780243      16.48014832       6.70809317
F       14.59498405      17.43145561       6.43620014
F       13.85551262      14.28076744       9.50198841
O        6.84247494      17.71750641      27.59804916
S        5.82545614      18.73838615      27.53408051
O        5.72525358      19.57739449      28.71674728
N        4.41541624      18.23346519      27.02213669
S        3.60439444      17.05828857      27.63187408
O        4.37066078      15.85864639      27.93172646
O        2.34216309      16.90454674      26.90804863
F        3.21206212      17.60185432      29.06602478
F        6.20005655      19.69922638      26.38311577
O        7.66457844      23.53496361      16.19555092
S        7.55967283      23.70770836      17.62059402
O        8.50371647      24.59739304      18.25865746
N        7.22957611      22.35354996      18.43690109
S        8.41917706      21.28686333      18.55766487
O        9.22337627      21.08225632      17.36507416
O        7.96100330      20.09500504      19.23735237
F        9.43527889      21.96382904      19.58352852
F        6.16856384      24.43092728      17.81265450
O        4.71261930       2.73354363      24.84932137
S        3.49873829       3.57285285      24.96284485
O        3.45577264       4.32548952      26.23245621
N        2.23073268       2.85355186      24.46010017
S        1.47299242       1.80683076      25.59466553
O        2.24390841       0.50676864      25.39150620
O        0.11012213       1.70437467      25.00148392
F        0.90914053       2.29378033      29.90324211
F        3.75157332       4.61526012      23.84724808
O        3.74301720       5.55368042      12.55214214
S        4.49885368       6.79090023      12.57029819
O        4.42581129       7.63538170      11.39311123
N        5.90537691       6.76743078      13.31067371
S        7.15357590       5.96716356      12.75427341
O        6.93461370       5.21993637      11.52379990
O        7.92605543       5.34077549      13.80307770
F        8.13170910       7.16231441      12.30777073
F        3.76928997       7.66472006      13.68323898
O        2.32212543      23.11428070      18.56165123
S        1.92323470      24.26206589      17.75345993
O        2.89177442      24.72240639      16.78394318
N        1.20100915      25.40028763      18.56661034
S        1.77501464      26.46867943      19.55387497
O        2.75587225      26.00806808      20.53200722
O        0.69765222      27.30466652      20.04126930
F        2.61759925      27.43516541      18.60530853
F        0.69529170      23.74027252      16.91751671
O       14.14390945      23.36264801      13.08295345
S       13.16695023      23.16049004      14.12304115
O       13.67050838      22.88368034      15.44048405
N       11.90045738      22.27906227      13.65060806
S       11.95169926      20.73271942      13.94991398
O       13.21868610      20.04529381      13.73476315
O       10.75781250      20.07941437      13.44679546
F       11.73404980      20.66308403      15.52981567
F       12.44278622      24.55349731      14.23366070
O       10.84010983      11.17006302       9.25953770
S       11.01778603       9.90423870       9.95335484
O       12.12030697       9.05055809       9.55167389
N        9.67244244       9.12616825      10.23658752
S        8.79344845       8.46008205       9.17407513
O        9.16295624       8.72371387       7.78374529
O        7.37383032       8.51393414       9.45297241
F        9.15300083       6.93691778       9.30776405
F       11.27251339      10.26543140      11.43628979
O       23.29123306      11.34728527      14.33345795
S       23.02058220      11.00333500      12.94996357
O       22.92045975       9.56381798      12.71534252
N       23.80329514      11.75559521      11.82089901
S       25.26499748      11.28732491      11.43177700
O       26.12406158      10.81947231      12.50952625
O       25.86950302      12.14867401      10.44142914
F       25.02157402       9.92786980      10.56595039
F       21.56372833      11.54434586      12.63483429
O       20.28908157       5.47083187      14.15028381
S       20.90138626       6.27786970      12.99118614
O       20.77233887       7.74706221      13.37070370
N       19.95719337       6.07347059      11.54006004
S       18.46547318       6.40510416      11.50037766
O       17.66473770       6.09540939      12.71842194
O       17.79653931       5.98249722      10.28904152
F       18.30733109       7.97955704      11.46563625
F       25.50327110       5.67024565      12.23441505
O       15.17322063      13.31914520      13.74336720
S       13.73177433      13.42996693      13.91082668
O       12.95784092      12.57857037      13.01431656
N       13.15196228      14.84729099      14.17184734
S       12.82182598      15.88861942      13.01654053
O       13.91434002      16.04319763      12.06383038
O       12.23366547      17.07018280      13.59364319
F       11.68814564      15.18239594      12.15551281
F       13.48420620      12.83785534      15.36595631
O        6.58468294      21.02930450      14.95341873
S        6.40914154      19.65423012      15.34016705
O        7.58436584      18.94909668      15.82661343
N        5.45298004      18.75210762      14.40007973
S        5.91744137      18.40684891      12.92666435
O        6.63616657      19.44355965      12.23290730
O        4.89744377      17.68258476      12.17784405
F        7.04419708      17.24048805      13.09424400
F        5.46425819      19.73727608      16.60925484
O        5.58022499      28.51399422      15.23053074
S        4.96584606      29.41537094      14.25799847
O        3.61603332      29.84370232      14.56179905
N        5.28638458      29.08946991      12.73928833
S        4.75360394      27.75591087      12.03874969
O        4.90993643      26.54033089      12.81942558
O        5.10762405      27.72348022      10.63594151
F        3.15096998      27.97488594      12.02018738
F        5.84887266      30.73899460      14.39777184
O        9.33028984      13.28609371      11.76369190
S        8.78401184      12.88815784      13.05000401
O        9.65202427      12.19467640      13.97394371
N        7.29698229      12.32178497      12.98351669
S        6.83349514      11.14712715      12.06506824
O        6.97657156      11.41676998      10.62663841
O        5.55096245      10.62960339      12.47522449
F        7.89145947      10.00967598      12.31957245
F        8.45018578      14.24960136      13.77739811
O       27.14300156      18.45479393      14.98230076
S       25.87146950      18.67685699      15.62869835
O       24.67615318      18.43810654      14.85505867
N       25.74776840      20.00477791      16.57741737
S       25.80859375      21.39761734      15.87274456
O       26.45200348      21.44253349      14.57699299
O       26.18004417      22.45263672      16.79389954
F       24.29485321      21.74795341      15.53984547
F       25.83640289      17.62204552      16.78025627
O       25.89882660       8.59221554       6.93132973
S       25.79197502       9.38978481       5.69525003
O       24.61255455      10.23196125       5.64872646
N       26.20678139       8.65777016       4.37363338
S       25.27318001       7.54247189       3.71218014
O       24.65673447       6.66403246       4.69465923
O       25.94396591       6.98847866       2.56875563
F       24.03116417       8.40183926       3.13408470
F       27.03611374      10.33155155       5.79741907
O       19.58711624       8.21334553      21.06532097
S       20.66062355       7.41283417      21.60080910
O       20.33247566       6.08527994      22.11128426
N       21.69803238       8.07904911      22.51315308
S       21.87639046       8.74048710      23.89255524
O       20.97824478       9.82616997      24.21629524
O       23.29246330       8.93776035      24.17202187
F       21.48897362       7.62972164      24.92285156
F       21.57334900       7.06779337      20.36625290
O        8.85105419       3.08001065      29.13566017
S        8.70191383       3.61261368      27.77991104
O        7.36989355       4.09195137      27.44671631
N        9.42781830       2.81106901      26.66735458
S        9.04106522       1.36053455      26.17086792
O        8.22547817       0.65454125      27.14899254
O       10.19822884       0.70974576      25.62888718
F        8.02146053       1.59070230      24.96716881
F        9.60466957       4.90717840      27.82287788
O        6.46100903      11.03089523      24.26005363
S        7.05151653      12.31838417      23.97497940
O        7.16053438      12.67263985      22.56446266
N        8.21091366      12.84856606      24.89675140
S        9.59299660      12.07809258      25.06274223
O        9.49971581      10.64348221      24.86652184
O       10.27164268      12.58538914      26.22200584
F       10.51703358      12.55834579      23.85535812
F        5.95714521      13.34900093      24.51859474
O        7.10873127      20.03223610       2.65686464
S        7.33325768      18.98367500       1.69339240
O        6.71230268      17.67815018       1.92387569
N        8.76514530      18.80718803       1.11373448
S       10.16595173      18.89866447       1.85391963
O       10.15353298      19.21013260       3.25438523
O       11.17214680      19.51506042       1.01318800
F       10.61021996      17.36713409       1.77234805
F        6.57794905      19.51740646       0.36128059
O       13.33986759      19.34784698      27.99095726
S       12.27628899      18.82886314      28.86014938
O       11.97952747      17.42193985      28.66991043
N       11.14272881      19.81995964      29.19109917
S        9.63376141      19.92102623      28.76015472
O        9.43610001      20.62544441      27.50993919
O        8.84113026      20.33511734      29.89252853
F        9.27621460      18.41156197      28.43535805
F       13.00050735      18.84917068      30.27940178
O       21.33220482      23.63393211       1.89874053
S       22.51488686      22.90645790       2.32569313
O       23.75782204      23.24287796       1.66244829
N       22.30014229      21.39239883       2.64783955
S       22.33606339      20.19699860       1.67487943
O       22.05410385      20.51881790       0.28840116
O       21.67473602      19.03076744       2.23913980
F       23.87619209      19.77112007       1.68892181
F       22.72777367      23.37075806       3.81592393
O       22.05125618      20.19872665      11.52406311
S       23.02631187      20.99828148      12.23766041
O       23.24627686      22.35298347      11.75826836
N       24.33711052      20.22210312      12.66554832
S       25.29529381      19.65166664      11.52989388
O       24.67026711      18.76488686      10.57135201
O       26.55897903      19.24005890      12.07618713
F       25.65642166      20.94039536      10.66645527
F       22.41231537      21.23732376      13.68294334
O       18.25977898       5.47666740      25.21969986
S       19.37911224       4.61121607      25.50149727
O       20.70418549       5.16499758      25.47899437
N       19.28463173       3.19266272      24.87741852
S       19.85130310       2.53655005      23.59294128
O       19.79155540       3.32719326      22.37183762
O       19.36522865       1.17289841      23.52167511
F       21.39728546       2.39418936      23.86872673
F       19.10840797       4.15134001      27.05472183
O        7.26197052      26.07549858       5.57666588
S        8.05551434      27.25824738       5.83846617
O        8.08015442      28.25032043       4.76346588
N        9.44742584      27.11490440       6.57004404
S       10.43637562      25.91390038       6.25162840
O        9.85233116      24.61266327       6.01140547
O       11.57580090      25.96081161       7.13645792
F       11.08706665      26.32065582       4.84061289
F        7.30344629      28.05704117       6.97334576
O       29.86695480      19.44972420       4.09829521
H       29.05983162      19.59930229       4.65822458
H       29.95066071      18.47914314       4.05932474
O       11.94938278      27.94108582      25.95991516
H       11.01929283      28.24229050      25.87277603
H       12.50557709      28.70709229      25.72567368
O       18.78934860       0.76923519      27.76529884
H       18.41298294      -0.05254697      27.38552666
H       19.53884315       1.02599335      27.18684196
O       10.56814861      22.66841125      25.55766106
H       10.13850498      21.95125389      25.05181503
H       11.39783096      22.26689148      25.89898109
O       26.72933388      10.81098747      22.58646393
H       26.17234230      10.01621056      22.39776039
H       26.22902870      11.59756088      22.30061340
O       22.65894508      26.91559410       6.95447683
H       21.82007599      27.31646919       7.25768566
H       22.79063034      26.13826752       7.53543186
O       15.38854313      24.77603340      20.89866638
H       14.59982109      24.28405190      20.59568787
H       16.16803741      24.33017159      20.51189423
O       17.01146507      13.19820690      24.27553368
H       17.51040649      13.87085056      24.78381920
H       16.67842293      13.66639709      23.48197746
O       15.28641701      29.28594971      10.86659718
H       14.46296310      29.81405449      10.79730892
H       15.76972198      29.70927811      11.60266304
O        7.40550327      15.39593601      26.07114029
H        7.70825052      16.30101585      26.27548981
H        8.07614899      14.97580338      25.49662590
O        6.07687330      15.66186810      15.60228252
H        6.00472403      15.99133587      16.52006721
H        6.86934710      16.11363792      15.24801731
O        8.74686527       7.08626366      17.86570168
H        8.05212021       7.71361351      18.14696693
H        8.94714069       7.28798342      16.93143082
O       15.27586174       9.23523521      12.38184738
H       15.96145153       9.81053638      11.95577621
H       15.37523460       8.33320999      12.01818466
O       28.41654968       2.25339222       9.24661827
H       27.66526222       1.63130689       9.29061317
H       28.51168060       2.46539903       8.29601574
O        1.07998455      11.53337669      23.06542587
H        0.88724136      12.27748871      22.44651604
H        1.59333503      10.87627983      22.54842186
O       17.66231537      12.22589970      20.76474762
H       17.18146133      11.44330978      21.09158325
H       17.37266159      12.99199486      21.30329704
O       29.16041183      30.60285378       2.87821054
H       28.87068748      31.05743408       3.69502759
H       28.66523743      31.06675339       2.17453337
O       13.86469460      29.18406487      16.03483772
H       12.99003792      29.38796043      15.64767838
H       14.17690182      28.44396019      15.47433090
O       24.15265846       2.88283873      21.89468956
H       24.06623459       1.91541326      21.94387245
H       23.67414856       3.25852704      22.65863419
O       28.87668800      18.81395340       8.37984848
H       28.40724754      18.56208420       9.19951820
H       29.43276215      19.57601738       8.63794136
O       10.35284996       2.83514118      15.29905224
H       10.02611065       1.96251786      15.58876705
H        9.90847969       3.43839264      15.92448235
O       25.26835632       9.02180672      14.61250591
H       24.29523468       8.98512173      14.43708801
H       25.48657417       9.98019600      14.63383865
O       15.99053383       0.86462086      12.15959167
H       15.15125084       1.29607594      12.45128250
H       15.88444233       0.65796095      11.20959854
O       28.34545517      26.60388374      27.14975166
H       27.87512589      25.75747871      27.28544235
H       28.03190613      27.18988800      27.86619377
O        2.89304900       4.21953678       4.30935717
H        2.87859941       5.19405270       4.38704729
H        2.32163215       4.02463961       3.53948855
O        4.23666906      20.16707230      22.92783356
H        4.66847754      20.36961746      23.77783012
H        4.69482660      19.36053848      22.61678123
O       12.48927307       2.24724770      22.53518486
H       12.69414997       1.38230753      22.13397598
H       12.49344635       2.88539743      21.79633331
O        4.31485224      13.08166695      13.66009235
H        3.88252115      13.44307137      14.45580482
H        4.64566469      12.20033741      13.94363594
O       12.61808395      17.75403214      22.26252365
H       13.19457912      18.54962540      22.26413155
H       12.71717453      17.35800362      23.15056229
O       15.64968300       6.32390928      21.73703003
H       15.53523159       7.13332605      22.30570984
H       15.14911366       6.49191046      20.91953468
O       31.15435410       5.04130650      17.10190773
H       31.79103661       5.69615364      17.56679153
H       30.80091095       5.61599398      16.39756203
O       22.56043816       5.29695749       6.53939295
H       23.22440910       4.90096855       5.93864965
H       23.05929184       5.74261284       7.25043011
O        4.35923195      10.17247677      30.02663803
H        5.27826262      10.43327713      30.25488281
H        3.91268992      11.02216816      29.84359741
O       31.50801277      22.24949646       7.98283100
H       30.89005470      22.10341072       8.72625160
H       31.79301453      21.34647560       7.74840403
O       11.12818336       6.28209400      12.25863838
H       11.00626755       6.14505148      13.22086334
H       10.60187912       7.07952738      12.04661274
O       28.09096718      25.58258247      17.83041954
H       28.69195938      24.95535469      17.34159088
H       28.44364548      26.48586655      17.72203636
O        2.46377015      24.30101967       6.70887136
H        2.02749348      24.13233376       7.56316137
H        3.36252880      24.63436890       6.94337702
O        7.30720663      25.30247307       9.31293011
H        8.27612114      25.37617302       9.41398811
H        6.96544313      25.81938171      10.06333351
O       28.21660233      24.67519379      21.12356567
H       28.86182785      24.97156906      20.45208359
H       27.93748474      23.79523468      20.79545784
O        6.64635849      22.62325668      22.82297707
H        6.14460564      22.63997650      21.98480225
H        7.33507776      21.94028473      22.69597435
O       11.40418720      27.24335670      20.16520500
H       10.88995361      26.88966751      19.41666603
H       11.97167301      27.94559288      19.78092957
O        1.41841292       2.26236773      21.59851074
H        2.31622052       1.93438935      21.78623390
H        1.03970253       2.31193924      22.50377655
O       24.26022720      19.24354362      30.40523529
H       23.95681763      18.93512726      29.53161430
H       23.57035637      19.87834930      30.69078636
O        8.60366535      12.94385433       8.82213593
H        8.24212170      12.65532494       9.68637657
H        9.45245361      12.46758652       8.71685791
O       15.13820076      19.05533981      22.07688904
H       15.32231331      18.54046822      21.26389122
H       15.69930267      19.85354233      22.02585793
O       18.57541084      21.96381187      15.00339222
H       18.37045097      21.34748840      14.26931190
H       17.78494453      22.00420761      15.57618237
O        9.46138096      23.82120514      28.54879761
H        9.40592480      23.12642860      27.86183357
H       10.24366856      23.56385612      29.07278824
O       27.59012222      19.44071388       5.68540716
H       26.92244530      20.13840866       5.82617903
H       27.85696030      19.16015434       6.59327602
O       17.59235573      26.21596336       5.41178608
H       17.54301453      25.23857880       5.44872332
H       18.53265953      26.40032005       5.21054411
O       18.82617188      19.42447281      13.43811131
H       19.06346703      19.29515457      14.40620327
H       19.56200790      20.00296021      13.13473511
O        7.57487202      23.06500244      31.45965195
H        7.38088131      23.83934593      30.89704704
H        8.01910591      22.43109322      30.85968018
O        7.24572182      31.37566948       5.94704676
H        6.44615793      30.88617516       6.24110270
H        7.93632030      30.68006897       5.92542744
O       26.45923424      26.02276421       3.87152839
H       25.92245293      26.42988586       4.58578634
H       26.18358612      26.47774124       3.05379391
O       13.76015854      16.22278214       2.27626276
H       13.99162483      17.13518524       1.97486186
H       13.07185364      16.39691544       2.94593883
O       20.01435280       3.25559497       7.56989336
H       20.44187546       2.96970177       8.40097046
H       20.38837051       4.15268660       7.41517782
O       21.24612617      31.06095695      29.50620842
H       20.56338882      31.63299370      29.90669823
H       21.12833786      31.13895988      28.53829765
O       27.70777512      19.34430695      24.14367676
H       27.98226166      18.89578438      23.31680298
H       27.20380402      20.14013863      23.86619949
O       21.61049080      24.87531662      12.73662186
H       21.14848328      25.24355316      11.95809746
H       22.36813927      25.47047043      12.89566326
O        1.94553101      18.13207436      14.40110111
H        2.44016099      18.97377014      14.46189117
H        1.05256522      18.32694626      14.73733330
O        2.88030696      20.96183395      26.64916039
H        2.26171565      20.88861465      25.89689827
H        3.20894718      20.05221558      26.81030083
O       10.34558678       7.87107992      15.12649441
H       11.11473656       8.37475204      14.80975533
H        9.56258869       8.48646927      15.05062962
O       14.40498066      26.84235191      22.58512306
H       14.78269291      26.18157005      21.95171738
H       15.10269642      26.95822525      23.25914955
O       11.91413307       3.23790693      30.19863892
H       12.53836823       3.04152894      29.47182655
H       11.08270073       3.53941679      29.77778244
O       29.17698288      23.50418472      16.47256279
H       28.95324516      22.65207481      16.92265320
H       30.04396439      23.35503006      16.03993988
O       10.29367256      21.62700844      22.06712151
H       10.96468925      21.19315338      21.50253487
H       10.05593300      20.96864319      22.74969292
O        9.80642700      10.13875198      21.84020615
H        9.00005436      10.68716145      21.91081047
H       10.07547569       9.99596691      22.77125549
O       22.44389725      12.40415001       6.61929274
H       22.98327637      11.70163345       7.08006048
H       22.17231369      11.98808479       5.78278542
O       24.05797768       4.79874229      10.29557514
H       24.59858704       5.16547441      11.06332493
H       24.51474762       4.00111914       9.96756554
O        5.84993982      11.23949718      27.42841911
H        5.15492821      10.55975819      27.51008797
H        6.60136318      10.80963135      26.97129440
O       11.21469307      23.33607292      17.37804222
H       10.80489445      24.09434700      16.92543793
H       10.67492485      22.57752419      17.09642029
O       14.00804710      18.84105682       1.55940413
H       14.38559055      19.57784843       2.07516694
H       13.14352512      19.17003441       1.22322798
O       10.84592056      24.54518700      22.15538025
H       11.46824837      24.64506149      21.40742874
H       10.68537712      23.57630539      22.24053192
O       21.37417793      15.60394382       7.35035706
H       21.91383553      16.34243965       7.75267029
H       21.94033432      14.80521297       7.37277842
O       26.64164543       1.01718652      16.89639282
H       25.78514862       1.46284270      17.03854942
H       27.24055862       1.31508470      17.61734200
O       16.33175659      17.98668671      10.65311432
H       15.94472313      18.03855705       9.75501347
H       15.88229847      18.68067360      11.17939854
O       20.78138542      26.36651421       4.14050055
H       21.43672943      26.80286026       4.71820021
H       20.65894508      25.48116875       4.55111265
O       18.52078819      30.13060379       9.27605820
H       18.73480797      29.53310966       8.52807236
H       19.14864922      29.85190964       9.98231316
O       23.13137436       7.53294182      10.23327446
H       22.16057014       7.63786364      10.20280552
H       23.34841728       6.70087910       9.76959801
O        1.12557948      29.84829330      26.28996658
H        1.50687540      30.66795158      25.86095238
H        1.87738371      29.43706703      26.74957848
O        2.34257269      26.92512703       4.51144648
H        2.74946856      27.26679802       3.69322133
H        2.61138844      25.98501587       4.57860184
O        2.97129345       4.12315226      15.93198967
H        2.69285989       3.70672846      16.76617241
H        3.63480949       3.53218627      15.53061199
O       29.78179169       4.06678963      25.95941544
H       28.91655540       4.07019949      25.50652313
H       30.31293106       3.34900403      25.55669022
O       22.01566315      28.30461502      29.91758537
H       21.10987663      28.66514015      29.98158264
H       22.56489754      29.11419487      29.92214012
O       10.97121716      16.77822304       9.86036968
H       11.60937500      17.32491875       9.36505222
H       10.43139267      17.46392059      10.31711483
O       21.36205292       2.36076689      10.45949936
H       20.59216690       1.88903773      10.83906078
H       22.03501892       1.68285954      10.25175953
O       14.63594532      18.07572937      15.69000244
H       14.60789108      19.04081917      15.53044128
H       13.72277832      17.83946037      15.94109440
O        9.57000923      26.97007751      22.68432045
H        9.87795734      26.05356789      22.49295425
H        9.99450207      27.51717377      21.99047089
O       28.31222916       0.29847524      19.10211372
H       27.98448372      -0.62334198      19.06163406
H       28.42251205       0.52650803      20.04163170
O        7.95313835       8.93963146      15.24522400
H        7.20265722       8.48855305      14.80395794
H        7.63522720       9.79765415      15.59872532
O       14.64404392      16.14262772      29.88457108
H       13.78144741      15.90684605      29.49233055
H       14.42722988      16.67729950      30.67102242
O       18.61416435       9.94749069      18.25494957
H       19.22089577      10.74971008      18.16263771
H       18.21716881      10.02764416      19.14143562
O        7.43445015      30.33495331       2.85255170
H        7.26989460      31.05318832       3.49465775
H        7.75521612      29.58670425       3.40019226
O        5.06327152      16.01856613      20.05890656
H        5.73917007      16.60624695      19.65902710
H        5.46768808      15.12863350      20.03874207
O       11.95357704      23.27025604      10.62812710
H       12.50723171      24.00168800      10.95726299
H       11.08459663      23.46623611      11.01220036
O       23.83741188       2.66931820      13.37332821
H       23.36319542       2.03615618      13.95465565
H       24.47013474       2.15620208      12.83018780
O        7.28869724      30.81787491       9.24915695
H        6.39122581      30.54647827       9.51309299
H        7.84034109      30.00194359       9.37791634
O       29.46278572      22.24120522      24.30851746
H       28.64698982      22.71821213      24.06951332
H       29.22315407      21.30374718      24.17292213
O       13.95208931      13.06253433       3.57178521
H       13.87667084      13.95448875       3.16830397
H       13.79226017      13.22097874       4.52702188
O       19.01382065      16.24534988      28.29009628
H       18.82549858      15.76712227      27.45495796
H       19.16823006      15.55695343      28.96841621
O        6.10775614      16.75016403      30.69070625
H        6.33691835      17.49302864      30.09519958
H        5.61056948      17.14648819      31.43446159
O        3.01849985      25.83840370      25.02510262
H        2.19797635      25.84063721      24.49929619
H        3.45436811      26.68265152      24.77494240
O       13.87593651      11.58614635      10.53999901
H       13.26217270      12.16368771      11.03841591
H       14.38789463      11.14440823      11.24352646
O       23.10584641       5.20308590      17.40835762
H       22.28942108       5.67095757      17.69760323
H       22.82183075       4.28575563      17.19113541
O        4.55626297      29.42326736       5.90081787
H        4.75655079      28.89099312       5.10478640
H        4.29607582      28.75746918       6.57407999
O       21.60482216      22.70751953      22.26604271
H       20.83821487      23.15464973      21.85827446
H       22.34714890      23.33682632      22.26287460
O       20.67018509       9.85277653      15.62263584
H       21.60999107       9.71838665      15.37537289
H       20.38546181       9.08431530      16.15947151
O        7.58562040       9.04939461      20.50945473
H        8.53328705       9.00376511      20.74980354
H        7.12545776       8.56750107      21.22736549
O       18.02879333      10.46185398      23.67778587
H       17.62862968      11.24122143      24.12069702
H       18.49584198       9.96258831      24.37955666
O       13.83240414       2.43617845      13.24022770
H       13.23616886       1.85837996      13.75700760
H       13.24161625       2.99350643      12.65871048
O       21.71193123      27.41921043       1.33900464
H       21.49841690      26.72001648       1.98823714
H       22.00175476      26.99567223       0.50867534
O       25.71391678       8.31126881      22.80577278
H       24.80549240       8.33506203      23.18210983
H       25.69737816       7.66966105      22.07143021
O       28.58022499      10.61690044      18.58752060
H       29.20875740      11.29890442      18.89559364
H       27.67311096      10.93102837      18.76697159
O        7.61349297      13.95384407      20.14408875
H        8.25482559      14.66908264      19.98762703
H        7.66022205      13.78139400      21.10889816
O        8.15665722       1.97268832      17.60881424
H        8.01360703       1.04596293      17.32960320
H        8.75041008       1.92205143      18.38141632
O       18.25747871      13.35067940      14.33532906
H       18.87734604      14.00710297      14.70897770
H       17.52524376      13.27682018      14.97306252
O       11.37530518      15.26731205      16.80459213
H       11.60916901      15.95340061      16.14713860
H       12.19498444      14.73412418      16.87932968
O       21.62013435       6.27827930      28.06216240
H       22.45154190       6.77693653      27.94298553
H       20.92938614       6.96375847      28.01283646
O       15.46537590       3.71803045      10.22457886
H       15.71822357       3.33484030       9.36369610
H       15.20989609       4.64534330      10.03315926
O       17.68555450       6.36404991      17.49438858
H       17.53936195       7.04698849      18.17954826
H       17.09515572       5.59876490      17.68174934
O        6.33833075      18.95701408       5.49143744
H        7.03828621      19.63719559       5.42851496
H        5.52939939      19.37120247       5.14063835
O       14.75374222      16.47361565      21.08887291
H       13.81319427      16.73069000      21.24978065
H       14.72955608      15.83721066      20.35111809
O       20.40395164       6.08560944       8.45140171
H       20.52071571       5.92295647       9.41388607
H       19.46236420       6.32847166       8.37175560
O       17.40444565      16.77708054      25.74519539
H       16.50543785      16.58941841      25.38745117
H       18.02669907      16.33317947      25.12613297
O        9.92005253      11.64800358      19.34088707
H       10.54044056      12.36578083      19.57334900
H       10.12676239      10.93976307      19.98326302
O        9.16403675      21.91241074       5.16584158
H        8.64549351      21.76328659       5.97932053
H        9.19778824      21.04117584       4.72848082
O       23.37859154      10.26437092       8.17328262
H       22.94058609      10.04049873       9.01326847
H       24.10280800       9.62420273       8.03878498
O       22.78347588       6.52828121       1.00000775
H       23.13147736       7.34943819       1.39722204
H       23.35806084       6.38088608       0.22165638
O       30.22913170      30.00216103      27.79592705
H       31.11949730      30.14522362      27.39385986
H       29.80805397      30.87938690      27.80040169
O       23.15171432      12.42414665      24.76605988
H       23.80586243      12.36237335      24.03955650
H       23.62361908      12.15498734      25.58753014
O       13.41416645      29.21277046      19.10469055
H       13.86258888      28.58929634      18.50033379
H       13.38502026      30.04469681      18.59583855
O       22.28396416      14.06432152      13.18368721
H       22.95165253      14.22434521      12.48923016
H       22.68142509      14.44770813      14.00693512
O       28.83716202      23.84937096       3.49343204
H       29.39627838      23.79975319       4.29510546
H       28.04380798      24.35764694       3.76239777
O       27.13203239      22.72934723      12.14752293
H       27.61376953      22.69432640      11.29051399
H       27.04923058      21.79487038      12.41779900
O       12.80098152      23.00022888      29.79893303
H       12.54474354      22.84283447      30.73073769
H       13.27752590      23.85271835      29.79583359
O       27.99799728      13.42812061       0.93674564
H       28.72072983      12.78981495       1.08981943
H       28.00805473      14.00689030       1.72967207
O        3.27376294      23.04747581      22.25891495
H        3.64141607      23.38094711      21.40969086
H        3.43907619      22.08409500      22.20401955
O       13.51755619       8.55120659      15.46232033
H       12.93087578       9.22303009      15.87255287
H       13.81201077       8.90674591      14.59529686
O        2.40201950      16.45547867      12.10566235
H        1.56073463      16.23663139      11.67419338
H        2.18934107      17.14712334      12.77631664
O       24.31184578      24.19338226      13.93650341
H       23.72015953      23.57790184      13.46263409
H       23.84464645      24.42435837      14.75999069
O        7.38510418      17.30429649      18.22940445
H        7.39661932      18.05948448      17.60080528
H        8.21610260      17.43382072      18.72557640
O       23.19834328      18.54885674      18.52360916
H       24.00201797      19.03651619      18.78324890
H       22.58475876      19.26237869      18.25994110
O       16.19432831      19.41054535      27.01154900
H       15.21956730      19.49638367      27.08331299
H       16.40252495      19.33776093      26.05496407
O        5.27392864      11.51938438       1.26112008
H        5.66402769      10.65809536       1.50614178
H        4.31181860      11.41471863       1.34522367
O       12.39827728       3.65212250      11.40735722
H       11.54668045       3.31408381      11.06744862
H       12.59520149       4.52195501      11.01522827
O       19.54940987       1.17140186       5.70501232
H       19.56836700       1.99689507       6.26274490
H       20.45279503       0.79621643       5.78525591
O        1.31806934      12.37169647      14.83684158
H        0.65864170      11.68178940      15.05061722
H        2.03608274      12.27062893      15.52586842
O       27.95822525      14.55073643      29.75548172
H       28.07641602      15.46380138      29.42594910
H       28.36740303      14.51756096      30.64270973
O        0.63485891      16.19394875      16.15608025
H        0.22303087      15.44033146      16.62013626
H        1.26460719      15.79227543      15.52950573
O        2.32988071      30.77963066      10.67514229
H        2.39260936      30.02549171      11.29443836
H        3.25961733      30.99234962      10.46217728
O       16.28860855      30.67537498       6.31636620
H       16.21228790      29.83969498       6.81980991
H       17.21966553      30.95693779       6.44078827
O       21.98542786      14.36405373      30.47590256
H       21.80310249      13.75783730      29.73310852
H       21.58018112      15.21885204      30.23347473
O       14.55342197      16.19646263      24.37857056
H       14.47596073      15.23150253      24.25849533
H       14.92911339      16.50128937      23.52081108
O       19.49278831      19.85595322      16.04509163
H       20.33744812      19.58960342      16.45322800
H       19.59040642      20.81633759      15.87411118
O       28.23726654      22.53505135       9.46028137
H       28.84022903      23.30826950       9.44984627
H       27.42746544      22.87185669       9.02855015
O        5.00578833      25.47946358       7.36743736
H        5.78659678      25.26742172       6.81797886
H        5.22154856      25.05089760       8.21950245
O        9.44546890       4.20865011       7.87503910
H       10.40986919       4.36572266       7.75204754
H        9.31867409       4.23502922       8.85762119
O        1.98925102      25.39611244      12.85469437
H        2.94044018      25.34649277      13.07939243
H        1.65202713      26.09676743      13.43740940
O       28.35378456       0.80200183      12.13529682
H       28.11241531       1.73921573      12.28594780
H       28.10183525       0.31977153      12.94469738
O        6.47550011      14.13001633       1.07510793
H        5.81543446      14.79553223       1.36106253
H        5.94241238      13.33330154       0.85798419
O        3.79874849       9.49755573      21.86111832
H        3.51246262       8.58110809      21.65913391
H        4.58330917       9.37651825      22.44785309
O       30.60365486       3.50356722      28.71352196
H       30.59848022       3.62195158      27.73830986
H       31.48580360       3.13330817      29.06628990
O       20.09538078      11.90130901      17.38789558
H       20.66441154      12.46236801      17.96082878
H       20.67134666      11.39728642      16.77207947
O       24.03136635      13.58109474      22.35640144
H       24.64796066      14.23186111      21.94254112
H       23.37926674      13.37756157      21.65228271
O       15.93029594      16.16425323      18.12538338
H       16.13197708      16.62999153      18.96369171
H       15.94761848      16.87864876      17.45696259
O       11.80932617       6.57175255       0.78638017
H       11.01576138       7.01659346       0.42935482
H       12.52789307       7.22373533       0.67454433
O        9.75411797      18.83090591      11.22438812
H       10.12997437      19.07057190      12.09445286
H        9.67971611      19.67699242      10.74914265
O       18.49782944       2.80811310      19.72972870
H       19.27647018       2.48698664      20.22815514
H       17.95211411       2.02089953      19.54977798
O        9.15235138      27.82592010      25.31117821
H        8.21650791      27.91908455      25.55457306
H        9.20353317      27.52832603      24.37231255
O       24.11878014      14.77665138       1.60045958
H       23.46416283      14.11515141       1.88533664
H       24.95822144      14.29373932       1.47002256
O       29.71625137      27.50891685       3.05756283
H       29.13917351      26.99036980       3.65058947
H       29.38010597      28.42924309       3.08168530
O       28.14726639      29.95405769      24.90607071
H       27.28031349      30.38789368      24.75611877
H       28.87133598      30.58379364      24.73017502
O       29.44132042      16.28187752      26.48765182
H       28.47805214      16.46597672      26.54808998
H       29.85367012      17.16143417      26.36850357
O       25.38418007      25.13657761      24.76263046
H       24.77332878      24.52317429      25.22448921
H       25.84073257      24.56246185      24.11559677
O       10.84911823      13.35042667       1.47618496
H       11.55972481      13.37166691       2.14366245
H       11.26419067      13.54735661       0.61603230
O       18.75810814      10.33631039       5.08338928
H       17.94610214       9.79654789       5.09346247
H       19.47564697       9.77758026       5.45583248
O       22.24488449      20.48127747      16.82682037
H       22.57669640      20.01713562      16.03488731
H       22.39094925      21.43422508      16.66484070
O       11.46718788       3.48213124       1.37580025
H       11.63295555       3.75071692       0.44222817
H       10.84234428       2.73474240       1.31685030
O       17.94903755      19.42617798      24.51239586
H       17.78429604      18.62029076      23.97672081
H       18.27397919      20.11335754      23.87066841
O        9.61199951       4.09880829      10.77645206
H        8.80400944       3.83328247      11.25281620
H        9.96290588       4.88661814      11.25395870
O       25.72438240       8.46247196      17.49919128
H       25.16901779       9.25967979      17.66923141
H       25.91989899       8.52349758      16.54405975
O        6.16378164      29.90383530       0.15763296
H        5.23569822      30.19178200       0.02217268
H        6.33598137      29.94001389       1.12184560
O       18.10239029      12.97589588       5.36199379
H       18.73410034      13.71053219       5.19665003
H       18.59770203      12.11062241       5.34668398
O       18.74535179      10.04620838       0.24558516
H       18.23888779       9.77576351       1.03283310
H       19.50267982      10.56063938       0.59092700
O        6.06978321      26.13378716      22.82493019
H        6.95384026      26.55163956      22.87752342
H        5.99103022      25.84508896      21.89738274
O       17.79589272       3.60598016      16.33890724
H       18.43485832       3.51938415      17.07984543
H       17.22246170       2.80991316      16.34673309
O        3.24850345      27.85811806      22.96436882
H        4.08779716      28.35757065      22.91289520
H        3.21055269      27.31070518      22.15349770
O        1.22554100      14.08986759      21.78099632
H        1.97037649      14.57785034      22.18874550
H        1.23905218      14.33012199      20.83275032
O       14.38597393      26.00932312      28.80182266
H       15.20062447      25.46894836      28.78937531
H       14.74776363      26.92086029      28.77487564
O       19.07904816      15.29905701       8.91686821
H       19.91965294      15.69368649       8.58699799
H       18.97646713      15.51299953       9.87023926
O       23.65114021      25.21480370      30.24045753
H       22.74944878      24.85557175      30.14347649
H       24.00253868      24.72511673      31.00828362
O       20.30809021       8.26712322       2.64776111
H       20.64814758       7.84833241       1.83651209
H       20.90389442       7.97053719       3.37175250
O       13.45184898      29.75280762      22.24913216
H       14.04808807      28.97267723      22.20595169
H       12.90475941      29.64838791      21.44968414
O       30.34303856      11.81985855      10.55352211
H       31.23306084      11.83781910      10.15772724
H       29.75748825      12.31787777       9.95368385
O       24.18341255       3.90794110      25.14141464
H       23.37342834       3.66503596      25.62051010
H       24.75735855       4.37347126      25.77661896
O        1.21205020      10.76555443      11.94729233
H        1.40605175      11.19007874      12.81229877
H        2.08739424      10.56340122      11.55895805
O       15.25533009       8.47409439      23.33573914
H       15.91219902       9.19038200      23.24110603
H       14.37742043       8.89377117      23.26789474
O       24.97587204      28.35372162       5.66984987
H       25.33206177      29.21758080       5.95974207
H       24.35051346      28.09272575       6.37497807
O       15.81156254       1.71799195      15.46331692
H       15.24856949       2.38123870      15.00597763
H       15.37472725       0.84886104      15.34329891
O        3.21416283       6.87136459      19.91275787
H        3.70716119       7.60986614      19.50854492
H        2.30868649       6.86343431      19.49576569
O       16.66932487      16.58543968      14.48221397
H       15.96142197      17.14958382      14.88457108
H       17.50317764      17.09427071      14.55394363
O        5.91031599      29.44740868      23.21619797
H        6.22308493      29.68079185      22.31867981
H        5.80204678      30.29230690      23.69251251
O       22.04615021      12.79283428       9.31997967
H       21.68989754      12.80074883       8.40717697
H       21.52630234      13.41541004       9.86165714
O       18.37097359       1.13748586      10.32299709
H       18.33880424       1.85753012       9.66537857
H       18.45895767       0.29460591       9.81664371
O       20.62129021       6.92453909      17.27231789
H       20.38264465       7.47781324      18.03896332
H       19.88617325       6.29986048      17.10982132
O       28.48288536       4.36819315      12.43972778
H       29.45704460       4.36090708      12.35175133
H       28.28131104       4.68170834      13.34652424
O       30.18406677      31.12163353       8.53192425
H       29.68765450      31.83182526       8.98499680
H       29.49074936      30.48334503       8.26883316
O       29.22021866      14.84745789      17.75108528
H       28.97242737      15.67490768      18.20803833
H       28.36042786      14.39559269      17.66163445
O        5.28187370      17.49741173      23.52157402
H        4.54972887      17.11593819      24.03478050
H        6.10655642      17.16920662      23.94023895
O        5.44709396       2.72104979      18.72650909
H        6.32883835       2.50158954      18.35866165
H        5.53715229       2.56377411      19.68352509
O       13.89886379       6.61535501      10.86517239
H       13.10669136       6.82665300      11.40014362
H       13.94917870       7.31591845      10.18397808
O       28.65465355       7.09639835      18.30769157
H       28.62492943       7.31320286      19.25756073
H       27.74027824       6.87939930      18.04963303
O       13.77968884      27.86783600      13.39166355
H       12.88869190      27.46586990      13.36805630
H       14.18194389      27.61549568      12.54099560
O       23.63551712      14.04959774      15.73820972
H       24.34561348      14.66349411      16.00903702
H       24.04812431      13.28812504      15.29406643
O       23.06379318       5.25696135      22.93163300
H       23.50661850       5.27698231      23.80456161
H       22.15552902       5.60244131      23.04500389
O       16.07707787      12.58660603      27.85192108
H       16.69948196      11.87124062      27.61075783
H       15.26745701      12.37503242      27.35142708
O       12.49447441      21.06336975       5.37347126
H       11.63803291      21.07780457       5.84604836
H       13.13123703      20.65726280       5.99875689
O       19.74971771      17.30393410       0.89365518
H       19.98372078      17.90874100       0.16103533
H       20.37117577      17.61039925       1.59360826
O       22.78718567      30.17575455       9.02589798
H       23.53643799      29.67796516       9.41079617
H       22.24519157      29.48349953       8.60317516
O       21.60870743       7.83724833       5.40671301
H       21.81931686       6.92055464       5.70153618
H       22.45988274       8.30802441       5.51422501
O       26.66679382      30.06834221      17.49011421
H       25.91701126      29.73907661      18.01808548
H       26.42880821      31.00574493      17.23208809
O        4.67529774      22.72063446      19.91970444
H        5.34465647      23.28488350      19.48983383
H        3.91808367      22.73760414      19.28912163
O        0.92760730      21.58745956      23.29955292
H        0.36252168      21.18516350      22.61718941
H        1.28259254      22.40368271      22.89024925
