1028
Lattice="27.200000762939453 0.0 0.0 0.0 27.200000762939453 0.0 0.0 0.0 27.200000762939453" Properties=species:S:1:pos:R:3 pbc="T T T"
Na      21.29551506       4.93507051      10.98235226
Na      22.76794624      21.31939316       4.03887272
Na       5.78284931      11.50342274      16.46009827
Na      14.71739197       6.44379711      10.87457275
Na      13.38195324      25.25465393      17.08388138
Na       8.49439716      21.32180023      11.10194969
Na      10.76369286      10.86976147      18.90158463
Na      22.84823227      25.80691719      11.44063759
Na      22.49810600       7.25812960       7.49268484
Na       8.36856270      23.10446167      23.89492607
Na       2.02680278      27.53471756       3.60141754
Na       5.39620829      23.18587303      16.70786667
Na      18.18969727       3.37340546      18.65128899
Na      13.64986706      19.08867264       4.85514975
Na       3.04359102      10.48568726       1.80288827
Na      15.19821358      16.99493790      -0.73877937
Na      13.83793736       2.20295286      20.97723579
Na       3.62383485       8.77623081      15.41339111
Na       7.24953699      10.39929962      26.39547920
Na       8.04769516       7.30623436       9.63496780
C       10.44379520      12.61148071       4.51383638
N        9.87095928      12.80895710       3.11565828
C        9.07913494      11.58384228       2.61119723
C        9.88150978      10.26313686       2.65295839
C        9.36481953       9.24941540       1.58262467
C        8.93586063      14.07622337       3.09736109
C        9.64798069      15.10252666       2.19110537
C       10.59956932      14.29650497       1.27380347
C       11.04662514      13.07286453       2.11024499
H       11.15947247      11.78158283       4.47892714
H       10.95455074      13.54116058       4.82094336
H        9.62470245      12.38072491       5.21399546
H        8.17332363      11.53923988       3.24067330
H        8.76811028      11.83218288       1.58163774
H       10.96231747      10.40835285       2.48056936
H        9.80981445       9.83017349       3.66275620
H        9.53427792       9.65024757       0.56830436
H        9.95729542       8.32585621       1.67955685
H        8.30578804       8.98554897       1.74092007
H        7.95079994      13.79403782       2.69035578
H        8.80896854      14.43814945       4.12708712
H        8.90706635      15.67116261       1.60183263
H       10.19192696      15.84153175       2.79672885
H       11.48981953      14.88873863       1.00665855
H       10.14213753      13.98193550       0.31903037
H       11.95186138      13.28526306       2.69475365
H       11.21781540      12.18237686       1.49088013
C       25.07865524       2.33741283       4.71863174
N       24.41427040       3.49072480       3.94280505
C       23.13633537       3.01039267       3.14793897
C       23.29784584       1.64701378       2.44803739
C       22.14991188       1.37984455       1.43826675
C       24.03533745       4.63640308       4.93628788
C       25.27436638       5.53413916       5.08454418
C       26.11578369       5.29318428       3.79114985
C       25.48825645       4.11166477       2.99259329
H       25.46069145       1.60571623       3.99203753
H       25.88905525       2.78040624       5.32165718
H       24.30741310       1.87518847       5.35203171
H       22.31550980       3.03431296       3.88681006
H       22.91794968       3.80892348       2.42071867
H       24.26867104       1.59345341       1.91862798
H       23.30268097       0.84593904       3.20623207
H       22.13981819       2.10481906       0.61177921
H       22.30039787       0.39203358       0.98954153
H       21.16255188       1.38284624       1.91880667
H       23.19066238       5.18130398       4.48291302
H       23.69029427       4.20741701       5.88965130
H       24.97181702       6.59019661       5.18391800
H       25.84955025       5.28627348       5.99058342
H       27.15364647       5.03648663       4.04593611
H       26.13495255       6.19675112       3.16285443
H       26.23022270       3.34545541       2.73334694
H       24.98842812       4.42893267       2.06699300
C        5.76578856      20.09742928       4.40132666
N        6.03661633      18.88368034       5.27049494
C        5.96292114      19.31856537       6.77291155
C        7.08409405      20.30002403       7.21067905
C        7.78634119      19.84066391       8.53664398
C        4.96167946      17.76768684       4.96113777
C        5.67237043      16.73269272       4.03749704
C        7.18873787      16.82217598       4.36705160
C        7.43228006      18.24105263       4.94567871
H        6.51371574      20.86525536       4.64150333
H        5.82094383      19.81004333       3.33927846
H        4.75611401      20.46833611       4.64657640
H        4.94889975      19.71311188       6.93913269
H        6.04320621      18.38128281       7.33891439
H        7.85659790      20.41689110       6.42493296
H        6.67265797      21.31900215       7.34711647
H        8.03741646      18.76778221       8.49012375
H        8.73451614      20.38866043       8.67150593
H        7.09404659      19.95101929       9.39640713
H        4.67962456      17.33415413       5.93227005
H        4.06351995      18.25275803       4.54016638
H        5.28730917      15.72488308       4.23335361
H        5.49900007      16.91640282       2.96255755
H        7.77341461      16.66975212       3.44367528
H        7.50486898      16.05448532       5.08890486
H        7.93559694      18.86985970       4.19479799
H        8.04104614      18.22313309       5.85633326
C        7.36718464      12.37131882       8.85997009
N        7.91047859      12.94592285      10.13341141
C        9.48086262      12.97851181      10.09085274
C       10.17553806      11.64673328       9.69972134
C       11.67442417      11.88466358      10.07044220
C        7.35277367      14.38694477      10.34358215
C        6.33247709      14.33295155      11.50662422
C        6.67656136      13.06278229      12.31325912
C        7.45228243      12.10304928      11.37448597
H        7.65461445      11.31092262       8.75676632
H        6.26256990      12.44412899       8.85643482
H        7.77358961      12.93017387       7.99030018
H        9.72186089      13.76044750       9.35004902
H        9.78330326      13.34205246      11.08972454
H        9.77802944      10.77228928      10.24648285
H       10.07274437      11.40991783       8.61723804
H       11.78159142      12.32610226      11.07582092
H       12.26097488      10.95394802      10.02911568
H       12.11002827      12.59634399       9.34868526
H        8.17278004      15.08231735      10.59085178
H        6.90437269      14.70435143       9.38338470
H        6.43976641      15.24367809      12.11131191
H        5.29647636      14.34325790      11.13819313
H        5.75632906      12.59694099      12.70719147
H        7.29995775      13.33156967      13.18151569
H        6.88281488      11.25075436      10.96703911
H        8.35724354      11.70068169      11.85319519
C       19.74478531      24.43220901       9.34428978
N       19.74124336      24.05163193       7.87683249
C       21.08881187      23.35754967       7.50451422
C       22.33531570      24.14437675       7.96460533
C       23.59032249      23.69967651       7.17707109
C       18.55023193      23.10637856       7.54011011
C       17.39812088      24.05816460       7.18973446
C       18.11569405      25.11640167       6.34431314
C       19.51092911      25.30767250       7.01243734
H       20.41397667      25.29187775       9.49144840
H       18.72434807      24.72397041       9.65145206
H       20.08527374      23.56883240       9.93649960
H       21.05590248      22.37106514       7.98587608
H       21.06751823      23.20468521       6.41222620
H       22.20082664      25.22806549       7.81172943
H       22.48904228      23.99544525       9.04645157
H       23.56015587      24.06949043       6.14173841
H       24.47752190      24.13911057       7.66207647
H       23.72259712      22.60658836       7.14088345
H       18.83938217      22.50118446       6.66304970
H       18.35042572      22.46768379       8.41173172
H       16.60780907      23.53225899       6.63872576
H       16.91589355      24.48940277       8.08440495
H       17.59335136      26.08524895       6.30875301
H       18.23992348      24.76570702       5.30762911
H       19.53437424      26.20378685       7.64920235
H       20.31749344      25.38475609       6.26275253
C       14.60262012      19.87974930      16.68696213
N       13.65521336      20.31984520      17.79082108
C       14.31301880      21.33578300      18.75068855
C       15.67971706      20.89163017      19.31296730
C       16.03283691      21.78006935      20.54026413
C       12.39227867      20.99998093      17.14969063
C       11.34982204      19.88323212      16.96281815
C       11.65621853      18.86913681      18.08417892
C       13.12771320      19.06637192      18.55971909
H       15.42128563      19.25562286      17.08197212
H       14.04243851      19.27136612      15.94675541
H       15.00831127      20.78204536      16.18556976
H       14.42010880      22.25605392      18.15184021
H       13.57986069      21.54591751      19.54862022
H       15.64973736      19.82708931      19.59551620
H       16.45924377      20.96950912      18.53008652
H       15.35640335      21.57593918      21.38592148
H       17.06563568      21.58878136      20.87077332
H       15.93806553      22.84942627      20.28665543
H       12.02048492      21.78238106      17.83691978
H       12.68977737      21.45652580      16.18858910
H       10.34540176      20.31857681      17.04734039
H       11.35885239      19.45260048      15.94839764
H       11.52062988      17.84919357      17.69754601
H       10.95932674      18.98726845      18.92727470
H       13.75471210      18.20707321      18.27582741
H       13.21607113      19.26212120      19.63992310
C       16.75015450      24.68208122      17.69668007
N       18.08865356      25.20231438      18.19084740
C       18.77167892      25.93804741      16.97180939
C       18.75959969      25.08181000      15.67468643
C       19.93404579      25.47641373      14.73515129
C       17.88407135      26.20759392      19.35362816
C       18.53798485      25.61955643      20.61260223
C       19.32153511      24.35708618      20.16306305
C       19.01683998      24.05397224      18.67823410
H       16.89674759      23.88163757      16.95233536
H       16.18997955      24.30590439      18.56825638
H       16.20770454      25.53680229      17.25260544
H       18.21392822      26.88023949      16.84801674
H       19.79072762      26.17103004      17.31547165
H       18.86885452      24.00456429      15.87526989
H       17.78979111      25.21166039      15.15077591
H       20.88056946      25.08550072      15.14958572
H       19.81884193      25.00224304      13.74280071
H       20.00069427      26.56504440      14.59861088
H       18.35419273      27.15697670      19.06055832
H       16.80334473      26.40442467      19.44335938
H       19.20225906      26.38098907      21.04939842
H       17.76989937      25.40149689      21.36965561
H       19.03562927      23.48041153      20.76577377
H       20.40626907      24.48043633      20.29385185
H       18.46771431      23.11459923      18.49741173
H       19.91710663      24.02724266      18.03932571
C        4.59072399       6.51908112       6.85954857
N        4.15860605       7.64922047       5.93971109
C        5.42313766       8.44673443       5.51704931
C        6.28774166       8.91732597       6.70544910
C        7.40651512       9.80367565       6.07773209
C        3.46403146       7.07932329       4.66485500
C        1.96925497       7.41701221       4.81528807
C        1.99208176       8.73721886       5.60730600
C        3.14253163       8.58569431       6.63951635
H        4.87285995       6.93624687       7.83689308
H        3.70650911       5.87203074       6.97698355
H        5.39920425       5.95283699       6.36896181
H        5.99882317       7.79792738       4.83821440
H        5.02982807       9.28593731       4.92258120
H        5.73832560       9.46071339       7.49617767
H        6.77359486       8.05295849       7.19060135
H        6.98563528      10.72453880       5.63556051
H        8.15760326      10.07910252       6.83453703
H        7.93395138       9.24769592       5.28130960
H        3.83581543       7.59925318       3.75330448
H        3.67912245       6.00915909       4.55562687
H        1.52499592       7.52630806       3.80956578
H        1.40653729       6.62736607       5.34130383
H        1.04970205       8.97607613       6.11595011
H        2.19225907       9.58093452       4.92652178
H        2.79692054       8.12333107       7.57514238
H        3.59795809       9.55193233       6.91881657
C       12.61817741       2.35821533      11.89277840
N       12.64479351       2.00710249      13.34100628
C       14.10598278       1.92598212      13.81123066
C       15.01170826       1.03949678      12.91080952
C       16.12925720       0.42178190      13.79583454
C       11.87856197       3.10127544      14.14051914
C       10.39852428       2.64656353      14.07760811
C       10.42433739       1.10558593      13.93385887
C       11.87889099       0.67887872      13.55738068
H       13.06874657       1.56979680      11.26864433
H       11.57293415       2.48161840      11.55833912
H       13.16291428       3.30397224      11.73938370
H       14.46404076       2.97165847      13.84467506
H       14.05358696       1.55786467      14.84391308
H       14.45869541       0.23213299      12.39795589
H       15.45282459       1.63877201      12.08955860
H       15.68148422      -0.23234318      14.56797981
H       16.81678200      -0.19472545      13.18910885
H       16.71232224       1.21103191      14.29663944
H       12.26756859       3.20993567      15.16903496
H       12.01105690       4.05858898      13.60374355
H        9.86890697       2.98739791      14.98080444
H        9.88829327       3.11907339      13.21970654
H        9.73639297       0.72775722      13.16203880
H       10.11932564       0.61475676      14.87471104
H       11.93725204       0.06690916      12.63829803
H       12.37408066       0.12250202      14.37015915
C       20.83258438       6.24787760      17.26765442
N       22.21121216       5.57260752      17.32479095
C       22.60867882       5.12010527      15.87913799
C       21.58852577       4.22487068      15.14396191
C       22.21352577       3.64615989      13.85261250
C       23.25448036       6.59322309      17.90069008
C       23.67982101       6.09930706      19.30594635
C       23.26750183       4.60634375      19.37804413
C       22.19599724       4.36016464      18.28734398
H       20.07660484       5.51535320      16.95210457
H       20.57798958       6.64931631      18.25929642
H       20.86297989       7.07594299      16.54092979
H       22.73986244       6.05163431      15.31136608
H       23.59037971       4.62910032      15.96978951
H       21.22007370       3.41589952      15.79644775
H       20.70996284       4.84175062      14.88149834
H       23.08683777       3.00704360      14.04183578
H       21.50774002       3.00663662      13.30359840
H       22.55893326       4.45879316      13.19674110
H       24.08953667       6.61786413      17.18407059
H       22.76722908       7.57914400      17.93818665
H       24.76803207       6.21368933      19.42196465
H       23.19244957       6.68885803      20.09501266
H       22.85705566       4.36730194      20.36585999
H       24.12435722       3.94138789      19.20335197
H       21.17759132       4.29496574      18.69632912
H       22.38633728       3.46464157      17.68106461
C        7.87240267       5.47329140      14.25513363
N        8.23953247       6.79438257      14.90605736
C        8.97332478       7.66366100      13.83174038
C       10.14603901       6.92359018      13.12477589
C       10.72679615       7.85030317      12.01093102
C        6.97204208       7.52162790      15.37254429
C        6.99560070       7.59866142      16.89960670
C        8.44801140       7.32105780      17.31725883
C        9.13962269       6.59927511      16.13641739
H        8.76680183       4.84071112      14.16450214
H        7.12259293       4.98594427      14.90122604
H        7.43838787       5.63701010      13.25724125
H        8.20857143       7.94666767      13.08823299
H        9.29458046       8.57295322      14.36631870
H       10.95772839       6.68059015      13.83268833
H        9.82094765       5.98883820      12.63509560
H       11.31113529       8.66604519      12.45979309
H       11.37359810       7.26699162      11.33372784
H        9.94115353       8.32723618      11.39175129
H        6.92870426       8.52539158      14.90748978
H        6.08379412       6.99015760      14.98433399
H        6.66416740       8.58051205      17.26390076
H        6.26944828       6.89553070      17.33126831
H        8.49064064       6.71077681      18.22446823
H        8.96028996       8.27396011      17.51928711
H        9.25081444       5.51451588      16.28672600
H       10.13630199       7.02978802      15.93190193
C       24.54564095      19.71729469       8.27804852
N       24.23839188      19.61211586       9.76121807
C       23.59344673      18.21826363      10.00794411
C       22.36993599      17.86333847       9.11815929
C       22.12971306      16.36408043       9.40342617
C       25.55345726      19.70689392      10.58598328
C       25.42358208      20.91291809      11.55557728
C       24.04066467      21.58016396      11.31602859
C       23.31121063      20.78062820      10.21807766
H       23.61067581      19.75300789       7.69893885
H       25.10391045      20.65678406       8.13533878
H       25.15993118      18.86787987       7.93423223
H       24.40827560      17.50335884       9.82291603
H       23.33552742      18.22662735      11.08195877
H       21.47827911      18.47411537       9.36064434
H       22.56773567      17.97917747       8.03697395
H       21.99244690      16.16889572      10.47801304
H       21.19997025      16.04779243       8.91683006
H       22.93943596      15.73547077       9.00187111
H       25.69673347      18.75883675      11.12150383
H       26.38593292      19.79422188       9.86783028
H       25.53284454      20.57877159      12.59805489
H       26.22817993      21.63600349      11.35285473
H       24.15398026      22.62611580      10.98370266
H       23.43554688      21.59825897      12.23168468
H       23.11361885      21.37831306       9.31072998
H       22.34603882      20.37617874      10.56200218
C        4.54462481      24.20900345      20.15375900
N        4.09295082      22.98061943      20.96401596
C        3.85774493      23.44326973      22.44414139
C        5.04022884      24.25054932      23.03531456
C        5.21992683      24.08197021      24.56183624
C        2.81419683      22.38850212      20.30880165
C        3.25813556      21.16125679      19.49266815
C        4.67653513      20.75397301      19.98282623
C        5.19356108      21.86327934      20.91548157
H        5.59022522      24.46298409      20.36479759
H        4.44161463      23.96997261      19.08451653
H        3.88321900      25.04716492      20.41406441
H        2.93654704      24.04493332      22.41949081
H        3.66527081      22.53398705      23.02483749
H        5.97594070      23.97858429      22.51730728
H        4.89573669      25.32425690      22.81227493
H        5.48386097      23.04651833      24.82209969
H        6.01796961      24.76068306      24.90212822
H        4.32215548      24.35263634      25.13451958
H        2.10980487      22.15207100      21.11917877
H        2.34220433      23.16898918      19.69186783
H        2.54480338      20.33925438      19.61026192
H        3.29613185      21.40574455      18.41757393
H        5.34087849      20.63872528      19.10795403
H        4.65010500      19.77531242      20.48065948
H        6.11735725      22.31318092      20.52640533
H        5.36694431      21.55034065      21.94981956
C        3.48566127      17.86548615      15.84201527
N        3.29181933      18.63470078      14.54493141
C        2.04402733      18.11862564      13.76016998
C        2.14579654      16.61310768      13.42896366
C        1.16815639      16.27191734      12.26170540
C        3.13771939      20.13633728      14.90352058
C        4.49843597      20.78286171      14.60034370
C        5.27428913      19.84776878      13.63967323
C        4.55689383      18.48463249      13.63591385
H        3.89197493      16.87474632      15.58596325
H        4.20620728      18.41548157      16.46603584
H        2.50593710      17.77147293      16.33576775
H        1.15960062      18.37350464      14.36898613
H        1.99454951      18.70215225      12.82325459
H        3.17670250      16.32893181      13.14297771
H        1.89442408      16.02622032      14.32785034
H        1.42550290      16.81758308      11.34187984
H        1.20398176      15.19730377      12.03757668
H        0.12337779      16.51134109      12.53865242
H        2.34819102      20.57069397      14.27055645
H        2.84315801      20.25452423      15.95552444
H        4.31851435      21.77066612      14.15643883
H        5.07220221      20.94324684      15.52363014
H        6.31090832      19.70236588      13.98245716
H        5.33083439      20.24394417      12.61148548
H        5.20164299      17.68647957      14.02239704
H        4.21998978      18.18330765      12.63411522
C       18.12109566      10.72628498      26.00078201
N       18.80383873      11.23102188      24.74754715
C       19.05356026      12.76844597      24.89326286
C       17.74529839      13.53696918      25.26073456
C       17.85034561      14.99605274      24.74621964
C       20.17408752      10.50407600      24.60258484
C       20.00586700       9.39863586      23.53528023
C       18.80432701       9.82894993      22.66020203
C       17.97800446      10.88460636      23.45072937
H       17.06840706      11.05721760      25.99348640
H       18.16507339       9.63002396      25.98775101
H       18.62499046      11.12823391      26.89303017
H       19.82282829      12.88878441      25.67312431
H       19.48159027      13.07607651      23.92486000
H       16.84897423      13.05938148      24.82862091
H       17.59883499      13.54259968      26.35417938
H       18.00029755      14.99915123      23.64688492
H       16.90794945      15.54070091      24.95696259
H       18.69673920      15.53514481      25.20939255
H       20.93285942      11.22917461      24.26677322
H       20.45807457      10.12717628      25.59378052
H       20.91574860       9.35372066      22.91576958
H       19.84897232       8.41403389      23.99606514
H       18.14988327       8.98079967      22.42253304
H       19.14010048      10.24681950      21.69559860
H       16.98585892      10.51710033      23.75078583
H       17.81405830      11.80644894      22.86658669
C       13.17769051      21.00519943      23.04556084
N       12.99017429      20.72306442      24.52064896
C       14.25211525      21.16961479      25.31647491
C       15.57725716      20.62904930      24.74248314
C       16.67107201      20.99862099      25.76006699
C       11.78135300      21.51981735      25.07370758
C       10.64705372      20.50991631      25.27388954
C       11.29936695      19.11503220      25.31712532
C       12.70485878      19.20764923      24.70887756
H       13.91147900      20.30637932      22.60209465
H       12.22183609      20.86554909      22.51589584
H       13.52675438      22.04254913      22.94091225
H       14.24130726      22.26968384      25.28661537
H       14.08487606      20.85031319      26.35770798
H       15.55314255      19.53817368      24.57391739
H       15.78013897      21.09432983      23.75802994
H       16.54961967      20.38717461      26.66732979
H       17.66221237      20.78267097      25.32929802
H       16.65105629      22.06639862      26.03395653
H       12.08136654      22.04443550      25.98966026
H       11.50707817      22.29931259      24.34258842
H       10.07694149      20.75213051      26.18062592
H        9.92983341      20.57773209      24.44057465
H       10.70258141      18.38717079      24.76172256
H       11.36537743      18.73640442      26.34104538
H       12.83345890      18.69098663      23.74342346
H       13.46314049      18.82630348      25.39554977
C       25.29239273      14.88087654      17.00898361
N       24.27333069      13.88627148      16.41031075
C       24.72704506      13.41767311      15.02576923
C       25.02237511      14.58827686      14.03639126
C       25.07061958      13.99553680      12.58825302
C       24.14477158      12.69095421      17.40892410
C       22.88080215      13.00294971      18.23586082
C       21.92591858      13.77240181      17.29630280
C       22.83280373      14.56034470      16.32905006
H       25.24299240      15.80803204      16.42165184
H       25.00250435      15.10538578      18.04498482
H       26.29085732      14.42036724      16.97485924
H       25.63352776      12.79996777      15.14277840
H       23.92955399      12.78384972      14.60742188
H       24.27945900      15.40600300      14.12605572
H       26.01001549      15.01993847      14.28777599
H       24.10369110      13.56106091      12.29301167
H       25.30291939      14.78960037      11.86148071
H       25.85378456      13.23151684      12.48447037
H       24.08633614      11.77728939      16.79719162
H       25.05638504      12.66692448      18.02162552
H       22.40736198      12.07348919      18.57304573
H       23.12656212      13.59414387      19.12847519
H       21.29806328      14.46378326      17.87455559
H       21.25091553      13.09556198      16.75094414
H       22.93378830      15.60942364      16.64513588
H       22.50779533      14.50810051      15.27786064
C       16.59823799      18.92096329       2.20037508
N       18.10615921      18.87094116       2.32602668
C       18.62034416      20.27162743       2.70755315
C       18.23051834      21.31882668       1.63554788
C       19.06657600      22.59257317       1.92266953
C       18.47636414      17.86666870       3.44440031
C       18.88813019      16.58729744       2.68937635
C       19.17799377      16.91251564       1.20145190
C       18.76114082      18.38168716       0.99795800
H       16.30303574      19.56612968       1.35913575
H       16.22446632      17.90536499       2.01586342
H       16.14759445      19.30223465       3.12794900
H       18.22983742      20.53326988       3.70402455
H       19.71376801      20.16863823       2.77699661
H       18.42941666      20.94652748       0.61350536
H       17.15165901      21.55848885       1.65826845
H       20.14045143      22.36808205       1.85087430
H       18.82709122      23.35985374       1.16937733
H       18.86475945      23.01590729       2.92043185
H       19.30154419      18.27309799       4.04141426
H       17.60232544      17.71997452       4.09138680
H       19.75794983      16.13022423       3.17979360
H       18.08247185      15.84379101       2.76436520
H       18.62706757      16.25076675       0.50822908
H       20.24227715      16.80760574       0.94410372
H       18.03415298      18.49391937       0.17669080
H       19.62781715      19.01953888       0.77503377
C       20.38836861      17.44540596      22.65752983
N       19.44437408      18.52654076      22.13381767
C       20.20212364      19.87433052      22.07766151
C       20.73340034      20.34971046      23.45748901
C       21.21390915      21.81315613      23.22333527
C       18.93420601      18.16832924      20.70962334
C       17.54349518      17.55245018      20.89302635
C       17.00799370      18.08354759      22.24616051
C       18.16636276      18.71226120      23.05087090
H       20.59828377      17.62936592      23.71937561
H       19.85851479      16.49079323      22.52493477
H       21.29800224      17.44088554      22.03709412
H       21.00503159      19.75119400      21.33203316
H       19.47033882      20.58844757      21.66409302
H       19.99149704      20.33113670      24.27573204
H       21.58095741      19.72077560      23.77413177
H       20.40807724      22.45002937      22.81710052
H       21.54884911      22.25641251      24.17410660
H       22.04014397      21.84791565      22.49447632
H       18.88041878      19.08776855      20.09980392
H       19.65808487      17.49597931      20.22499466
H       16.88595581      17.82340240      20.05350113
H       17.58325005      16.45625687      20.86253929
H       16.51918983      17.29773521      22.83934784
H       16.22579193      18.84785271      22.08368874
H       18.33381844      18.20072556      24.00913429
H       18.02256584      19.78829575      23.24147606
C       15.91356182      22.01374817      10.52301598
N       16.42353630      21.94445038      11.93685722
C       15.47815514      22.69173241      12.91033077
C       15.11731052      24.14535713      12.49237537
C       14.03657627      24.71954918      13.44864464
C       16.57183647      20.45098686      12.34704304
C       18.00942421      20.03414536      11.91538429
C       18.84019089      21.29387474      12.23535538
C       17.87922287      22.49960899      12.02126980
H       16.02487373      23.03888130      10.13152790
H       16.45992661      21.29775047       9.88459778
H       14.84636497      21.74343681      10.48670483
H       14.55054188      22.09870911      12.95598221
H       15.94452858      22.69144821      13.90895462
H       16.00997162      24.79817963      12.52931595
H       14.73389626      24.17084885      11.45485592
H       14.44537735      25.01419258      14.43059444
H       13.58013630      25.59758377      12.96310329
H       13.20442390      24.01427269      13.61653042
H       16.45426369      20.40886307      13.44143486
H       15.76783180      19.90265465      11.83020306
H       18.34023666      19.17462158      12.51289654
H       18.07660484      19.70487785      10.85991287
H       19.71245384      21.38624382      11.56167030
H       19.21101761      21.29128647      13.26914978
H       18.03920364      22.98224449      11.04177666
H       17.92617798      23.26568222      12.80903530
C       18.36319733       3.16427088       5.85236454
N       18.01681328       3.96111846       7.09095860
C       18.28766060       3.18047667       8.40375519
C       17.60246468       1.80432403       8.43444538
C       18.15334702       1.04345715       9.67570114
C       18.85254669       5.28316307       7.11297083
C       17.82594681       6.45116138       7.18405390
C       16.49711800       5.81905222       7.59853125
C       16.53806496       4.42145205       6.99393511
H       17.63182449       2.34912467       5.73813629
H       18.28375053       3.83473754       4.97871494
H       19.38264465       2.74847722       5.92309141
H       19.38525963       3.08966064       8.46981335
H       17.94087219       3.83469176       9.22443008
H       16.50873566       1.89800215       8.52707767
H       17.77705574       1.21423495       7.51942348
H       17.93699455       1.57936180      10.61553001
H       17.64423752       0.06423491       9.73212433
H       19.24275398       0.87315959       9.63625622
H       19.49898529       5.29216290       8.00261593
H       19.48475838       5.30206013       6.20649958
H       18.16345978       7.20491219       7.90750551
H       17.74427986       6.94862747       6.20698738
H       15.63080692       6.38475990       7.23482037
H       16.38528252       5.81017828       8.69396973
H       16.28671837       4.43501759       5.92059898
H       15.86742210       3.70695591       7.49083424
C        1.78225732       4.96296310      19.98734093
N        2.42441797       5.83915138      18.92638588
C        2.89700127       4.97807789      17.72229195
C        3.93280101       3.91080427      18.15369225
C        4.44537067       3.16495132      16.89347458
C        1.42158806       6.93207026      18.45537376
C        1.71131015       8.17641354      19.30505753
C        3.23149824       8.11242962      19.57633972
C        3.63279009       6.63049698      19.54539680
H        2.57179976       4.60655499      20.65670776
H        1.05527365       5.57056808      20.54491806
H        1.27414119       4.13386106      19.48461151
H        2.00699544       4.52891493      17.24934196
H        3.34075356       5.66265631      16.97625351
H        4.77676010       4.37729216      18.68849754
H        3.48413515       3.20574594      18.86669731
H        4.99986649       3.84069753      16.22825623
H        5.10878325       2.35024452      17.21072197
H        3.63079786       2.71712351      16.30697632
H        1.63240469       7.13327312      17.38778687
H        0.40280053       6.52796078      18.53433800
H        1.44388998       9.07543373      18.73039055
H        1.11605859       8.22607899      20.22961807
H        3.53814292       8.56694126      20.52383232
H        3.75262547       8.66459465      18.77699089
H        3.88074565       6.24582434      20.53975105
H        4.49119616       6.45225477      18.88077545
C       12.26639175      16.86695290      14.43992424
N       12.40559578      17.01695633      12.94945335
C       12.74911880      15.65947342      12.28771877
C       13.94920921      14.93430805      12.94015026
C       14.52501774      13.86974716      11.94878101
C       11.13308620      17.63343048      12.32422829
C       11.26313400      19.15985680      12.51117611
C       12.78734016      19.38778305      12.27496910
C       13.53387833      18.04725647      12.63942909
H       13.23990536      16.61441040      14.88660336
H       11.91104603      17.80681419      14.90679073
H       11.53961754      16.06884193      14.66592598
H       11.82006454      15.06925011      12.27454567
H       12.95844555      15.88548660      11.23229599
H       14.74670219      15.65691757      13.20450497
H       13.62392902      14.45420742      13.88109779
H       14.92627811      14.32069492      11.02702522
H       15.34548664      13.30250454      12.41748428
H       13.77181244      13.13173103      11.63687420
H       11.12461281      17.37960243      11.24627876
H       10.22297668      17.22064590      12.78257179
H       10.65581703      19.68431282      11.74950314
H       10.90356731      19.52253151      13.49282360
H       13.17108440      20.22683144      12.88034344
H       12.95269775      19.63209915      11.20373726
H       14.20414734      18.14556885      13.50661469
H       14.11079788      17.66655922      11.77559185
O       22.94437027       1.89562571      16.11152649
S       24.24877548       1.38357031      16.51174927
O       25.06728172       2.33921051      17.22690010
N       24.97466469       0.56243873      15.46271896
S       25.38325119       0.17183328      14.01698112
O       24.27845192       0.22624221      13.06406784
O       26.19071198      -1.01351571      14.00861740
F       26.31108284       1.38233173      13.61118126
F       23.89129829       0.32916176      17.61951637
O        3.79702663      16.77370071      10.92045593
S        4.64092445      17.52195549      10.01229572
O        5.92311859      17.92013741      10.57401752
N        3.95211601      18.58673286       9.08081436
S        2.85848999      19.59724617       9.63693237
O        1.69082487      19.05343056      10.29957390
O        2.65623212      20.62725258       8.65242481
F        3.59882712      20.37272453      10.84564495
F        5.06433821      16.51089478       8.91033363
O       11.74853897      21.03123856       7.34899569
S       12.55775261      21.61443138       6.31343031
O       12.08243942      21.50301933       4.94554281
N       14.10490704      21.21399498       6.34195566
S       14.94416714      20.46449661       7.44015551
O       14.35966015      20.15911484       8.72473431
O       16.30834961      20.95159340       7.43500137
F       15.15880680      19.00965309       6.77059841
F       12.62050533      23.15719414       6.59178877
O       19.01733017      13.66986465       5.06384277
S       17.91596031      14.41368294       5.62792540
O       17.95578384      15.85005093       5.39210224
N       17.42421150      14.00324059       7.05277681
S       18.00908470      14.44503403       8.43301678
O       19.31887054      15.05110168       8.36512852
O       17.77994347      13.43087864       9.43866062
F       17.06607056      15.64377022       8.89594269
F       16.65951157      13.95269871       4.76978779
O        1.95243669      14.72373104       0.19115660
S        2.39181900      13.33967018       0.16876021
O        2.11681867      12.63364601       1.45498776
N        3.72541618      12.96721268      -0.47772190
S        5.31732273      12.66170597       1.03245485
O        5.68329763      13.96919727       1.65873444
O        6.36334991      12.23076057       0.03075402
F        3.84945154       8.38937187       2.08799052
F        1.29351699      12.64383793      -0.78464341
O       15.21620941       1.91842031      18.89638329
S       14.65350723       2.15315652      17.57246971
O       14.41728783       3.48850274      17.10247040
N       13.51367378       1.11569762      17.14223099
S       12.10679913       1.04330242      17.84338760
O       12.08824539       1.45413470      19.22625732
O       11.54440022      -0.25509810      17.51932716
F       11.19004631       2.07977962      17.08564949
F       15.76283169       1.55728495      16.61727715
O       22.29203606      20.18104553      13.47926331
S       21.39442825      19.43523598      14.34301662
O       20.19327164      18.94610977      13.70489311
N       21.21281052      19.99590874      15.81721497
S       20.07368279      20.96696663      16.23764229
O       19.76055717      22.04052734      15.30686188
O       20.14916611      21.30702019      17.62860680
F       18.71035004      20.10803795      16.15296745
F       22.22780991      18.18037796      14.71324348
O       21.63965607      19.13758469      19.14110756
S       22.24852562      17.87693977      18.77528191
O       22.08564949      16.82164764      19.76268959
N       23.60750580      17.85865593      18.00147438
S       24.96903992      18.34992981      18.66921043
O       24.86430740      19.37466049      19.67435837
O       25.98865318      18.42808342      17.64560318
F       25.40463066      17.02598763      19.51189232
F       21.34774971      17.36665916      17.57059288
O       24.44496727      18.37493515       0.85035342
S       23.37358665      17.82064056       1.63583815
O       22.05837059      18.42358780       1.49300134
N       23.80700302      17.61246872       3.12450528
S       23.18272781      17.87308693       4.50320673
O       23.30766678      19.26399803       4.96596050
O       23.57040024      16.91162682       5.49451780
F       21.59153557      17.76947212       4.37652922
F       23.20360756      16.34670258       1.11072588
O       16.58959961      10.19037342      13.31621265
S       16.31320572       9.38853741      12.15384197
O       15.57669640       8.14477253      12.39016819
N       17.47883797       9.22924995      11.12160492
S       18.64625168       8.21413326      10.92951393
O       19.44393158       7.87689829      12.08453465
O       19.35705185       8.46568775       9.69464111
F       17.90937996       6.79355192      10.58802700
F       15.29633522      10.26723385      11.33106327
O       22.20176888       1.30760479      10.48363018
S       22.86939240       2.03375316       9.41755772
O       22.48736572       3.44092774       9.34320354
N       22.98787880       1.32813585       8.05242443
S       21.88266373       1.02859235       6.98042345
O       20.55046844       0.92413765       7.53324318
O       22.34167862      -0.02594281       6.12352800
F       21.87304688       2.38128424       6.15858412
F       24.36309433       2.03907490       9.80792141
O        4.43071604       8.57545567       9.50443172
S        3.68038034       8.27237511      10.70909882
O        3.85152221       9.20116425      11.80600166
N        3.79767489       6.77900887      11.18418694
S        5.17682981       6.21594715      11.63057041
O        6.18048668       6.03378153      10.58860874
O        5.03417778       5.20312452      12.64780331
F        5.85362577       7.42705202      12.47557449
F        2.18123674       8.25472450      10.30033875
O       14.00110531       5.07168674      24.09279442
S       15.04284668       5.93473864      23.57313538
O       14.68052197       6.96705675      22.63225174
N       16.40863609       5.20466137      23.22707367
S       16.65458870       4.23981333      22.06448174
O       15.47078991       3.91291094      21.26967812
O       17.52326012       3.13337445      22.38903618
F       17.55055237       5.08385658      21.02969551
F       15.61607552       6.74107409      24.82088280
O       21.16946793       5.86878014       3.41251683
S       20.80399704       7.14123058       2.79702592
O       21.12879753       8.29949570       3.61869597
N       19.42934608       7.16771698       2.07630968
S       17.94894981       7.11193895       2.58515286
O       17.71851730       6.19710112       3.68941402
O       17.03254128       7.08832836       1.47224927
F       17.77305984       8.55042362       3.24667645
F       21.78389359       7.25563860       1.57309031
O        1.93985307      18.37886429       6.28655195
S        0.85831904      17.42541122       6.41467285
O        0.20173256      17.36529922       7.70470905
N        1.10319781      16.06334496       5.67976475
S        1.98584330      14.84416199       6.12448311
O        3.21058178      15.20554638       6.80881119
O        2.08607554      13.83839798       5.08649206
F        1.10389197      14.16217709       7.28338957
F       -0.25124949      18.03351402       5.44758368
O       19.22809982       4.53807688      12.30731392
S       18.08769226       3.82460809      12.84501362
O       16.91200256       3.78207850      12.00461674
N       17.83687019       4.06324291      14.34941006
S       17.37944984       5.16592455      15.33737469
O       18.04745674       6.42669582      15.19269276
O       17.36833000       4.57489967      16.66199684
F       15.87174129       5.44072485      14.96884060
F       18.57060814       2.34039378      12.96943474
O        2.12401247       2.52176237       9.95052624
S        2.63716936       1.16568255       9.94839096
O        1.96037960       0.21054715      10.80556393
N        4.17495823       1.04395890      10.02891922
S        5.46434164       1.71306181      10.56532001
O        5.53254795       3.15691376      10.46866512
O        6.65209866       0.96584386      10.19756413
F        5.40095091       1.48476684      12.14815712
F        2.32834101       0.63302797       8.46870804
O       12.31573391       6.52191925       5.27981520
S       11.29960251       7.48498583       5.61964369
O       11.08040714       7.77206659       7.02924585
N        9.96694851       7.48416424       4.77564240
S        8.97884178       6.36678696       4.33522701
O        9.54216290       5.18386602       3.73964262
O        7.83582544       6.98727798       3.69469261
F        8.37776852       5.84659147       5.75781822
F       11.88916588       8.85138702       5.09861517
O       26.67706299      24.96215057      19.98286057
S       26.05790329      23.80572891      19.37014389
O       26.54077911      23.41236115      18.06458473
N       24.52734566      23.74082375      19.57873726
S       23.19187164      23.42066383      18.86343384
O       22.83854866      24.23932648      17.71901131
O       22.12490845      23.22906303      19.82865143
F       23.40872574      21.99697304      18.22460938
F       26.57943344      22.61271477      20.31330299
O        9.64407635       9.28056431      22.51371574
S       10.46244907       9.81579971      23.58159447
O        9.77783203      10.43026638      24.71424103
N       11.63083363      10.67804241      23.09230232
S       12.77207947      10.61590290      22.02064896
O       12.29452896      10.45113754      20.65360641
O       13.92671299       9.85311794      22.40061378
F       13.23863506      12.10588455      22.09460258
F       11.21067047       8.52159691      24.19147491
O       11.90959454       8.77798080      14.80106163
S       11.79347992       9.99628448      15.57695198
O       10.68691540       9.99898148      16.52544975
N       11.98273277      11.33799267      14.79250717
S       10.88219929      11.90293980      13.82362556
O       10.30874825      10.94558430      12.89473343
O       11.31581879      13.16175842      13.26521206
F        9.65937710      12.32353592      14.74322701
F       13.11315632      10.09902287      16.40841293
O       12.09627342      24.50061226      11.34813976
S       11.89570045      23.42335701      10.39946651
O       12.93287468      23.27815247       9.39933205
N       10.43400669      23.02852058       9.98876095
S        9.36543941      23.90590096       9.25096989
O        9.41451836      25.31846428       9.52764511
O        8.09947205      23.19404221       9.34786510
F        9.76121426      23.78249931       7.71575546
F       12.10617542      22.09511757      11.30492973
O       12.29728413      11.63255501       6.61918402
S       13.68278503      11.29538345       6.89931297
O       14.54630566      11.03088665       5.77889585
N       13.82943344      10.32755470       8.15139294
S       14.48026085       8.92318535       8.04460239
O       14.52613449       8.25381279       6.76019049
O       14.07775021       8.09634590       9.17386627
F       16.02932549       9.18945122       8.34871960
F       14.23895836      12.61617279       7.54323483
O       20.48867989       2.83921528      25.13135147
S       21.08516693       3.94090986      24.40830040
O       21.16934013       3.81388831      22.96260071
N       22.32997704       4.61526775      25.11063957
S       23.70505714       3.95254827      25.40247154
O       23.73386574       2.51393890      25.26114273
O       24.33192253       4.50198650      26.58683014
F       24.64733315       4.47080851      24.21175385
F       20.09562302       5.15678453      24.63802338
O       24.50172806      11.47986984      21.14849091
S       23.59796333      11.42436695      22.27334023
O       22.42326355      10.58138752      22.12069321
N       23.22972870      12.76776695      22.92087364
S       23.05486679      14.29554081      22.90324974
O       24.26782608      15.05727959      22.77642059
O       22.11016083      14.70976543      23.92065620
F       22.29757690      14.53991699      21.52695465
F       24.43350220      10.72128296      23.43092346
O       11.04521275      17.81272316       1.96756649
S       12.44277954      18.05820847       1.73594368
O       12.95162010      17.80563164       0.40937155
N       13.44934082      17.58330917       2.85431218
S       13.49414730      16.22256279       3.64731503
O       12.22690582      15.55084991       3.81338477
O       14.32940960      16.51295853       4.78414249
F       14.31521606      15.23278809       2.73701048
F       12.64090157      19.58148575       1.98057652
O       11.88652515      15.64912987      25.80833817
S       12.41531277      15.49802208      24.46764755
O       13.57047272      16.35596275      24.20048904
N       11.40094948      15.42846584      23.32780075
S       10.06124592      16.05054855      22.84526634
O        9.52992153      17.04291153      23.76279640
O        9.15572357      15.05326271      22.33468628
F       10.57682991      16.84867859      21.57904434
F       13.02173996      14.06116199      24.45560837
O       24.02537346       5.50566530      10.53185558
S       25.39968681       6.00280857      10.49549294
O       25.97161102       6.24097586      11.79714108
N       25.62551689       7.09362125       9.41452217
S       24.96488571       8.48442554       9.31511497
O       24.13263702       8.85453320      10.43358994
O       24.36623764       8.67112541       7.98470402
F       26.19892502       9.43643761       9.31369209
F       26.26210403       4.87259293       9.81980610
O       16.40183258      10.19012165      18.96809959
S       16.98482704       9.20770454      18.07810974
O       16.74686813       7.79995060      18.35104752
N       18.50083733       9.44669437      17.72626877
S       19.66229439      10.13030052      18.47939110
O       19.37357330      11.11972141      19.49263000
O       20.77496147      10.41748905      17.60322952
F       20.27511597       8.89470387      19.35845947
F       16.31822014       9.44253731      16.65575600
O        9.63939667      25.27555275      12.72424316
S        9.14521027      24.12286377      13.43541050
O        9.36463833      22.79206848      12.88392639
N        7.72375107      24.31099129      14.11685371
S        6.30061769      24.22729874      13.56073666
O        5.95382595      24.90705490      12.34754658
O        5.36752605      24.33782959      14.67117214
F        6.19716549      22.67039871      13.14579868
F        9.95370102      24.12082291      14.77001953
O        8.73739529      18.10889816      17.47328949
S        7.74382210      18.38444710      16.46568680
O        6.35755968      18.40217209      16.89973259
N        7.99188900      17.80829239      15.00893497
S        7.96598673      16.25356102      14.66200638
O        8.59276199      15.36202145      15.60896015
O        8.28163147      16.10576439      13.25635242
F        6.38402510      15.81270981      14.74984741
F        8.03084183      19.88565063      16.09606743
O       19.48205185      16.90183258      11.96481228
S       18.87628746      15.80714226      12.69058323
O       17.76816368      15.12968254      12.05768108
N       18.73323250      16.03553963      14.26928997
S       17.43255997      16.56936073      14.93737984
O       16.58626556      17.44527245      14.12970543
O       17.65176582      16.99782562      16.29473686
F       16.49502945      15.27191544      15.13806438
F       20.06071854      14.75050259      12.76436043
O        9.88594246       4.62651873      18.50652122
S       10.64516926       5.27590275      19.56972885
O        9.89739418       6.25855398      20.31988907
N       12.12086773       5.60858107      19.22209167
S       12.46693039       6.56355143      18.00530815
O       11.62248135       7.74840927      17.96147919
O       12.62312031       5.89172125      16.73194885
F       13.90436077       6.94392014      18.46306801
F       10.97943878       4.14412785      20.64620781
O        8.79825401      22.42251205      21.62547874
S        9.48590279      21.77923775      20.50999260
O       10.92877865      21.82338333      20.62943077
N        8.87681675      21.95318794      19.11815643
S        8.39310932      23.21919441      18.33875275
O        7.77433586      24.18514442      19.21446419
O        7.63501740      22.73813248      17.20795631
F        9.70191383      23.83570671      17.76969337
F        9.17046547      20.27667427      20.70681000
O        6.58129120       3.15961266      21.70623207
S        5.71497202       4.07562590      22.39044952
O        4.35714293       4.20805311      21.89453506
N        6.40391588       5.41787291      22.72941971
S        5.88599968       6.83203745      23.11882019
O        5.31762791       7.56071568      22.00277328
O        6.81258821       7.49755001      24.00037575
F        4.63789034       6.56916571      24.04635048
F        5.52182531       3.46067095      23.84215546
O        9.79350376      17.55531120       6.83472347
S       10.11045551      16.42796326       7.68657589
O        9.72013187      16.55166245       9.07965374
N       11.46229935      15.73271084       7.36471224
S       12.78631592      16.13316727       8.17201900
O       12.74223137      17.28493500       9.05227470
O       13.97300720      15.91038418       7.39506865
F       12.82256699      14.89715099       9.20509148
F        9.16261768      15.26938057       7.12311792
O        0.86056525      12.85372162      12.67770863
S        1.88733947      11.87492561      12.37770844
O        3.03975534      11.92098141      13.26980305
N        2.17191386      11.57465935      10.86842155
S        3.24929404      12.31947422       9.98355579
O        3.31033611      13.75584030      10.15624619
O        3.35560155      11.74298191       8.66271782
F        4.64403534      11.83130646      10.67540932
F        1.18878102      10.48789501      12.71821499
O        2.81655574      26.91671944       1.47250485
S        3.66638660      25.71706581       1.46187723
O        3.61833477      24.92189217       2.67062020
N        5.05228949      26.07191467       0.92051357
S        6.45122719      25.34323311       1.23325586
O        6.79303789      25.24588394       2.62863255
O        7.42456341      25.87616348       0.30541417
F        6.17828226      23.84902191       0.74910837
F        2.98320389      24.84148788       0.33617228
O       15.71619320      27.05565643      23.00976753
S       14.88901711      25.87931252      23.10186005
O       15.52839375      24.60817337      23.34764671
N       13.78179646      25.83647156      22.04425430
S       12.82189560      25.23821640      21.02857208
O       13.41114426      25.12068367      19.70957375
O       11.49053097      25.77288055      21.15377617
F       12.69680691      23.73987770      21.51757240
F       14.07306004      26.14471626      24.44425583
O       21.80774117      25.89391708       3.73850513
S       22.39755630      24.79381180       3.00376344
O       22.11060524      23.49154854       3.61552358
N       23.83893967      24.95465469       2.54606605
S       25.23679924      24.93211746       3.24583435
O       25.16935921      24.96296310       4.69078588
O       26.12770462      25.85551453       2.58461189
F       25.78086662      23.49788284       2.86506796
F       21.64155579      24.72170448       1.64134109
O        5.04306889       2.12652755       3.03275990
S        5.24085617       2.97957754       4.18474340
O        6.13172913       2.54373407       5.22643566
N        3.86956072       3.66877699       4.73145437
S        2.72715092       3.07084298       5.55618095
O        2.56980133       1.61846638       5.46330643
O        1.50317037       3.84912896       5.44446802
F        3.17425489       3.30784345       7.04463148
F        5.85867834       4.30911970       3.62748241
O       14.01167202       2.10163164       8.79950333
S       12.68182945       2.04769230       8.21586800
O       12.59716511       1.97296202       6.77938557
N       11.63454723       2.98580098       8.92071724
S       11.61642551       4.44781256       9.39011288
O       12.82103443       4.85784912      10.10174942
O       10.36521912       4.79472208      10.03546906
F       11.66651535       5.29350424       8.07358742
F       12.11002064       0.67765278       8.73807240
O       10.91190624      13.60136032      19.61794281
S       10.55783272      14.04513454      18.28524780
O        9.98459244      12.99122906      17.44653511
N       11.55689812      15.00039864      17.54026222
S       13.12642670      15.11934757      17.82295036
O       13.60822487      15.02812099      19.17834473
O       13.57817936      16.27245903      17.06518745
F       13.73014736      13.87040329      17.03611755
F        9.33001423      15.01248741      18.47742081
