1775
Lattice="32.2599983215332 0.0 0.0 0.0 32.2599983215332 0.0 0.0 0.0 32.2599983215332" Properties=species:S:1:pos:R:3 pbc="T T T"
Na       9.85911942      12.84403133       3.26332974
Na       6.05015755      22.78688812       2.60237765
Na      -1.93692434      13.50355434      25.80791664
Na      27.23214149       6.93279409      20.33625603
Na      24.69146729      30.11496735       9.88426876
Na       2.33135390       7.86601686      14.57457733
Na      19.36781693      13.10308933      21.27206993
Na       7.51769352      21.68854523      26.30224419
Na      27.25894547      14.82940769      24.35169029
Na      25.61633682       0.70492917      16.54335976
Na      11.39446068       6.94531059      22.03473473
Na       3.93756747      24.39549255      11.77885628
Na       9.80598354      13.66771984      30.78796387
Na       8.79197407       9.82269382      11.30779171
Na      18.18607330      20.80743599      16.07172394
Na       1.12554002      12.36230755      26.48659897
Na      29.23925209      14.90151024      19.95015717
Na      26.95479584      25.58389091      30.67593193
Na      28.88836479       5.24751234      27.32545280
Na      27.40244865      21.21585274       7.97937727
Na      17.50812149      20.39998436      30.45439911
Na      18.45327950       5.32004118      12.92617607
Na      24.28792763      24.61367607       8.42373848
Na       6.48650980      11.19771194       0.24491568
Na      29.32668686      15.23391628       8.50584412
Na      14.54608154      11.29039955      29.18592834
Na      17.87348747       6.15558147      21.50273514
Na      10.72992420      23.66330528      10.31787586
Na      12.83253574      26.95312309      12.03993320
Na      11.16413784      18.03007317      17.13632202
Na      18.77836990      24.28341675       0.23238087
Na      25.51098633       2.65055251      12.59736347
Na      24.21328354      15.07402420      30.90703201
O       13.27712822      22.22994041      12.74220276
S       13.44735146      23.62071991      13.06603336
O       13.22861671      24.55419731      11.96423149
N       14.74580765      23.99067497      13.80557919
S       15.65054321      23.45818520      14.95478439
O       16.07397652      22.08806038      14.76480675
O       15.27711010      23.85416985      16.28716469
F       16.92627907      24.33239365      14.65458107
F       12.31453419      24.01275444      14.05352211
O        5.22222233      27.51279259      13.02854729
S        4.07085085      28.03075600      12.32163906
O        3.78825545      29.43854904      12.41923809
N        2.78548265      27.06509972      12.39573669
S        1.90289819      26.98019028      13.69873238
O        2.60447431      27.22250366      14.93955708
O        1.05180347      25.81808662      13.59278202
F        0.87109786      28.20089531      13.59599590
F        4.40418243      27.78216171      10.79681301
O       24.80887794      10.19778252      22.50495720
S       25.20829391       9.31641960      21.43457603
O       26.21105385       8.33833981      21.86728477
N       25.37913704       9.84443188      19.95844650
S       26.57715034      10.90391731      19.69468689
O       26.84337807      11.71170998      20.84963799
O       26.35826874      11.49557877      18.40163612
F       27.82299614       9.94906998      19.50246811
F       23.97147179       8.40812874      21.13335419
O        9.47672081       1.95141137      21.66287041
S        8.74726772       2.26510119      20.45080948
O        9.46778011       2.16604090      19.20441628
N        7.78237391       3.52338433      20.58833694
S        8.24844265       4.98003769      20.80991936
O        9.60201073       5.14030886      21.32583809
O        7.22532654       5.78648376      21.42731857
F        8.35121346       5.56014347      19.33636284
F        7.56724215       1.20093811      20.35547638
O       32.28586960      11.87074471      20.94517517
S       30.92557907      11.85566902      20.44019890
O       30.70691109      12.61552334      19.21295547
N       29.74293518      11.89753246      21.49903679
S       29.85730934      12.94378185      22.76928520
O       29.27280426      12.12761402      23.91873741
O       28.86582184      14.11859703      22.48198891
F       30.07441902      16.29567337      18.38848686
F       30.76210403      10.36225891      19.94387054
O       10.06545162      12.28365421      17.82142448
S        9.39817524      11.10755348      17.31476021
O        8.18288898      10.72634029      17.99978638
N       10.37273026       9.90740490      16.90437698
S       10.91250324       9.05698204      18.13219070
O       10.99858570       9.71966457      19.41444778
O       11.99495888       8.18409634      17.74415779
F        9.71883011       8.00873661      18.37492371
F        8.94835758      11.54204369      15.85812759
O       14.71304893      22.28204346      20.77932739
S       15.89545059      21.48604965      20.54016876
O       15.88935184      20.62685204      19.37382889
N       16.50478172      20.81276894      21.84993172
S       15.76230526      19.57744789      22.47538757
O       14.35167503      19.45314407      22.17731094
O       16.17373657      19.38958549      23.84709930
F       16.41154099      18.34942245      21.68804741
F       17.05397797      22.52285194      20.27504730
O       30.06873894       4.57400942       4.21181345
S       30.62985229       5.88518095       4.46328163
O       31.87567329       6.19062471       3.79735518
N       30.57800674       6.39589310       5.99930334
S       31.16426277       5.58684587       7.20728731
O       31.69584274       4.27950573       6.87119722
O       30.33522797       5.66825628       8.38767338
F       32.44279861       6.41239357       7.64410067
F       29.58637810       6.91690111       3.84875774
O       19.98330498      19.62343597      22.42214012
S       21.23624802      19.16318512      22.98238945
O       22.42039680      19.20462418      22.15021896
N       21.12045479      17.87583351      23.97162247
S       21.23079300      16.48481369      23.20589638
O       21.00113106      16.55979347      21.77822113
O       20.56716156      15.45070076      23.96282578
F       22.78415298      16.09859467      23.34584808
F       21.55253220      20.20315170      24.12695694
O        6.71187878      26.00549698       4.14510441
S        7.80303907      26.96700096       4.21736479
O        9.01172543      26.53307724       4.88949633
N        7.39757156      28.44201279       4.57358885
S        6.52241516      29.12273026       5.66792107
O        5.62118149      28.25613594       6.39463282
O        6.00514698      30.40309334       5.22718382
F        7.55705643      29.56813622       6.80079699
F        8.25738239      27.16067505       2.69002438
O       11.52090931      14.82275581       6.15243912
S       12.23388004      13.74240685       6.80754280
O       13.64336681      13.90490341       7.05751705
N       11.76043701      12.28349495       6.32963181
S       12.36796188      11.71851826       4.97125006
O       13.28887844      12.59622097       4.28076077
O       11.34342384      11.07588100       4.15631914
F       13.26693153      10.48881912       5.39275932
F       11.61381245      13.70426178       8.25641537
O       24.23011780       8.41267014      28.66632271
S       23.68225861       9.74126434      28.83887672
O       24.61875534      10.78418159      29.19782066
N       22.26347542       9.81813049      29.54551888
S       22.13899803       9.60030937      31.11998367
O       23.24217224       8.97907543      31.82032394
O       20.78890800       9.21662807      31.42393303
F       22.23761177      11.10338211      31.67812729
F       23.20636749      10.13045692      27.38600540
O        1.18923271       6.58465147      12.83335876
S        1.06601608       5.58304930      11.78037167
O       -0.01317943       4.64709711      11.99349499
N        2.42207670       5.04234695      11.20588589
S        3.39576840       4.06845999      12.01338291
O        3.44046044       4.32295942      13.43634224
O        4.64306021       3.96162796      11.29708195
F        2.68924809       2.63384509      11.84628010
F        0.64801478       6.41046286      10.52138901
O       12.42366314      16.15019035      15.57400227
S       12.57509613      16.57791519      14.19228745
O       11.41158199      17.14818382      13.54949379
N       13.44558144      15.66265869      13.26599407
S       13.12733078      14.14634418      12.95092201
O       12.92097187      13.30085945      14.10814667
O       14.01919365      13.68139553      11.92656326
F       11.70330238      14.17580509      12.23909569
F       13.59506512      17.77132988      14.27377987
O       13.11446571      10.08942986      27.21327019
S       11.80322647      10.51990509      26.75436401
O       10.87455463      10.93846226      27.78797150
N       11.23875141       9.62535667      25.59988213
S       10.23876381       8.45144463      25.83774567
O       10.44617939       7.76163483      27.08812523
O       10.10408878       7.65537357      24.64554405
F        8.84752560       9.16946220      26.02182770
F       12.07774448      11.81681728      25.93748665
O       13.37056351       8.16605282       7.99123859
S       12.12169075       7.52259970       7.67496014
O       11.16414165       8.26911545       6.89185905
N       11.50055981       6.64026690       8.87222576
S       10.38921738       7.06807375       9.86973095
O        9.64128017       8.29760551       9.61127090
O       10.70943928       6.78777695      11.24970150
F        9.29636097       5.96919870       9.53888512
F       12.58074379       6.32855940       6.76894283
O       20.93799210      29.53248024      26.83145332
S       21.11296844      28.43561172      27.75947762
O       20.25830460      28.39310074      28.92321205
N       22.62023926      27.96899605      28.03778839
S       23.51535416      28.73228836      29.10814667
O       23.68557739      30.15513992      28.92749596
O       24.72034645      27.95876884      29.36261177
F       22.73591614      28.62621307      30.50384712
F       20.70830154      27.17353249      26.88849831
O       23.34924126      -0.13291372      26.82483292
S       22.24362373       0.65299690      27.33251572
O       22.37759972       2.09819245      27.23489571
N       21.48234367       0.07594766      28.64683533
S       22.17493820       0.42368719      30.03722572
O       23.53008842       0.93538755      29.94024086
O       21.88556671      -0.57974529      31.03285980
F       21.31439018       1.68289661      30.55487251
F       21.10124397       0.31787029      26.29059982
O       17.43061066      18.31186295      28.22371101
S       16.33657837      18.59253502      27.31777382
O       16.32365036      19.86541557      26.64350700
N       14.89934635      18.15344429      27.88697433
S       14.24403954      19.05129242      28.98110580
O       15.19198322      19.72798347      29.85891724
O       13.14472771      18.37179375      29.61664200
F       13.56266403      20.22326660      28.19331741
F       16.44465446      17.51089859      26.21223068
O        7.36745119       5.63653278       4.98026276
S        8.64339542       6.31244898       5.13039017
O        8.77472305       7.54612303       4.38002157
N        9.92262745       5.40521908       5.25580120
S       10.71622181       4.94689798       3.96093535
O        9.92605114       4.80914497       2.75276351
O       11.62092304       3.87440777       4.28566122
F       11.69868946       6.17671585       3.63948059
F        8.59666157       6.81190920       6.63761902
O       24.12031555      13.67177773       7.56499434
S       23.95275688      15.07177353       7.22915459
O       25.09405327      15.93045425       7.47908688
N       22.51643372      15.68255234       7.58380556
S       22.28708267      16.16317368       9.07010555
O       23.14263535      15.51536846      10.03932190
O       20.88080025      16.26969719       9.35766125
F       22.76337051      17.68334770       9.10951138
F       23.81188202      15.04069138       5.66038847
O       10.37133789       5.53409576      15.87245560
S        9.91685867       5.21142054      14.53526211
O        9.11235142       6.23061132      13.88939953
N        9.42347813       3.72494984      14.29727077
S        8.05755901       3.25657678      14.92237949
O        7.74752617       3.80258369      16.22718430
O        7.93689346       1.83052897      14.73214626
F        6.95944786       3.88841414      13.94526291
F       11.23948002       5.14153862      13.69876289
O       17.73072624      28.61956787       4.92411470
S       17.80772018      28.53593636       6.37460852
O       18.35830307      27.31484604       6.91947460
N       16.56052208      29.15758514       7.17727280
S       15.30492687      28.27376556       7.47336102
O       15.11211872      27.17752838       6.55016994
O       14.13961601      29.04711723       7.85066795
F       15.68472004      27.49507332       8.84355640
F       18.87947273      29.63816452       6.76260757
O       21.00210571      30.44436455       9.65655899
S       20.13620949      29.63848877      10.49401474
O       19.80381775      28.32398987      10.00217247
N       19.02506638      30.39198494      11.28915024
S       17.68059158      30.95353317      10.71560478
O       17.73900604      31.44372177       9.36077690
O       17.05815506      31.78607941      11.71494198
F       16.74032784      29.65730667      10.62864590
F       21.05891418      29.34489822      11.77237225
O       31.62878036       6.25588799      29.55350494
S       30.79514885       6.90026331      30.54060173
O       29.37131882       6.77906036      30.29397392
N       31.25682449       8.25423527      31.08287811
S       31.44728661       9.61606884      30.33992386
O       32.28207397       9.53376770      29.16106606
O       31.70864105      10.67250633      31.28046417
F       29.98927689       9.92502785      29.78846931
F       31.04295349       6.08761549      31.87966537
O       18.41423225      12.98521233      25.56901169
S       17.56512451      12.14404774      26.37198257
O       17.00159454      10.98961067      25.69804001
N       16.56272697      12.81212044      27.42831612
S       15.25111103      13.55417442      26.98344040
O       15.39890099      14.77285385      26.22741890
O       14.32881832      13.58273411      28.11630058
F       14.56690311      12.56513214      25.93326569
F       18.54984474      11.56994629      27.45618248
O        0.54323357      10.95750237       6.61293650
S        1.83619034      10.47373676       6.17355013
O        2.46440554       9.44565678       6.98352385
N        2.87772465      11.54673481       5.62994862
S        3.22082973      12.80418110       6.52806950
O        2.17860246      13.31367302       7.39458370
O        3.94376493      13.78036594       5.74814892
F        4.35831928      12.28758144       7.53779650
F        1.54923284       9.75529385       4.79602051
O       20.39647102      24.09243011       9.65508175
S       21.00793457      23.09632492       8.81552601
O       22.26714134      23.51605988       8.20702076
N       20.13340378      22.22513199       7.90942049
S       19.24694443      22.66789436       6.67579889
O       18.87499237      24.05823517       6.63617516
O       18.23173714      21.66104507       6.47443867
F       20.23075294      22.48217583       5.44767141
F       21.46776772      21.94002724       9.81770706
O        0.81358016      24.12276268       2.95911074
S        1.32196546      23.48455048       1.77009916
O        1.16268981      22.05653954       1.61730516
N        2.79972720      23.84236145       1.39164150
S        3.64405060      25.09119606       1.84672523
O        2.95796585      26.30425453       2.20983410
O        4.82004738      25.18438148       1.00454414
F        4.27897072      24.56548119       3.26037502
F        0.44383755      24.09471512       0.58817822
O       16.34356880      16.32372284      17.69529724
S       16.87250710      15.62088394      18.84673309
O       17.42277718      16.44581413      19.89624214
N       17.68455124      14.28683662      18.54666328
S       19.17635536      14.33483219      18.02399445
O       19.49663925      15.18389893      16.89827347
O       19.73025703      12.99716473      18.02772331
F       19.95936394      15.05155849      19.23387146
F       15.60004520      14.95312309      19.46637344
O       12.63677502      12.53483772      33.68714523
S       13.33617878      12.34070587      32.44351196
O       12.62071228      12.77715778      31.24792099
N       14.13279819      11.00360012      32.20937729
S       13.39545536       9.59645271      32.15153122
O       12.07469273       9.57535648      32.73808670
O       14.39803982       8.61871529      32.46258163
F       13.11235809       9.42608833      30.58591270
F       14.60028172      13.25351238      32.53896713
O        2.96426964      22.71208572      10.08608532
S        3.60391617      22.09423828       8.93660450
O        4.12684107      20.76667976       9.16428089
N        4.55680084      23.02157211       8.12023258
S        5.89375305      23.61740303       8.68247509
O        5.82547140      24.06085968      10.07006264
O        6.49805164      24.52099228       7.73693991
F        6.89685106      22.40418816       8.71705246
F        2.47243023      21.92654228       7.87154913
O        8.49672413      17.44168854       3.62839818
S        8.26604557      16.02372169       3.70527887
O        9.16134262      15.21871758       2.86566114
N        6.78689384      15.50889206       3.81219387
S        5.69769478      15.76458168       2.67215276
O        5.46261215      17.13675499       2.31872797
O        4.56588078      14.93681526       3.00202560
F        6.35440302      15.11625481       1.35536754
F        8.68229675      15.61412239       5.16206741
C       15.53302383      15.83153915      30.35676956
O       16.55307770      14.93168163      29.87695885
P       17.83585167      14.90988922      30.84201813
O       17.53819084      15.09417152      32.28979874
O       18.52881241      13.51710987      30.42053032
C       17.84382439      12.28085613      30.70434952
O       18.88856506      15.97895527      30.22867203
C       19.66362381      16.75674629      31.17424965
H       15.08258247      15.46118355      31.28723145
H       15.95604420      16.83534431      30.52706337
H       14.75825787      15.89953232      29.58039284
H       17.16134453      12.04717827      29.87064934
H       18.58516884      11.47233772      30.79992485
H       17.28442001      12.36189651      31.64878273
H       19.88890648      17.72322083      30.69750214
H       20.60106850      16.22375870      31.39947891
H       19.11189461      16.90022850      32.11535263
C       23.99085426      10.33802414       9.33252811
O       22.98394394      10.04584789      10.32573318
P       22.46086311      11.38478470      11.05904961
O       21.58804893      12.26155663      10.22161388
O       21.73667526      10.85792255      12.41795349
C       20.53906059      10.09824848      12.16341114
O       23.81815338      12.04673100      11.64421940
C       23.58175468      13.08774567      12.60647392
H       23.66989517      11.15199089       8.66654396
H       24.93500710      10.59844589       9.83212471
H       24.13634491       9.42831993       8.73693752
H       20.78551674       9.12199879      11.71865845
H       20.02004814       9.94665146      13.11885357
H       19.86479759      10.65474224      11.48899078
H       24.56164360      13.43098736      12.95853138
H       23.00355148      12.71738911      13.46948051
H       23.04621887      13.91902828      12.12197685
C        8.21271610      25.70752525      12.03914165
O        9.26923084      26.68517685      12.22149563
P        9.31955528      27.84031677      11.08857727
O        8.17617226      27.81389809      10.13190460
O        9.49486637      29.23946953      11.89884472
C        8.37701511      30.14883614      11.85323906
O       10.80238152      27.59137535      10.43887424
C       10.95066738      28.38614845       9.21429157
H        7.38267088      26.13267326      11.45329285
H        8.58630180      24.82537460      11.49107838
H        7.86026049      25.41160583      13.03482628
H        7.68340397      29.93194962      12.67493343
H        8.77495384      31.16554832      11.92387581
H        7.82009745      30.01928139      10.91238785
H       11.92582893      28.15818977       8.76554489
H       10.89730263      29.45437431       9.46584415
H       10.13709450      28.12195778       8.52372265
C       19.36250305      15.62020397      27.13246155
O       20.61771584      16.18025589      27.58529854
P       21.75984955      15.06689835      27.80817795
O       21.81779480      14.01879025      26.74687386
O       23.07380104      16.01301765      27.92147827
C       23.47471046      16.35993958      26.57211494
O       21.52301598      14.45344448      29.29323959
C       21.54657745      13.00064182      29.29920578
H       19.41335869      15.38166714      26.05728912
H       19.13245773      14.68729591      27.67325592
H       18.57254028      16.34903908      27.33270836
H       22.70669937      16.97238541      26.07283211
H       24.42700958      16.90228271      26.64836311
H       23.61710358      15.44553089      25.97363472
H       20.93460846      12.65839386      30.14228630
H       22.58554459      12.64988899      29.39451408
H       21.13456726      12.60717297      28.35462189
C        8.00357151       6.97797060      29.79614449
O        8.26678276       8.30783176      29.34205818
P        7.50018311       9.57675266      29.93809891
O        7.00039005       9.35907078      31.34122467
O        8.68220329      10.67130661      29.84454536
C        9.82775211      10.37155914      30.68945122
O        6.41943216      10.05467033      28.84390450
C        5.41049576      10.98960495      29.29245949
H        7.82144594       6.95611858      30.87981796
H        7.12809753       6.57796240      29.26820374
H        8.87487793       6.37509441      29.51669502
H        9.99235630       9.28723621      30.73997307
H       10.70532417      10.86059284      30.24913788
H        9.64530182      10.72757626      31.71618080
H        4.67478037      11.09254360      28.48379135
H        5.86155558      11.96882915      29.50718117
H        4.90118217      10.60753155      30.19111633
C       26.35326004      16.59486771      28.77868271
O       26.51361656      15.49274063      27.84995461
P       26.20691490      14.01304626      28.41910362
O       24.88196182      13.83395576      29.09364700
O       26.51424599      13.02389050      27.19813156
C       25.43967247      12.34659290      26.51378250
O       27.44255447      13.82225704      29.44416046
C       27.31850052      12.66432381      30.30904579
H       25.27860451      16.77419281      28.93491173
H       26.82229996      16.36571693      29.74744034
H       26.82494164      17.47795868      28.32455063
H       25.02680588      12.99265766      25.72291565
H       25.83843231      11.42188931      26.06703186
H       24.64266205      12.07997704      27.21570969
H       28.10590172      12.73310947      31.06925011
H       27.41489792      11.74150848      29.71982956
H       26.31866646      12.65515041      30.76930618
C       27.84419250      27.12983894      22.94682884
O       28.00443649      28.16505241      23.93248940
P       26.87712860      28.24435425      25.07917786
O       26.27150726      26.93112564      25.44603729
O       27.65822411      28.96800613      26.29067421
C       28.11850739      28.14187622      27.37654114
O       25.82040215      29.32402039      24.51415253
C       24.40813255      29.09831429      24.71637535
H       27.72147751      26.16339874      23.44233513
H       26.97090912      27.31873322      22.31585503
H       28.74310493      27.05755234      22.32764053
H       28.88390923      27.43612480      27.02771187
H       28.55163765      28.80295372      28.13752365
H       27.27062035      27.58448982      27.80368042
H       23.88345146      29.25700951      23.76531029
H       24.01135635      29.79816818      25.45934296
H       24.22740555      28.07733154      25.07355309
C        2.74518490      11.05723476       9.66417980
O        1.87603474      10.52362347      10.69599438
P        2.81740451       9.88526249      11.82131863
O        4.01243019      10.66642952      12.26688766
O        1.68330479       9.59773159      12.96570492
C        0.84786505      10.72078323      13.35298252
O        3.19527030       8.43082333      11.23417759
C        4.51166058       7.93064308      11.55075073
H        3.35579419      11.87340546      10.07731247
H        3.39069271      10.26270390       9.25467587
H        2.08767939      11.42365074       8.86395359
H        0.43058336      11.20576668      12.45930195
H        0.02669105      10.29124260      13.94002056
H        1.41738248      11.44906998      13.95504284
H        4.67920494       7.05652809      10.91028690
H        4.59059525       7.61912680      12.60164547
H        5.27482271       8.70589733      11.38549900
C       14.60130119      28.83889389      29.31242752
O       15.57220745      29.08123016      30.33784294
P       17.02403069      28.42297173      30.08208656
O       17.28228378      28.16700363      28.63678932
O       18.02964973      29.36861038      30.90030670
C       18.34756088      30.54817200      30.15904236
O       17.12064362      27.09474564      31.02353668
C       17.53417587      25.89203072      30.34725952
H       15.05398464      28.94198799      28.31396294
H       14.18582344      27.82365036      29.40706444
H       13.80495834      29.57793999      29.46295929
H       17.55096054      31.29586792      30.28895760
H       19.29603958      30.93330765      30.55097580
H       18.49161339      30.30381775      29.09720612
H       17.12967300      25.05833626      30.94534683
H       18.63666153      25.86378860      30.26412392
H       17.12669373      25.81323433      29.32613754
C        9.75090504      19.78807640      28.41134262
O        8.85304737      19.76545143      29.55103493
P        7.31673622      20.12778854      29.34143448
O        6.92006969      20.34397507      27.90641594
O        6.45445967      18.98477745      30.04170609
C        5.83747435      17.98484612      29.20825958
O        7.10714436      21.42051888      30.26484299
C        6.07741594      22.37882042      29.95971298
H        9.21611977      19.51978683      27.48904800
H       10.23299789      20.77048111      28.32484055
H       10.51900101      19.02142715      28.56904984
H        6.51684713      17.13928795      29.03890991
H        4.95574474      17.60150337      29.72976494
H        5.52428627      18.43319702      28.25368690
H        6.51744223      23.38195229      30.02849197
H        5.26342201      22.30620766      30.69011688
H        5.68967533      22.19367599      28.94367981
C       22.35015869      18.30241013      18.35416031
O       20.99510765      18.43247986      18.82683372
P       20.32810020      19.86586952      18.57477760
O       20.28529739      20.30763054      17.13504791
O       18.88400269      19.73924446      19.25220490
C       18.02326202      18.83078575      18.53079224
O       21.16236115      20.83114815      19.55559158
C       20.53364563      22.08322144      19.86146736
H       22.45063782      18.61198997      17.30262566
H       23.02772141      18.87494278      19.00502777
H       22.59793282      17.23853302      18.40955544
H       18.56324387      17.92289162      18.22784615
H       17.21993828      18.53944206      19.21087646
H       17.55506516      19.28565979      17.64436913
H       21.30302048      22.71718216      20.31992340
H       19.71277618      21.93088341      20.57898331
H       20.13574791      22.55518150      18.94586945
C        5.28185272      13.20830822      15.83953381
O        4.49026060      12.67234325      16.92301369
P        2.91846967      12.94102573      16.63699722
O        2.44828129      12.61254501      15.24946213
O        2.17853403      12.07667446      17.79044914
C        1.39005888      10.96979046      17.31162453
O        2.70949483      14.47810841      17.08122635
C        1.38430667      14.97396564      16.80174828
H        4.99154043      12.76405525      14.87231541
H        5.20343494      14.30047131      15.77100468
H        6.33301401      12.96802902      16.05924416
H        2.01464748      10.06943130      17.20429420
H        0.60592610      10.77242661      18.04900742
H        0.93010300      11.20601559      16.33675194
H        1.39060187      16.03906631      17.06354523
H        0.63260096      14.46550655      17.42553520
H        1.12978292      14.83511543      15.73820400
C        3.78492641      21.72969818       4.90246296
O        5.21465778      21.57290649       5.05458736
P        5.90218782      20.24642754       4.41093159
O        6.27221727      20.46026611       2.96821952
O        7.14709997      19.97502708       5.39491796
C        8.44519997      20.31028366       4.86331034
O        4.84334993      19.07185555       4.68268919
C        5.16709614      18.20446014       5.79855537
H        3.48090363      21.76143265       3.84521627
H        3.26142240      20.90497017       5.40345669
H        3.52992129      22.67836571       5.38814592
H        8.50979805      21.39550209       4.72104406
H        9.18242550      19.98163414       5.60561085
H        8.62729931      19.77359200       3.92201471
H        4.83299065      18.66145325       6.73953438
H        6.24871635      18.03349876       5.83845329
H        4.67117357      17.24229813       5.62688637
C       27.47570419      19.93920326       4.85923481
O       28.09148598      21.00949287       5.64486790
P       29.61763573      21.44305038       5.20628881
O       29.92017937      21.31315994       3.75810981
O       29.82591248      22.89576530       5.86867046
C       29.77944565      24.01598930       4.95285654
O       30.47318649      20.49783707       6.19953966
C       31.88863945      20.38821220       5.94780827
H       27.67155838      20.09223747       3.78899860
H       27.87950325      18.97195625       5.18481350
H       26.39678383      19.98160744       5.06064749
H       28.76678848      24.11343765       4.53747559
H       30.01175499      24.89656830       5.56373644
H       30.51376534      23.89842033       4.14313126
H       32.27168274      19.68905449       6.70041084
H       32.37543869      21.36120987       6.05653715
H       32.06349564      19.98945236       4.94447756
C        4.44721365       9.99854374      15.19841003
O        5.88362646      10.10696316      15.40030575
P        6.56137466       8.63459873      15.26514816
O        6.14031601       7.83298540      14.07076931
O        8.16176033       8.84089947      15.31700706
C        8.72234058       9.03075123      14.02071571
O        6.26156855       7.96364307      16.69088554
C        6.75631952       6.59935188      16.69632149
H        4.27218962       9.42479134      14.27103806
H        3.97772908       9.52279758      16.08034134
H        3.99641681      10.98642540      15.01593399
H        8.46490192      10.05111122      13.66105080
H        9.81477261       8.92432785      14.09490490
H        8.35045910       8.26551819      13.31925201
H        6.39348316       6.10584879      17.60434532
H        7.85742188       6.60910797      16.66791153
H        6.40501738       6.06683588      15.79748249
C        1.21536398      13.18823051      23.32449722
O        2.34702253      13.03307629      24.23183060
P        3.11425400      11.60989952      24.15196609
O        2.49480343      10.60255146      23.25320244
O        4.67934179      11.92150021      23.86758614
C        4.97224855      11.83858871      22.44642448
O        3.11733031      11.18925571      25.73454285
C        3.02403831       9.76443577      26.01082230
H        1.40931952      12.72151947      22.35077286
H        0.33334437      12.68998337      23.75173378
H        1.02207696      14.26249886      23.21700096
H        4.80152798      12.81277180      21.96538925
H        6.03140497      11.56725025      22.34148979
H        4.34696436      11.06939220      21.96860123
H        2.47897911       9.65247059      26.95715904
H        4.03816509       9.35614300      26.09131813
H        2.46872139       9.27716732      25.19443130
C       28.29150200       8.31733799      16.71879387
O       26.90909004       8.43027592      16.33739281
P       25.96634483       7.19809341      16.79195595
O       26.15944481       6.81071997      18.23740387
O       24.50760460       7.72145939      16.37438965
C       23.94703102       8.86642647      17.04749870
O       26.32825851       6.06225920      15.71365452
C       25.80071259       4.71885300      15.88528156
H       28.36622238       8.04668713      17.77719879
H       28.78790283       7.55391979      16.10627937
H       28.74700356       9.29876614      16.55480576
H       24.68403435       9.67730522      17.13924980
H       23.09735489       9.19238091      16.42981529
H       23.57918549       8.59107018      18.04303169
H       26.50702286       3.99737024      15.44793034
H       24.83764267       4.62028313      15.36269855
H       25.66901016       4.51663160      16.96301270
C       15.83175278      30.77058792       2.95877099
O       14.43373299      31.09844971       2.95868087
P       13.51757336      29.76887131       3.04918432
O       14.09812927      28.69105530       3.90169930
O       12.10338688      30.34995842       3.55920529
C       11.95565224      30.25444221       4.98819447
O       13.32680225      29.32252884       1.50407422
C       13.37715340      27.90791893       1.27157032
H       16.05181503      30.05082321       3.76015425
H       16.13478088      30.33139610       2.00003362
H       16.38899612      31.69432640       3.13924408
H       12.55278587      31.01880264       5.50497198
H       10.89558411      30.39278221       5.22838354
H       12.28661823      29.26999855       5.34301424
H       13.96990490      27.69638634       0.37545770
H       12.35455513      27.53662300       1.12671459
H       13.81169701      27.41707611       2.15414119
C       31.31172371       6.60724545      25.60063934
O       30.05285263       5.97877073      25.22153854
P       29.55598640       6.22321129      23.67844009
O       30.42535973       5.62623453      22.62431526
O       28.07614899       5.60464191      23.77178574
C       27.79822922       4.33981323      23.12897873
O       29.45732880       7.81656694      23.68182182
C       29.78360367       8.48717117      22.43257904
H       32.14171219       5.93058538      25.36488914
H       31.42150879       7.55564260      25.06047249
H       31.27202606       6.81310320      26.67758751
H       27.97833824       3.52767515      23.85057449
H       26.73168755       4.34514427      22.86755562
H       28.43026924       4.19706488      22.23887634
H       30.13273430       9.49344730      22.69855118
H       28.87068748       8.60083866      21.83051491
H       30.54083061       7.92975426      21.86291695
C        6.77792978      24.26463509      23.15991402
O        6.51351357      23.27951241      24.18893051
P        5.35876417      22.20340347      23.81409645
O        5.18490314      21.98011017      22.35219955
O        5.78349304      20.90834999      24.68613052
C        6.41733646      19.74527931      24.05681229
O        4.11467600      22.77937889      24.64519501
C        2.93753624      21.97085571      24.79792404
H        6.73504972      23.78522110      22.17629242
H        6.01643324      25.05320930      23.21289444
H        7.76986074      24.68163681      23.36802673
H        7.35934448      20.02929878      23.56830406
H        6.62435484      19.05353355      24.88550186
H        5.73100948      19.28123474      23.33629227
H        2.29879880      22.48042297      25.53120041
H        3.19853568      20.97332001      25.18025017
H        2.39586663      21.88648796      23.84771729
C        7.93980837       9.03248310      21.33772659
O        8.23588943       9.72572422      22.57228088
P        9.54724312      10.64072704      22.44172478
O        9.55350113      11.55592060      21.26420593
O        9.69534588      11.35085487      23.88552475
C        8.79343700      12.44967461      24.09904861
O       10.75584221       9.56618595      22.44980431
C       12.05803585      10.18330193      22.36947441
H        8.07034683       9.69924641      20.46786880
H        8.57737637       8.14586926      21.21878242
H        6.90008497       8.68361187      21.39820671
H        7.77256107      12.22144318      23.75063896
H        8.76331806      12.65754700      25.17382431
H        9.16257668      13.33338642      23.55920219
H       12.80305672       9.45893478      22.73260307
H       12.09376717      11.08486843      23.00068092
H       12.26132488      10.43134022      21.31320572
C       22.98583031       6.73373127       5.56613541
O       23.22969437       7.89195681       6.37944126
P       23.46866226       9.28167820       5.58523560
O       23.18737030       9.19229126       4.11910200
O       22.66364670      10.42791748       6.39348125
C       21.24382782      10.48195457       6.11836910
O       24.99486923       9.61565971       5.97634840
C       25.38400650      10.89306641       5.43339825
H       22.70618248       7.04558182       4.54778671
H       23.89645576       6.12312269       5.51518345
H       22.16370583       6.18045568       6.03083181
H       20.77226448       9.51249599       6.34578609
H       20.81169128      11.24042511       6.78020048
H       21.04049683      10.75152397       5.06964684
H       26.44215584      11.01709843       5.69319487
H       24.79883003      11.70004177       5.89275074
H       25.22492218      10.90335941       4.34319878
C       31.49617767      14.30435753       6.51371050
O       30.93944550      13.93438148       5.23351192
P       29.54091644      14.62930298       4.81559229
O       29.38632584      16.03050804       5.32722044
O       29.50395393      14.44638348       3.21486926
C       30.31044579      15.42770672       2.53308606
O       28.40659904      13.59724617       5.30015373
C       27.05336761      14.10790157       5.19723415
H       31.33296013      15.37550831       6.70820379
H       31.04674721      13.67464638       7.29915190
H       32.57445908      14.10218048       6.51729393
H       31.37201309      15.23496437       2.72423077
H       30.10022354      15.31198025       1.46238732
H       30.05543900      16.43563461       2.88435221
H       26.44491959      13.60066032       5.95641088
H       26.63991165      13.89515305       4.20028400
H       27.02343750      15.18827438       5.37841177
C       19.60789680      23.05268860      23.53319550
O       19.89335251      22.94764137      24.94116592
P       18.76601219      22.02512360      25.64632416
O       18.47304153      20.79389381      24.87210464
O       19.30927277      21.72915077      27.13527107
C       19.86617470      20.41680527      27.37267685
O       17.57132530      23.08624649      25.84370232
C       16.45996475      22.73457146      26.70281410
H       19.31457901      22.06666374      23.13170052
H       18.77675056      23.75651741      23.35240555
H       20.52153778      23.39742279      23.02646255
H       20.96144295      20.51080513      27.44021988
H       19.43862915      20.02069283      28.30684662
H       19.59141541      19.74503136      26.54562187
H       16.00271606      23.65693283      27.08838463
H       16.78960037      22.10788345      27.54329872
H       15.72052765      22.15497589      26.13254929
C       15.24701118      29.20061874      13.19175434
O       14.40043449      29.69389153      14.26367760
P       13.34105396      28.65767288      14.86236477
O       13.57073975      27.23558617      14.43658924
O       13.39716148      28.86495781      16.45315552
C       14.20068169      28.03707695      17.29312325
O       11.89910126      29.24993515      14.48006725
C       10.79289436      28.37301636      14.83988857
H       15.43208218      28.12666130      13.31865120
H       14.77853203      29.38036919      12.21440220
H       16.18592453      29.76503372      13.23763466
H       15.09798145      28.59550476      17.60089493
H       13.60071373      27.77805901      18.17778587
H       14.47832870      27.11302185      16.76955605
H        9.86926270      28.88149452      14.54130936
H       10.80908966      28.19532204      15.92525291
H       10.88045025      27.41502190      14.30591202
C       16.54166794      14.39971066      10.91391945
O       16.59566307      12.96190071      11.05999660
P       17.20121002      12.59808540      12.51015759
O       16.51197433      13.11261082      13.73020267
O       17.33725739      10.98230553      12.43486977
C       16.18976593      10.23206997      12.91963768
O       18.74030495      13.13387203      12.38287258
C       19.36629105      13.10241413      13.68069553
H       15.93489265      14.85051441      11.71160221
H       17.56187057      14.82109356      10.96114063
H       16.07773972      14.60156536       9.93777084
H       15.31830502      10.37825966      12.25394440
H       16.45105171       9.16079998      12.91858196
H       15.90140915      10.56963825      13.92766762
H       20.43768120      13.29732609      13.53331757
H       19.22549057      12.11022186      14.14430523
H       18.92810631      13.85010624      14.36015606
C        5.42619276      19.61953735      20.51790619
O        5.62835598      18.21091652      20.26733208
P        4.33626938      17.55020523      19.54419708
O        3.87921906      18.25368500      18.30414391
O        4.74059105      16.00419044      19.33618164
C        5.43113804      15.85948753      18.07551384
O        3.25306511      17.51929092      20.75406265
C        2.05890369      16.80871964      20.36797714
H        5.06004095      20.10829926      19.60008049
H        4.68694019      19.78955650      21.31212807
H        6.38072109      20.05323029      20.83328629
H        6.27179241      16.56236076      18.00428009
H        5.85627222      14.84932995      18.01449776
H        4.74817991      15.99814320      17.22464561
H        1.42566741      16.73514938      21.26058769
H        2.29681444      15.79509830      20.01648521
H        1.51508343      17.34471703      19.57229233
C        4.93915176      11.77404690       2.68138170
O        4.46485424      12.32778454       1.41494548
P        2.83689761      12.50167751       1.35176098
O        2.17671871      12.65874481       2.67728543
O        2.62261558      13.78908539       0.40053004
C        1.85818887      14.80655193       1.09503710
O        2.36189842      11.19897366       0.52917367
C        1.47541475      10.36385918       1.31803691
H        4.16729021      11.87091064       3.45527172
H        5.17704344      10.70689392       2.54541588
H        5.82940674      12.33599091       2.98579955
H        2.40874815      15.18696690       1.96850216
H        1.66732001      15.60504055       0.36950007
H        0.90650713      14.39599800       1.45985627
H        1.43030012       9.38595104       0.83032000
H        0.46707323      10.79674911       1.33561897
H        1.83313882      10.28164387       2.34797621
C       20.11470604       5.46195745      18.43434334
O       18.93295479       4.84527826      17.88214302
P       19.18819427       3.35272002      17.29857254
O       20.38828278       2.69067550      17.88328743
O       17.80762672       2.56780410      17.58621788
C       17.73402405       1.83353925      18.81826591
O       19.18605614       3.51111174      15.67466831
C       19.77665901       2.40783906      14.94999886
H       20.64517593       4.74043751      19.07478905
H       20.79222107       5.78345728      17.62734413
H       19.76099014       6.33681726      18.99671555
H       17.25691414       2.44099545      19.59889412
H       17.11450768       0.94539911      18.63500404
H       18.74500656       1.53941417      19.13825607
H       20.24652672       2.80959272      14.04084587
H       19.00974083       1.67454541      14.67321682
H       20.52998352       1.92462707      15.58716679
C       13.49349976      19.61257362       9.15036011
O       13.09191036      19.46768761       7.77199602
P       13.02933598      17.96606445       7.15143871
O       13.06585217      16.91962242       8.21243954
O       11.71895027      17.96861267       6.19365025
C       10.48220158      17.76205635       6.90674782
O       14.20354080      17.93005371       6.04972029
C       14.23487949      16.68960762       5.32080317
H       13.19064713      18.72854805       9.72927570
H       14.58413506      19.73822975       9.21030617
H       13.01926327      20.51625061       9.55883408
H       10.34698105      18.51985931       7.69672203
H        9.66245937      17.84526634       6.18220615
H       10.46335411      16.75967598       7.35781097
H       14.98787975      16.75996971       4.52507019
H       13.24789810      16.47282982       4.88090801
H       14.47615910      15.86293411       6.00961590
C       10.18190765      15.15867710      18.15024376
O        9.61763477      16.12409401      17.21643829
P        8.73526764      15.66829014      15.93534279
O        7.35038757      15.21172619      16.23009300
O        8.77420712      17.01069450      15.01247120
C        7.66407013      17.92015457      15.24521255
O        9.68409252      14.57429790      15.23683357
C        9.12477207      14.03386784      14.03436661
H        9.48074341      14.32404232      18.28122139
H       11.13477612      14.77032661      17.75270271
H       10.30586433      15.67537594      19.11202240
H        7.77570677      18.42214775      16.21956635
H        7.63104916      18.66220665      14.43527412
H        6.71985722      17.35303688      15.29046440
H        9.72381783      13.16269779      13.71594048
H        9.16326618      14.78270340      13.22410202
H        8.08082390      13.71138573      14.18692303
C       10.22594738      10.80302238       8.66248035
O       11.54321480      10.84831333       9.20993328
P       12.31024456      10.37919235      10.52973461
O       12.56923199       8.93095589      10.71984959
O       13.66426468      11.24555492      10.37485600
C       14.43954563      10.74300480       9.26452637
O       11.52414894      11.04934120      11.77834320
C       11.96853447      10.55029392      13.07419491
H       10.05628681       9.95133972       7.99549913
H        9.42934322      10.77479362       9.42195797
H       10.05710888      11.71051884       8.07365799
H       13.82180309      10.67227840       8.35305691
H       15.25909042      11.44995594       9.06687164
H       14.79553223       9.71897602       9.47492886
H       11.35682487      11.01257992      13.86208534
H       13.01916027      10.84091759      13.23918629
H       11.87512970       9.45432091      13.07108307
C        4.75373077      30.48908043       9.16872692
O        3.84834123      30.25714874       8.07062626
P        2.57556129      29.28263664       8.30317116
O        1.86316860      29.43739510       9.59974384
O        1.67958450      29.59371376       6.99652910
C        1.10621381      30.90846634       7.08899164
O        3.11918688      27.79118156       8.01648808
C        2.32710767      26.69988823       8.50435257
H        4.18750858      30.54273605      10.10903072
H        5.48428392      29.67122650       9.22884274
H        5.27811003      31.43093872       8.97322559
H        1.89818728      31.66457748       7.15855598
H        0.50807422      31.08666420       6.18944979
H        0.47318178      30.97528458       7.98443174
H        2.91246533      25.78195381       8.35718727
H        1.38367558      26.62505722       7.93918848
H        2.09173727      26.84997940       9.56619740
C       22.67354012      11.99440861      19.19906998
O       22.51841164      11.44397163      20.52110863
P       22.63307190      12.57137680      21.65895844
O       21.62694359      13.66098499      21.50724792
O       22.59071541      11.85922527      23.09893799
C       21.52376175      12.16143131      24.02846146
O       24.17147446      12.99186611      21.50174141
C       24.97930717      13.27113438      22.65990257
H       22.04241943      12.88311958      19.05602646
H       23.72959709      12.24603081      19.00931549
H       22.35713959      11.23685074      18.46858788
H       20.60465431      11.64060688      23.71194267
H       21.81620979      11.80048180      25.02507019
H       21.34342766      13.24107742      24.10175896
H       25.89832306      12.66996670      22.63688469
H       24.42427826      13.03586864      23.57497978
H       25.23624039      14.34129238      22.64573860
C       15.27325249      21.55839348       6.59203148
O       14.36562157      22.18711853       7.52856779
P       14.90825272      23.61918449       8.02125359
O       15.62506962      24.36400795       6.94738197
O       13.55692768      24.34534836       8.58254051
C       12.64978218      24.74208641       7.52117825
O       15.78368664      23.31998444       9.34648991
C       16.75226021      24.35310555       9.64726448
H       15.57147026      22.25329399       5.79296017
H       16.18048668      21.23463631       7.11810446
H       14.75750732      20.68611717       6.17140341
H       11.96242619      23.91683960       7.26969004
H       12.07145977      25.59849739       7.89156961
H       13.21144485      25.04452515       6.62385941
H       17.57956886      23.89243698      10.19887257
H       16.29655075      25.13507843      10.27138996
H       17.12426376      24.78922653       8.70774078
C       25.88666916      28.75274086       2.45244074
O       26.18817902      27.43971062       2.95823264
P       25.05441856      26.31604767       2.74856043
O       24.37477303      26.35593987       1.42395914
O       25.87445831      24.96361923       3.07145071
C       26.05645180      24.02749825       1.99149036
O       24.04213142      26.54167747       3.98265171
C       22.63262939      26.32665634       3.80462217
H       25.76811218      28.72536087       1.36114550
H       24.95499420      29.12617874       2.89490533
H       26.71799850      29.40524864       2.74365401
H       27.07572556      24.12458611       1.58255589
H       25.91655350      23.01503372       2.39053774
H       25.34188461      24.23273277       1.18175781
H       22.12127113      26.82510376       4.63627768
H       22.38211823      25.25967216       3.84333444
H       22.28974342      26.74851418       2.84911990
C       14.01270294      14.93600845      22.80707169
O       15.35055542      15.44489098      22.88480759
P       16.61994171      14.44865990      22.96375275
O       17.37693024      14.18083477      21.70603752
O       17.49116516      15.10223198      24.12634277
C       17.84006310      16.43457222      23.71886444
O       16.04324722      13.06222248      23.55383682
C       16.39653778      11.90914536      22.76685333
H       13.68369102      14.89534092      21.74841881
H       13.94720554      13.92180252      23.24224091
H       13.34849453      15.61169147      23.37162971
H       16.96899223      17.09620094      23.72838783
H       18.58848763      16.82649040      24.41596222
H       18.25709534      16.41814995      22.69319916
H       15.91117477      11.04748440      23.24962616
H       17.48781967      11.74177742      22.77672195
H       16.04848099      12.03157616      21.72646713
C        4.55348873      30.80643654      17.24935341
O        4.90550852      29.61582375      17.96320534
P        6.27804661      28.89128876      17.52855301
O        7.49419260      29.74204826      17.50867462
O        6.36813736      27.66940689      18.58685493
C        7.12482691      27.83161736      19.78338051
O        5.87662268      28.16693878      16.16003990
C        6.94619465      27.41053200      15.56638718
H        5.42083120      31.47289658      17.20447540
H        4.20044804      30.56622124      16.24072075
H        3.73617196      31.27649689      17.81035233
H        6.49401093      28.21709251      20.59679413
H        7.50322676      26.84161186      20.06542206
H        7.96630907      28.51980591      19.61521339
H        6.54464245      26.93640900      14.66186714
H        7.29399300      26.65234947      16.28315544
H        7.77236414      28.08659935      15.31018543
C       21.09182549       4.60050583      31.76516151
O       22.36666107       4.50190544      31.11103439
P       22.53811264       5.54237890      29.87512207
O       21.72898293       6.78608370      30.03375053
O       24.14846802       5.69604254      29.80514336
C       24.64302635       6.36927176      30.97433662
O       22.23851204       4.73489952      28.51074409
C       22.29003716       5.63380957      27.39465332
H       20.80190086       5.65614319      31.90915489
H       20.31567764       4.10010433      31.16473389
H       21.18366432       4.07330179      32.72469711
H       24.29025841       5.87199163      31.89436150
H       25.74133682       6.34694862      30.93978310
H       24.27321053       7.40370893      30.98996925
H       22.35505867       5.03184462      26.47222137
H       23.13733101       6.33381367      27.47941971
H       21.35499763       6.21746826      27.34797859
C       29.27467728      23.95854187      10.27917957
O       28.17129517      23.49715042      11.09722614
P       26.78341484      24.26691055      10.93744659
O       26.32485199      24.34414291       9.50449657
O       25.79672813      23.44356918      11.88254833
C       24.66412163      22.77072144      11.28111458
O       27.05562019      25.69790649      11.60210800
C       26.03006172      26.71765709      11.66957188
H       28.91990089      24.17489433       9.26404572
H       29.72845268      24.85036087      10.72738743
H       29.98747444      23.13049889      10.25147438
H       24.96502876      22.16668510      10.41186523
H       24.26116753      22.10322952      12.05111313
H       23.89346886      23.49369240      10.97782993
H       26.43270302      27.54989052      12.25697041
H       25.14279938      26.34759140      12.19585323
H       25.76303673      27.07001305      10.66213131
C        9.22746086       2.30238175      11.29810810
O       10.23868752       3.29628682      11.05326176
P       11.65533829       2.54220700      10.88584805
O       11.60676956       1.32380044      10.02020741
O       12.70903969       3.67799449      10.38064098
C       12.70426464       3.68714333       8.92981911
O       12.13004971       2.24876475      12.41348076
C       13.05441761       1.15165222      12.46322918
H        9.10319233       1.67018068      10.40326595
H        9.50577164       1.67172003      12.16142941
H        8.29441261       2.82937455      11.53870106
H       11.70689297       3.95060754       8.54153728
H       13.43844223       4.44326925       8.61038589
H       12.95766449       2.69014144       8.52931023
H       13.21603489       0.89719319      13.52025127
H       14.01447105       1.42355919      11.99643707
H       12.64212608       0.29143906      11.91738415
C        3.12215567      16.46464539      13.02617645
O        2.26465654      16.49384117      11.86576271
P        2.73205662      15.50790787      10.66943741
O        3.40204954      14.24987125      11.12343884
O        1.37975192      15.27995777       9.80574036
C        0.65635008      14.07758999      10.13409138
O        3.66836715      16.43172836       9.70591354
C        4.62289715      15.64003944       8.94922638
H        3.63599658      15.49289799      13.07103825
H        3.83492517      17.29860878      12.98532391
H        2.49927974      16.56189919      13.92638206
H       -0.33424947      14.35445213      10.52508259
H        0.54724109      13.46581650       9.22845554
H        1.19571280      13.48439598      10.88561249
H        5.46421242      16.26792145       8.63337040
H        4.14517546      15.19786835       8.06445694
H        4.99470091      14.81100941       9.57501125
C       21.43668938       6.13585186      14.44717693
O       21.31500053       6.46330404      13.02824116
P       22.78363800       6.65689707      12.34883022
O       23.76244545       5.59788942      12.72599030
O       22.51385307       6.79528189      10.76930809
C       22.59162331       5.53956509      10.04286957
O       23.15648079       8.12087154      12.89095592
C       24.57137680       8.37231731      13.07573795
H       22.05235100       5.23548794      14.56193447
H       21.87059212       6.97918224      15.00055695
H       20.42760658       5.94131756      14.83282471
H       21.71543312       4.91500139      10.26267815
H       22.64803696       5.78481436       8.97790432
H       23.46455765       4.96382570      10.37258530
H       24.65062141       9.27246284      13.69508362
H       25.05207443       8.55008221      12.10451984
H       25.03413582       7.51519680      13.58313560
C       25.00498962      24.01890755      28.57254791
O       24.58739471      23.20611954      27.45746994
P       23.20360756      23.62346649      26.71598625
O       23.03480911      25.08741379      26.51850891
O       23.26943016      22.78723717      25.33527565
C       23.37653542      23.67373085      24.19826317
O       22.05148506      22.97515678      27.66094971
C       21.04187012      23.90761566      28.11820984
H       24.65426826      25.05667496      28.47213936
H       24.64358521      23.59285545      29.51941490
H       26.11434174      24.03289795      28.57626534
H       24.26324654      24.31272697      24.29129982
H       23.43102646      23.05410957      23.29466629
H       22.49486351      24.32518959      24.13529778
H       20.32433510      23.33440399      28.71954346
H       20.49736595      24.34565353      27.26561928
H       21.47436714      24.72917175      28.70595932
C       12.56972694      25.04779434      26.67466736
O       12.23930836      24.23805809      27.80940819
P       13.04115582      24.50636482      29.18508911
O       13.85796642      25.75516701      29.17878151
O       11.92996693      24.40822029      30.34496498
C       11.21773148      25.55385017      30.79248238
O       13.85824299      23.14143562      29.40801430
C       15.17989922      23.20862770      30.00044060
H       12.89539337      26.04592133      26.99678040
H       13.37912464      24.57929230      26.09492302
H       11.67692471      25.09143448      26.03852844
H       10.38092422      25.79726791      30.12328529
H       10.81201172      25.31669044      31.78275490
H       11.89063931      26.41531563      30.87432671
H       15.66074371      22.24907875      29.76878166
H       15.11398411      23.34628487      31.08728409
H       15.75881004      24.03439522      29.56179047
C       14.82078457       9.12861919      24.66483116
O       13.79766083       8.12500858      24.49450684
P       14.34951687       6.62004757      24.73516083
O       15.66851997       6.61314106      25.42730141
O       13.14973068       5.90329170      25.55120087
C       13.15924168       6.27734900      26.94291115
O       14.39746094       5.85911989      23.30858994
C       15.20658398       4.65912580      23.37061691
H       15.42031574       8.94166660      25.56384468
H       15.51132393       9.09391594      23.80239487
H       14.32095814      10.10360813      24.74802017
H       12.88572121       7.33874369      27.07400322
H       12.38994026       5.67959881      27.44856071
H       14.14573097       6.09347534      27.39542007
H       15.08692169       4.15191698      22.40440941
H       14.83850670       4.00610781      24.17688751
H       16.24927330       4.93063211      23.57487869
C       10.60002518      16.36995125      10.42374325
O        9.75382328      15.28604317      10.84407425
P        8.19652271      15.55599976      10.49452782
O        7.91337585      15.70973206       9.03263092
O        7.47642756      14.26593208      11.17965698
C        7.73748255      13.04885101      10.45241642
O        7.76804781      16.75862694      11.49010468
C        6.38472843      16.77310753      11.93061638
H       10.44917011      16.56339645       9.35178280
H       10.41010189      17.27343941      11.02335167
H       11.64971256      16.07808113      10.57083130
H        8.81303787      12.79598522      10.49460602
H        7.11011553      12.26362801      10.90881729
H        7.45136690      13.17193508       9.39129257
H        6.32210493      17.42152023      12.81654453
H        6.03913546      15.76336670      12.21290970
H        5.71896982      17.15693855      11.13890839
C        7.36772299      12.78259277       6.76308870
O        6.79876852      12.13171101       5.60647058
P        7.50295067      10.72308159       5.26107168
O        8.43032742      10.26356506       6.32735014
O        6.30906868       9.73510838       4.83852196
C        5.74978638       9.05875206       5.98789787
O        8.12264061      11.01417732       3.77901220
C        8.40912724       9.91478443       2.87126899
H        7.46813965      12.05854511       7.58316374
H        8.37584591      13.15221500       6.51995325
H        6.71754313      13.62358952       7.04717398
H        5.13047457       9.75496101       6.57589579
H        5.10834837       8.26022816       5.58737421
H        6.56243324       8.65811634       6.61177349
H        8.38491344      10.32274914       1.84457827
H        7.65849066       9.11949253       2.97589397
H        9.40488338       9.50105095       3.07524514
C       15.02250195       3.76192164       5.80076742
O       16.14685249       3.42189312       4.95863438
P       17.37002945       4.47662306       5.08902502
O       17.61369514       5.00125551       6.46116400
O       18.57347870       3.58593512       4.46750164
C       18.90747833       2.51464319       5.36419439
O       17.12351990       5.60545588       3.96345663
C       17.11233139       6.95970631       4.46451616
H       15.35910702       4.06698465       6.80372810
H       14.44288921       4.58660984       5.36416435
H       14.39317131       2.86795831       5.86407566
H       17.99978065       1.97650599       5.66387510
H       19.58659363       1.82669103       4.84787416
H       19.37560654       2.92003918       6.26954460
H       16.25034523       7.46939754       4.01804495
H       18.04647827       7.46563768       4.18593311
H       16.99917412       6.96661997       5.55820847
C       14.99416828      20.18270111      12.34826660
O       15.87915421      19.05323982      12.11860275
P       17.22843170      19.12766838      12.97186565
O       17.07309151      19.36864090      14.45012283
O       17.95956421      17.73005104      12.61288166
C       17.62792206      16.62178040      13.49356365
O       18.06295013      20.26426697      12.17144299
C       19.21158791      20.85956955      12.81627083
H       14.82099724      20.31920433      13.42426682
H       15.43578148      21.10727119      11.94190407
H       14.04023170      19.96683693      11.84943962
H       16.56153870      16.35975647      13.39359570
H       18.21819305      15.75373173      13.16137791
H       17.84338951      16.87304878      14.54052544
H       19.61574745      21.58177376      12.09536743
H       19.95523643      20.09027290      13.06416702
H       18.92498779      21.39951134      13.72829437
C       11.44097996       4.39741755      18.14826393
O       12.00464725       3.63514495      19.23061180
P       13.15460205       4.36729956      20.03574753
O       12.89076424       5.74620104      20.56215096
O       13.41420078       3.27333355      21.19456863
C       12.40101433       3.37540412      22.22535133
O       14.46132469       4.26164770      19.07505226
C       15.47831821       5.27061129      19.29812241
H       11.10522747       5.38593912      18.49135971
H       12.17468929       4.53449631      17.33622551
H       10.57393646       3.84469938      17.76249313
H       11.39694500       3.47957516      21.78721046
H       12.42943954       2.45359755      22.82252312
H       12.59923649       4.24470568      22.86598396
H       16.13320541       5.31489086      18.41871452
H       16.06495285       4.96344995      20.17945671
H       15.02129936       6.25351572      19.49596977
C       26.89383698      23.33752632      21.68526459
O       27.96805763      22.48459816      22.12450218
P       29.38443947      23.23843384      22.18971252
O       29.34261322      24.59384918      22.80588150
O       30.33987617      22.18506813      22.96293640
C       30.53783798      22.37099266      24.36343384
O       29.93210220      23.19649506      20.67464638
C       30.82627678      24.26916122      20.33313179
H       26.84582520      24.22821045      22.32440376
H       27.04520226      23.65106583      20.64771461
H       25.96664429      22.76217461      21.77134514
H       29.78596306      21.80314636      24.93362427
H       31.54454994      22.00889206      24.61013794
H       30.45335770      23.43640137      24.62638092
H       30.83048248      24.36704254      19.24512672
H       31.83167648      24.04101562      20.69993210
H       30.47761154      25.19569969      20.80574226
C       28.99404907       6.29897404      11.36346149
O       29.26559639       7.70563841      11.19926834
P       28.51150894       8.63581085      10.11241341
O       27.83522797       9.80627537      10.73798847
O       29.65131760       9.05273438       9.04090500
C       30.62649918       9.99012375       9.54038811
O       27.62553406       7.60620832       9.26729107
C       27.23265648       7.93964481       7.93172169
H       28.36631966       6.15627337      12.25593472
H       28.47153473       5.89470005      10.48800278
H       29.95155716       5.77035236      11.46422195
H       31.24189949       9.49791527      10.30682087
H       31.26437759      10.30715656       8.70656681
H       30.11395836      10.85166264       9.99691296
H       27.03396988       7.00067616       7.40115738
H       28.03610420       8.48136616       7.41130638
H       26.31464958       8.54610634       7.94739532
C        2.42242670      24.78864288      16.93843269
O        2.13843250      23.54363823      17.59652519
P        3.48897767      22.79628181      18.04587364
O        4.49262571      23.65205956      18.75223160
O        2.93985724      21.54987907      18.93814850
C        2.70986867      21.86700821      20.32268524
O        3.99731874      22.10276794      16.67281151
C        5.27523565      21.46242142      16.87566185
H        3.10858297      25.37864113      17.56432724
H        2.87748861      24.64040756      15.94997311
H        1.46262896      25.30325127      16.80012512
H        2.08110738      22.76334000      20.42649078
H        2.18572736      21.00403786      20.75143433
H        3.65372157      22.03429222      20.86217117
H        5.59621668      21.05191612      15.90560055
H        5.15771055      20.62739182      17.58103943
H        6.00056982      22.19006157      17.26173592
C       18.29737282      25.47782707       3.43853617
O       17.45356369      25.10973930       2.30696273
P       16.55967140      23.75326347       2.55382824
O       16.80779076      23.13923264       3.88999796
O       15.04133701      24.15483856       2.22831941
C       14.39455032      24.66248894       3.42586064
O       17.04714584      22.80471420       1.30601621
C       17.54544449      21.48025513       1.61713350
H       17.83474350      25.12332153       4.36765528
H       19.28462410      25.00786781       3.33755827
H       18.38926125      26.56722641       3.45491099
H       14.46792698      25.75312805       3.49765468
H       13.34159279      24.36530495       3.36051488
H       14.82678986      24.21764946       4.33732367
H       18.43068504      21.30529022       0.98380905
H       16.76447296      20.74393082       1.37854505
H       17.80496025      21.41661453       2.68756723
C       22.73636818       8.83362484      24.67374420
O       22.13633728       7.87179136      23.77431297
P       20.74295044       8.36174488      23.13214302
O       20.73233414       9.60317230      22.29918861
O       20.27736092       7.01702785      22.36143303
C       21.25419998       6.41636372      21.46817589
O       19.72467804       8.45872116      24.38373756
C       18.38032150       8.84192753      24.00755501
H       22.97996902       9.75208759      24.11630821
H       22.03826904       9.05075645      25.49230194
H       23.65233612       8.40348339      25.10830879
H       22.21511269       6.30987406      21.98725891
H       20.88106155       5.40915632      21.23717690
H       21.36059761       7.01595497      20.55281830
H       17.86422729       9.20471668      24.90317154
H       17.82337952       7.96280241      23.63296700
H       18.39664268       9.62874889      23.23484230
C        3.00948381      20.17502785      12.73684406
O        4.17178392      20.41890526      11.92710876
P        5.50986910      20.97177124      12.61333656
O        6.01678085      20.17707634      13.76889229
O        6.55907631      21.13931656      11.39828968
C        7.26153421      19.99580383      10.88089275
O        5.20588875      22.54415321      12.96680737
C        6.30218887      23.14875603      13.71472168
H        3.28669214      19.95207596      13.77428722
H        2.33857703      21.04643822      12.69792747
H        2.49816155      19.30557632      12.30033684
H        6.60009432      19.39230156      10.23959160
H        8.09336185      20.36582375      10.26450062
H        7.62236214      19.36582375      11.70380783
H        5.93069172      24.07721138      14.16479111
H        7.12671041      23.35658264      13.01935768
H        6.63449430      22.44917297      14.49747849
C       23.41957283       1.14820671       8.92369938
O       23.09262848       0.55586439      10.19831276
P       22.42010307       1.50876105      11.31682682
O       22.40996933       2.94839120      10.93338585
O       20.97094536       1.01870859      11.79864883
C       19.83746529       1.81321430      11.40516663
O       23.38008881       1.05322373      12.53849888
C       23.09013367       1.26250565      13.94901562
H       23.35979080       2.24235439       8.99245834
H       24.44380379       0.83674228       8.68134975
H       22.72715569       0.77599359       8.15999985
H       19.50734138       1.55158079      10.38901138
H       19.01546478       1.56199741      12.08458614
H       20.06713486       2.89232898      11.45289421
H       23.88432884       0.74110037      14.51345444
H       22.11922073       0.84110379      14.23690605
H       23.12870216       2.33533382      14.19323635
C       29.43612289      18.42714882       8.07556534
O       29.30326653      17.64645958       9.29237461
P       27.91567421      17.66094780      10.13362312
O       26.77063560      18.25851250       9.39567280
O       27.84407043      16.08380508      10.47277546
C       26.63418007      15.33309269      10.13071823
O       28.25522041      18.37678337      11.52226543
C       27.47462082      19.53733826      11.89574051
H       28.44824409      18.83440208       7.80574131
H       30.16425896      19.22355080       8.24706936
H       29.75068283      17.77846718       7.24724960
H       26.84994316      14.63560963       9.31003571
H       26.33017921      14.78682804      11.02862453
H       25.83149338      16.00777245       9.79956818
H       28.10403633      20.16341591      12.53778744
H       26.57468224      19.23602104      12.44546890
H       27.16428757      20.10087585      11.00208378
C       20.86243820       8.66622829       2.51865172
O       20.90565491      10.01040745       2.00960875
P       19.46974564      10.75695419       2.00125480
O       18.98447990      11.21116352       3.33886862
O       19.74032211      11.96653175       0.94815677
C       20.68241119      12.87424088       1.57846963
O       18.45796013       9.77877903       1.22148573
C       17.11796761      10.08613205       1.67046404
H       20.36462021       8.65814209       3.50082231
H       20.32224464       8.01919746       1.80708396
H       21.90257835       8.33639812       2.65126538
H       21.59343910      12.33625126       1.88680470
H       20.91397476      13.64345551       0.82865888
H       20.23142052      13.32125473       2.47663426
H       16.41641045       9.52513981       1.04052448
H       16.91377640      11.16392231       1.56911254
H       16.99384308       9.81989098       2.73105311
C       26.09068489       2.15527987      27.38255692
O       27.47163010       2.57641959      27.56670570
P       28.21405602       2.16173530      28.94352722
O       28.03848839       0.76585001      29.40457726
O       29.76555824       2.52691722      28.60898209
C       30.65281296       1.47603750      28.20575714
O       27.79309464       3.35668659      29.93826294
C       28.02252960       3.30159140      31.35159302
H       25.91498375       1.19900978      27.89320755
H       25.40291023       2.90742660      27.79199791
H       25.90272331       2.04833269      26.30707741
H       30.55790329       1.26426101      27.13251686
H       31.67088509       1.80631542      28.44665337
H       30.40573883       0.55913222      28.76124001
H       27.90318871       4.32487249      31.72553253
H       29.03983498       2.94918585      31.56440735
H       27.28659439       2.63596201      31.82334900
C       12.28276157      16.07580566      27.29155922
O       11.43933964      15.94560146      26.11950493
P        9.86752129      15.90547657      26.53095818
O        9.47905636      16.74450874      27.70919037
O        9.15749454      16.17912865      25.11221695
C        9.39310169      17.53300858      24.63395500
O        9.62445068      14.31879807      26.76549911
C        8.64702320      13.92429924      27.74671745
H       11.99829769      16.96662521      27.86819458
H       12.17731380      15.19677258      27.94595528
H       13.32250023      16.14633751      26.94276619
H       10.45238590      17.68423271      24.37049294
H        8.80590534      17.65031624      23.71162605
H        9.09362221      18.27066422      25.39565659
H        8.87528038      12.89100647      28.05292702
H        7.62747717      13.96195126      27.32924652
H        8.65713882      14.62312508      28.60348320
C       17.88054657       7.50431347       9.73899269
O       17.53150940       6.45650005      10.67854881
P       15.98936462       5.90996742      10.43753338
O       15.63874912       5.68190193       9.00517464
O       15.99259281       4.50957823      11.28936672
C       16.19842339       3.37677932      10.42257309
O       15.13606262       6.95106363      11.30231094
C       13.82503223       6.47716761      11.68048859
H       17.47957611       7.24294376       8.74735451
H       17.45572662       8.46187210      10.07128525
H       18.97482681       7.56102562       9.70409870
H       17.06348419       3.52985048       9.76115322
H       16.33852386       2.49669003      11.06187344
H       15.31118679       3.22031283       9.79015064
H       13.31451607       7.26373768      12.25641441
H       13.90219212       5.54184723      12.26278400
H       13.21159458       6.29863167      10.78411007
C       10.71549416       1.05567336       6.89469814
O        9.42884541       0.45237547       6.63023806
P        8.34808445       1.65787339       6.53173590
O        8.64204407       2.65022278       5.45996571
O        6.90082216       0.97216421       6.35861111
C        6.50968552       0.98776758       4.97121286
O        8.42026329       2.23869228       8.06567764
C        7.66714954       3.45596457       8.13171768
H       10.79267502       2.02809453       6.37857819
H       10.88065624       1.18773901       7.97786665
H       11.48416042       0.37936619       6.50056696
H        7.20462036       0.37582222       4.37088013
H        5.50431585       0.55235893       4.92122984
H        6.49945307       2.02298522       4.59868240
H        7.64195156       3.79569721       9.17852116
H        6.62023544       3.28594971       7.81051350
H        8.13060188       4.21235371       7.47779179
C       24.43735313      24.77795410      15.09910679
O       25.76577759      25.16423225      14.74157429
P       26.52278900      26.23954964      15.67982769
O       26.39498138      25.98248672      17.13866615
O       28.03724098      26.12998390      15.12551117
C       28.97965431      25.42387199      15.94239140
O       25.99610519      27.62734222      15.07022476
C       26.05711365      28.85168839      15.82565403
H       24.30231094      24.85489845      16.18443108
H       23.70139503      25.42761230      14.60939217
H       24.28570557      23.74206734      14.77381229
H       29.01276779      24.37228394      15.63387108
H       29.95164680      25.90296936      15.81425571
H       28.66920662      25.47355652      16.99303436
H       25.72380829      29.65819168      15.15340996
H       27.08284760      29.04833221      16.17522812
H       25.37772942      28.79219246      16.68669128
C       25.79886246      16.74043846      14.81666660
O       25.27874184      17.84827232      14.06868744
P       23.65822029      18.02565575      14.12385559
O       23.03028679      17.63675690      15.42168331
O       23.47842979      19.60088539      13.74537277
C       23.44194412      20.43503571      14.92463684
O       23.15915108      17.17123032      12.85191822
C       21.77179718      16.79024887      12.90294838
H       25.13130188      16.52305794      15.66440964
H       25.84315491      15.85588074      14.16297626
H       26.79833412      17.02211571      15.16195583
H       24.44659996      20.55566597      15.35229492
H       23.03345299      21.40517807      14.62328434
H       22.78534317      19.99335670      15.69088459
H       21.66913223      15.82423496      12.39183617
H       21.14844322      17.52396393      12.36931515
H       21.43808174      16.70747185      13.94542694
C       18.42908669      18.79263687       4.98953247
O       19.78056145      18.99253464       5.44509554
P       20.75766945      17.86574936       4.82979393
O       20.86666679      17.87316322       3.33957505
O       22.12054825      18.09992790       5.67294598
C       22.84122276      19.30003166       5.36818647
O       20.15817642      16.50433731       5.43531752
C       20.43074417      15.34139156       4.63885546
H       18.39988708      18.70621681       3.89068246
H       18.00047874      17.88307762       5.43742943
H       17.85223007      19.66941452       5.30547047
H       22.17263603      20.17378616       5.40873766
H       23.62582779      19.40575027       6.12910318
H       23.28451729      19.21758652       4.36320210
H       19.88878632      14.50648022       5.09196281
H       21.50850296      15.12885094       4.63367462
H       20.07319260      15.48998260       3.60552931
C        7.38790226      13.06412983      19.87702560
O        7.10974073      13.76607037      21.10383034
P        8.00074005      15.08433056      21.29421425
O        7.95854187      16.06262970      20.16482544
O        7.58860779      15.61747265      22.77282333
C        6.19860363      15.69258690      23.14345551
O        9.46740913      14.46143341      21.55632591
C       10.43532467      15.43822765      21.96959496
H        6.94257355      13.56423283      19.00294113
H        8.47206974      12.92993927      19.72611427
H        6.95607567      12.05739689      19.95077896
H        5.72462797      14.69892502      23.12297249
H        6.15875244      16.07536125      24.17378807
H        5.65243244      16.37612915      22.47308922
H       11.37724113      14.90293980      22.14626312
H       10.13551044      15.93134880      22.90277672
H       10.54575348      16.22322273      21.20356560
C       12.64286995      19.05008698      25.00076866
O       11.94461250      20.22768021      25.50518990
P       12.14580822      21.45320892      24.46765327
O       12.14121056      21.05416679      23.03219986
O       10.99628162      22.52877235      24.84415436
C        9.69538307      22.20223618      24.29877090
O       13.54042244      22.12638474      24.93898582
C       14.09785938      22.88303947      23.84046364
H       12.31682014      18.81855392      23.96925163
H       13.73129177      19.21390152      24.99045372
H       12.39615822      18.21091843      25.66673470
H        9.31240177      21.28106689      24.77684021
H        9.04487991      23.06444359      24.50000000
H        9.71774292      22.01094437      23.21210670
H       15.09000015      23.23225403      24.16064262
H       13.44655991      23.73535156      23.58259964
H       14.19446278      22.25134087      22.94644737
C       17.05095673      12.95525455       4.83180761
O       18.14867210      12.76609993       5.74637604
P       17.86434174      13.42276669       7.19108105
O       16.51537895      13.16480160       7.76917744
O       19.07748604      12.82436562       8.09441566
C       18.69964600      11.56749535       8.69140911
O       18.29201508      14.97175026       7.01032877
C       18.24567032      15.74844933       8.22676754
H       16.10694313      12.60262966       5.27269650
H       16.95376205      14.01833534       4.55776501
H       17.27877235      12.37421322       3.92422032
H       18.40726852      10.84953880       7.90065432
H       19.57405090      11.21277332       9.25430965
H       17.83655548      11.70551395       9.36135197
H       18.87018204      16.63702393       8.05975628
H       18.66757774      15.16652584       9.06208038
H       17.20295334      16.01327324       8.46782494
C       12.18534374      12.79791069      19.93436623
O       13.31604385      13.12276554      19.09054184
P       13.99411488      11.80797005      18.44381142
O       13.17552280      11.02816677      17.47458839
O       15.41734791      12.26953506      17.82939529
C       15.19180870      12.79491234      16.49767113
O       14.42303467      10.97231388      19.78920364
C       15.12569523       9.73724461      19.51518631
H       11.62214279      11.94164085      19.53550720
H       12.49575710      12.58298111      20.97158813
H       11.48893738      13.64944363      19.96073914
H       14.59681511      13.72322369      16.52837753
H       16.16060066      13.00709057      16.02050018
H       14.63469887      12.08419514      15.86449718
H       15.24457836       9.21342278      20.47591209
H       16.11336327       9.94431400      19.06978035
H       14.53107834       9.10502434      18.83527756
C       15.72348309       8.50005627      28.33405876
O       16.60456276       7.44943380      27.90064430
P       18.12568283       7.73908615      28.33285141
O       18.27408981       8.29334259      29.71710396
O       18.90772057       6.34139681      28.03026390
C       18.54942894       5.26455927      28.90645599
O       18.74269676       8.63722706      27.12968826
C       20.06990051       9.05892563      27.55029678
H       15.75487995       8.62448120      29.42884827
H       15.99442959       9.44993877      27.83549690
H       14.70490837       8.23415852      28.01257324
H       17.54898262       4.88976240      28.62574005
H       19.29271126       4.46776199      28.75772667
H       18.54688644       5.61735296      29.95174217
H       20.47246742       9.67700481      26.73206520
H       20.71048737       8.17993259      27.74760628
H       20.01669121       9.61237431      28.49489594
C        1.41155720       3.28702736       4.57331038
O        2.07901192       4.19717646       5.45945168
P        3.10803580       3.43791366       6.44693232
O        3.99722958       2.45868349       5.75396585
O        3.90100074       4.63041449       7.23303795
C        4.95095873       5.07508850       6.34310246
O        2.22554326       2.77985740       7.63646126
C        3.13489914       2.09764624       8.52433681
H        2.11051583       2.51666093       4.21454096
H        0.56739879       2.81788373       5.10042238
H        1.02392483       3.88376331       3.73665619
H        4.53511620       5.57726049       5.45533133
H        5.58215809       5.77829552       6.90216351
H        5.57076311       4.23500013       5.99342251
H        2.54996467       1.76980984       9.39510632
H        3.92890549       2.78021288       8.87312317
H        3.60096264       1.24039912       8.01058578
C       27.50467682      18.92316437      19.43335152
O       27.47825050      18.41096878      20.78618050
P       26.09011269      18.53213692      21.58376694
O       25.12050438      19.48590660      20.97769165
O       25.51382637      17.00451279      21.69159698
C       24.46503448      16.69168091      20.75034142
O       26.54873848      18.85091019      23.10321236
C       25.61990547      19.63311195      23.88240433
H       26.48329735      18.99120331      19.03228569
H       27.93510818      19.93558121      19.45982552
H       28.13407707      18.24307632      18.83677292
H       24.88363838      16.42967796      19.76510429
H       23.90742493      15.83143234      21.13821793
H       23.78378487      17.55016136      20.64704514
H       26.16961098      20.42586327      24.40746689
H       25.08881187      18.98760796      24.59980011
H       24.86417580      20.08632660      23.21676445
C        4.26168203       7.72271395      19.32049370
O        4.03013325       6.77621126      18.25668907
P        2.60442853       6.01941872      18.27585602
O        1.41089308       6.91301155      18.29634666
O        2.63936067       4.91058064      17.11237144
C        1.86060643       5.17487431      15.93598557
O        2.81645012       5.11397219      19.60493088
C        1.97166765       3.98484468      19.83641624
H        3.33233547       8.28383923      19.50632286
H        4.54443693       7.18111086      20.23804474
H        5.07284021       8.38643360      18.99121475
H        2.53383350       5.50618649      15.13008785
H        1.40955591       4.23372030      15.59248638
H        1.05681038       5.89844322      16.14199829
H        2.53330636       3.28412318      20.46803665
H        1.69082129       3.49522042      18.89369392
H        1.05493951       4.30541945      20.34436798
C       24.54371071      26.87055397      19.94426346
O       23.13240051      27.15026093      19.87782669
P       22.56483078      27.83346558      18.54427147
O       23.38134003      27.57220078      17.32933807
O       21.05980110      27.28640366      18.46691895
C       20.85188103      26.00616646      17.85158157
O       22.34896278      29.36564255      18.96355820
C       22.52433968      30.39625168      17.97225952
H       24.93030548      26.56468391      18.95865822
H       25.08608627      27.75851059      20.28248787
H       24.67122841      26.06062889      20.66626167
H       20.82861137      25.24096680      18.63555908
H       19.88617134      26.04204559      17.33849144
H       21.64318848      25.79172707      17.12482452
H       22.85728073      31.29599380      18.50599480
H       21.57756233      30.59289360      17.45665359
H       23.28367233      30.08964348      17.23883438
C        7.48401928       5.10950851      25.39225960
O        6.23123026       4.55481577      25.90087318
P        6.41835976       3.14926338      26.65379333
O        7.61588526       3.04694200      27.52790642
O        5.00752258       3.03448176      27.42341423
C        4.86017370       3.87765932      28.56544495
O        6.30004692       1.99452865      25.53421402
C        7.27155352       0.95696545      25.55269432
H        8.20674324       5.18819475      26.21615601
H        7.90009356       4.49089527      24.58926392
H        7.24302340       6.10022593      24.98542023
H        4.40814734       4.83683825      28.27924538
H        4.19923258       3.35053420      29.27053642
H        5.83329201       4.05411577      29.04226303
H        7.51495123       0.66255349      24.52770805
H        6.85794878       0.09822854      26.09211540
H        8.17767143       1.29727006      26.06610107
C       27.15736008      16.21047783       1.62673855
O       25.88645935      16.31646538       2.31235862
P       24.76280975      17.16271782       1.54063058
O       24.75069618      16.94764709       0.05026613
O       23.40296364      16.81898880       2.31489968
C       22.49654579      15.89539719       1.66094029
O       25.11387825      18.67316055       1.95346010
C       24.10693741      19.68266106       1.75952375
H       27.01903343      16.44083214       0.56212950
H       27.86372566      16.90950584       2.08987117
H       27.53948975      15.18973827       1.75961864
H       22.87789917      14.86703491       1.73295927
H       21.53359222      15.96323013       2.18768048
H       22.34103394      16.17431259       0.60753673
H       24.37037849      20.48103905       2.46274805
H       23.11437035      19.28435326       2.02577949
H       24.09323502      20.06092834       0.72689354
C       14.62088871      19.58888817      16.58849907
O       13.22232628      19.79814911      16.91941071
P       12.73354626      21.32748222      16.81080437
O       12.85225773      21.88748550      15.43535900
O       11.21593094      21.30679893      17.39578819
C       10.11857510      21.26465034      16.46971130
O       13.56318283      22.04551506      17.98249054
C       13.20062542      23.41827583      18.18128014
H       14.85988617      19.98513603      15.58793259
H       15.26471329      20.08407784      17.32473755
H       14.81932831      18.50764275      16.60632706
H        9.90681648      20.22952843      16.15477562
H        9.23098469      21.62603188      17.01244926
H       10.31436443      21.88423538      15.58254910
H       13.82883263      23.80171967      18.99776077
H       12.14706516      23.49192238      18.49137115
H       13.36640644      23.99142456      17.25717163
C       26.82206535       2.93428683      10.02123928
O       27.19296265       3.12839222       8.64533806
P       28.29867744       2.12946558       8.02068233
O       27.92176628       0.68299878       8.02399254
O       28.64148521       2.70529032       6.55709171
C       27.97786713       2.16550183       5.41028261
O       29.56251526       2.50239968       8.93832493
C       30.70610428       1.65120852       8.77719975
H       26.44045258       1.90888369      10.18015385
H       27.66918564       3.12644362      10.69874763
H       26.01349640       3.65195036      10.23553371
H       27.01409912       2.67368841       5.26976633
H       28.62112045       2.35640144       4.54043055
H       27.79432487       1.08905804       5.54252386
H       31.38080597       1.86651266       9.61320591
H       31.21378517       1.88979232       7.83624125
H       30.38237572       0.60379225       8.78034782
C       26.11555672       6.43276739      26.77382851
O       27.16658974       7.10550404      27.51576424
P       27.27253151       8.71133900      27.20408249
O       26.19649315       9.16281605      26.28213120
O       27.35307503       9.39125252      28.64691734
C       27.05778885       8.74983978      29.90469551
O       28.78867912       8.86628246      26.66822624
C       29.08052444      10.10092449      25.97947884
H       25.16570282       6.98046827      26.87985039
H       26.37520790       6.36603022      25.70509338
H       26.00402641       5.42888308      27.21296692
H       26.68702698       7.73679161      29.71993446
H       27.96465683       8.70374298      30.51712418
H       26.26710892       9.31064415      30.42224503
H       30.07497978      10.03891182      25.51334763
H       29.05101013      10.95016193      26.67841339
H       28.33810616      10.28544712      25.19190216
C       17.92282104       7.58550644      16.22879219
O       17.28484344       6.28855848      16.23553467
P       16.00136566       6.19421339      15.26509666
O       16.38236046       6.13461637      13.81700611
O       15.19928074       4.89881468      15.77367973
C       15.43847656       3.70104337      14.99923897
O       15.18554592       7.46884251      15.79666519
C       13.84138012       7.78535461      15.33860779
H       17.93927956       7.99050903      15.20368195
H       17.36772156       8.26883507      16.88916779
H       18.94424438       7.45933104      16.61096191
H       16.43919563       3.31019974      15.22951794
H       14.66959953       2.97628951      15.29524326
H       15.34409809       3.90041947      13.92156124
H       13.50609493       8.63766575      15.94465351
H       13.15016270       6.94259214      15.49850655
H       13.85962391       8.05333519      14.26876736
C        8.65562153      18.69808197      19.34305954
O       10.10699749      18.87376595      19.23384476
P       10.89879799      19.33579636      20.59963417
O       10.77502346      18.28517151      21.65540504
O       12.38094330      19.57532310      20.00712013
C       13.17440224      18.37610817      19.90910339
O       10.24483681      20.75345993      20.98821259
C       10.97524261      21.97933769      20.70612717
H        8.39564133      18.24856377      20.31315613
H        8.13882923      19.65422058      19.17209435
H        8.34141350      17.95440483      18.59630585
H       12.83057404      17.74036026      19.07523727
H       14.20908070      18.67848587      19.69186401
H       13.10303879      17.78949547      20.83414459
H       10.48449516      22.49534798      19.86637688
H       12.03342915      21.77610016      20.46883583
H       10.96729946      22.59515762      21.61300278
C       22.47649765       3.66440201      24.11364365
O       21.32188606       4.40291691      23.66254616
P       19.94177437       3.59608102      24.02163696
O       19.89090157       3.03703308      25.39862442
O       18.78242302       4.70734978      23.74625015
C       18.56922722       5.52135420      24.94451714
O       19.89916801       2.50568366      22.82396317
C       19.23421860       1.27587569      23.14723206
H       22.27631950       3.22649860      25.10772705
H       22.70102692       2.85061336      23.40708923
H       23.31537056       4.36987782      24.15191269
H       19.42936516       6.18557787      25.11028862
H       17.63873863       6.10169077      24.82289696
H       18.45958519       4.88181353      25.83184433
H       19.76964569       0.45680302      22.65647507
H       18.19720268       1.30523932      22.78585052
H       19.23349190       1.12674081      24.23829460
C       22.86593437      27.43444061       8.72634888
O       23.90230370      26.91230392       7.82585859
P       25.10140419      27.89700127       7.38089275
O       25.83052826      28.47267723       8.55660439
O       25.96290970      27.03318977       6.35633707
C       26.77071953      25.88135529       6.73379230
O       24.32667351      28.95546532       6.47586870
C       24.84694290      30.30442429       6.39365530
H       23.27834129      27.51678467       9.74168301
H       22.48935509      28.40551758       8.38418293
H       22.03438759      26.72128105       8.73376179
H       26.15857124      24.97868156       6.58804798
H       27.63880730      25.83636284       6.06478834
H       27.07274628      25.95039940       7.78732920
H       23.98621941      30.97505379       6.49800825
H       25.34363174      30.42277527       5.42453623
H       25.57051468      30.49405670       7.19977951
