3423
Lattice="38.029998779296875 0.0 0.0 0.0 38.029998779296875 0.0 0.0 0.0 38.029998779296875" Properties=species:S:1:pos:R:3 pbc="T T T"
Na      32.66974258      10.64428425      33.13205719
Na      19.58033752      14.15375519      33.18274307
Na       0.69858831      14.52466869       4.73025322
Na      24.26130104      29.42335892       6.26340771
Na       3.05498576      29.38798141       0.68575919
Na      21.03160667      12.90113831      24.39167023
Na      16.76759148      13.26824093      37.61080933
Na       6.79342318      23.09503746       9.79939842
Na       6.09333849      17.00979233       4.93053961
Na      21.97131538      13.91568851      36.61182022
Na      26.14376831      10.41011333      12.60521889
Na       8.96696568      33.11309433      14.02157116
Na      25.81262970      15.63460064      36.54368210
Na       8.26161098      10.44272995      29.61262321
Na      29.94189072      11.96124744      37.78945541
Na      29.23528481      32.48802185      29.68103981
Na       2.78421354       9.81950665       7.46054411
Na      23.52232552      32.71881104      35.75348663
Na       9.36383247      21.82560349      29.74451828
Na      21.73456764      23.13249588      24.73360443
O        2.68399072      17.78444862      19.91093826
S        1.69466460      17.85819626      20.98766899
O        2.16460371      17.46167564      22.31344223
O        0.73640609      18.95195580      20.91831017
C        0.65388268      16.35563278      20.55948639
F       -0.34799737      16.17681503      21.49184608
F        0.08012861      16.43513298      19.30564308
F        1.44236457      15.22664261      20.55063057
O        7.50231695      22.85426712       5.91913366
S        6.89161062      24.11236954       6.37463999
O        6.68565798      24.13871956       7.84136391
O        7.42744350      25.35937119       5.84213257
C        5.14982843      23.97323227       5.65563774
F        4.37514400      25.02495003       6.01510525
F        5.27928543      23.94336128       4.30076170
F        4.54388285      22.82778931       6.05304146
O       37.27709198      24.65107727       6.14431238
S       36.39621353      25.60179329       6.82415199
O       36.40568542      25.53828812       8.28641891
O       36.36268616      26.94473457       6.24324465
C       34.66555405      24.96211243       6.45409441
F       33.71402359      25.76993179       7.03461933
F       34.38536072      24.91036987       5.10182142
F       34.47400284      23.68387794       6.94396019
O        7.87523794       9.83796787      13.30436516
S        8.40735435      11.10504913      13.81116104
O        8.67140484      11.16294670      15.24891186
O        9.37408066      11.74983978      12.91864491
C        6.89358139      12.27839565      13.64137840
F        6.93826675      13.26657772      14.60134792
F        6.92500687      12.88387775      12.41781807
F        5.69714928      11.61532116      13.77490520
O        3.79849815      12.10518360      27.82789993
S        3.89673924      13.13921165      28.85250473
O        4.78675365      14.24713326      28.51263428
O        2.69727588      13.44642925      29.61899567
C        4.96426773      12.29593945      30.21582794
F        5.48564529      13.21938133      31.08380699
F        4.32045794      11.36071110      30.97076416
F        6.03866291      11.63209057      29.61810493
O       31.95983887      11.69738770      18.97173500
S       32.38340759      10.35189819      19.35697174
O       33.76865387      10.20458221      19.78599358
O       31.39036751       9.56212521      20.07887650
C       32.38820648       9.49976349      17.69773483
F       32.72093964       8.17510033      17.79072380
F       31.16535759       9.57436752      17.08247757
F       33.29529572      10.07280540      16.84032059
O       16.62282562      34.63311386       5.71105194
S       15.81466675      35.61491776       4.98914862
O       14.36629677      35.48589706       5.13403082
O       16.33773041      36.98010635       4.98076391
C       16.09319878      35.05168533       3.23641944
F       15.42138386      35.83813477       2.33474183
F       17.42271805      35.10967255       2.90310431
F       15.70253849      33.75310135       3.00493336
O       36.70814896       6.00211334      30.15841866
S       35.40400314       6.56757641      29.83722305
O       34.23784637       5.97600603      30.49414635
O       35.34766388       8.02872849      29.70356560
C       35.14866257       6.02711058      28.05725479
F       33.99099731       6.54618263      27.56295395
F       36.17142105       6.44701862      27.25676346
F       35.08035660       4.66666460      27.90195274
O        2.95173240      18.89435387       6.74268007
S        3.21276999      17.46694374       6.82289839
O        3.82580996      16.91383743       5.60657310
O        3.79915929      16.95993805       8.06092262
C        1.51172161      16.72989273       6.97050095
F        1.61634052      15.37315845       7.12313223
F        0.90474206      17.25312424       8.03933716
F        0.80567324      16.96854782       5.82157850
O        6.12338305      26.10613823      26.95698738
S        5.84275293      24.96930122      27.81242752
O        4.93828011      25.18772316      28.93140221
O        5.73926783      23.66920090      27.15777016
C        7.55464649      24.80030060      28.67967415
F        7.59259272      23.95081902      29.79786682
F        8.43053627      24.27748108      27.77673721
F        8.06346798      25.99074173      29.12062836
O       10.56478214      10.80999279      30.23648643
S       12.02110481      10.95725536      30.03359795
O       12.77507305      11.42721653      31.19565773
O       12.65839386       9.85740089      29.29165840
C       12.12692261      12.37502956      28.83428192
F       13.41932678      12.56688499      28.46139526
F       11.40025330      12.10408306      27.71916199
F       11.67524529      13.51169682      29.43374252
O       26.84870148       9.73170185       6.50849056
S       27.04553223      10.91124249       7.35006571
O       28.42608070      11.21129513       7.72332335
O       26.18865585      12.06842422       7.10591364
C       26.37091255      10.33676624       9.08081436
F       26.40670395      11.37345791       9.99225235
F       25.07766724       9.90902424       8.99370670
F       27.13345909       9.33095741       9.59626675
O       31.86958122      17.79437256       5.42468119
S       31.97428703      19.05015755       6.17252302
O       30.82981682      19.95875359       6.12349224
O       32.73788452      19.00159264       7.42650938
C       33.19742584      19.95655251       5.07148886
F       33.58955383      21.13823891       5.63082886
F       34.35219193      19.24836159       4.81874466
F       32.63765717      20.23256874       3.84618378
O       20.03422165      25.61872673      29.01087570
S       21.39767265      25.23675919      28.66597176
O       21.58401680      24.72739220      27.30323982
O       22.45995903      26.12385750      29.13618469
C       21.66130447      23.71197510      29.68874931
F       22.87775230      23.17813873      29.40348244
F       21.62097549      24.01165199      31.01937675
F       20.71846771      22.75122833      29.41970062
O       29.56990623       4.81837320       1.53482544
S       29.56745148       6.22226763       1.15138125
O       30.79346848       6.69418526       0.49983597
O       28.33703232       6.74112558       0.55379570
C       29.61966896       7.17431593       2.82106042
F       29.77833557       8.50665092       2.58316803
F       28.48830986       7.03014803       3.56020474
F       30.66142845       6.79444218       3.62635636
O       14.63149929      35.11555481      15.23877335
S       14.77617741      33.88439178      16.01194763
O       15.11947346      34.03656387      17.42061424
O       13.79048729      32.84155655      15.70806313
C       16.33234787      33.12012863      15.29749775
F       16.53241730      31.86491203      15.78041553
F       16.25381851      33.03339005      13.93228722
F       17.44342613      33.85018921      15.61557388
O       20.75926781      17.02869415      14.73567009
S       20.55266762      15.58110619      14.64041996
O       21.75390053      14.77572823      14.42756939
O       19.52144051      15.00913143      15.52489471
C       19.65908051      15.42683697      12.99135494
F       19.40926743      14.12905788      12.65990829
F       18.47671127      16.10173225      13.05693150
F       20.41073036      15.95402336      11.97244930
O        7.47978067      22.91963577      23.16646767
S        8.08729267      23.83920670      22.20331955
O        8.51903915      25.12803841      22.74447250
O        8.98255825      23.28916740      21.17486572
C        6.57188320      24.19093513      21.17206192
F        6.86373568      25.06623459      20.15546989
F        6.15019369      23.02715302      20.57132721
F        5.53788757      24.69882774      21.90615654
O       37.81034851      27.27181244      33.47000885
S       37.20259857      27.41895676      32.15705872
O       35.91485214      28.11522675      32.11614990
O       38.11072922      27.69931793      31.04929924
C       36.62401581      25.66004372      31.74377632
F       35.96452713      25.62598991      30.53913498
F       37.65482712      24.76204491      31.66630745
F       35.74179459      25.23383141      32.70738220
O        3.73521090      11.05415630       5.66647196
S        3.11072206      11.94186592       4.65649652
O        3.45434856      11.65103722       3.27541161
O        1.69841611      12.26504707       4.96443367
C        3.95338035      13.57491970       5.07530403
F        3.34921980      14.53037930       4.31835699
F        3.79923153      13.85309219       6.37964964
F        5.27729034      13.57133865       4.79013395
C       18.69075012       1.11236882      22.41539192
O       20.09313965       1.40937781      22.38757515
C       20.43345833       2.45094633      21.45065117
C       21.95184898       2.36162806      21.32226562
O       22.32550812       3.46053290      20.49497223
C       23.75620651       3.54786015      20.38047981
C       24.06758499       4.76628256      19.49707794
O       25.49950790       4.86573982      19.40197754
C       26.10572243       5.50669861      20.53167534
H       18.29865646       0.99450916      21.38831329
H       18.54041672       0.18126567      22.97327805
H       18.11030388       1.92466629      22.87160301
H       20.11196327       3.43454766      21.82779694
H       19.93243790       2.29382944      20.47809982
H       22.25673866       1.40042245      20.86618996
H       22.42747498       2.43458486      22.32006454
H       24.16823959       2.64061165      19.90732956
H       24.21049500       3.67115760      21.37677574
H       23.65366745       4.63561583      18.48280907
H       23.60247612       5.67160511      19.91400337
H       25.85536194       5.02778339      21.49475288
H       25.79897499       6.56521797      20.59880066
H       27.19521523       5.44301701      20.39775276
C       14.14611721      15.34788036       7.78725863
O       14.97499847      16.44526863       8.15327168
C       14.29712868      17.51183510       8.84629345
C       15.34901810      18.19259262       9.68977356
O       14.66437054      19.23493385      10.36951828
C       15.46296597      19.85729980      11.37361622
C       14.72463417      21.15363312      11.73657322
O       15.54168892      21.99639702      12.57048512
C       15.78904629      21.52367210      13.89798546
H       13.54797745      15.56678200       6.88193130
H       14.75748539      14.45433331       7.60853004
H       13.42921734      15.09492111       8.58649158
H       13.49889278      17.12463760       9.50262356
H       13.82272816      18.21233177       8.13251877
H       16.17007637      18.57811928       9.05757523
H       15.77268887      17.44268990      10.37844658
H       16.47676468      20.10535431      11.00869560
H       15.57235813      19.21922112      12.26768112
H       14.51525593      21.71145439      10.81031227
H       13.74865723      20.94659042      12.21352005
H       16.23372650      20.51622009      13.89170551
H       14.85049915      21.48048592      14.48247337
H       16.49422455      22.20454025      14.39841652
C       13.33998680      17.92564201      19.14871407
O       12.60228634      18.81841087      18.29944229
C       11.17005444      18.71324539      18.39731407
C       10.59107780      19.82988548      17.53380203
O        9.25142193      20.05832863      17.97650528
C        8.63968754      21.05615044      17.15579224
C        7.29121971      21.44634056      17.77094269
O        6.73026991      22.41606712      16.86898804
C        6.46646881      23.71711159      17.39237022
H       12.99321270      16.88029671      18.99665070
H       14.40455055      18.00815010      18.86190796
H       13.21987629      18.18847466      20.21699524
H       10.83165455      18.83727074      19.44113922
H       10.82015228      17.72323036      18.04944992
H       10.60452843      19.56616402      16.45298386
H       11.20263100      20.74178886      17.66012955
H        8.50755882      20.66697311      16.12495422
H        9.26222324      21.96853638      17.09676552
H        6.60773039      20.58007431      17.81151390
H        7.40736055      21.84362793      18.79599190
H        7.37782288      24.25170135      17.69611359
H        5.79745340      23.68250656      18.26418686
H        5.96157694      24.26861191      16.58450699
C        6.79002571       8.78011417      10.87669086
O        7.80551386       9.01518345       9.89407825
C        8.97440910       9.67521763      10.43157959
C        9.90078068       9.87350750       9.24209118
O       11.01976681      10.61883068       9.73694992
C       11.90877628      10.94593143       8.64900208
C       12.95828629      11.85507679       9.28852081
O       14.02344131      12.09164429       8.32734394
C       14.82625580      10.96297264       7.94453430
H        6.48058033       9.70128441      11.39507580
H        5.94166040       8.34335613      10.33267212
H        7.11030388       8.07565498      11.66067886
H        9.41290474       9.06734562      11.23989677
H        8.69323063      10.63401604      10.89723110
H        9.36240196      10.45384216       8.46537304
H       10.19982815       8.91471958       8.76941013
H       11.36152458      11.47109127       7.84509993
H       12.34845734      10.03921890       8.19902134
H       12.51140976      12.83576584       9.51992321
H       13.33745766      11.41595745      10.22970390
H       14.26706886      10.23752689       7.32909727
H       15.21569538      10.43606377       8.83328438
H       15.66512966      11.33995628       7.34407043
C       30.46687698      13.35771561      29.74513245
O       29.69604683      14.46862888      29.26886177
C       28.68572998      14.10465717      28.31274414
C       27.56822205      15.10366726      28.53870964
O       26.47077751      14.75831795      27.66978264
C       25.40181732      15.69859695      27.90358925
C       24.19990158      15.27921581      27.05771065
O       23.27987480      16.38318062      26.89657211
C       21.99622154      16.20432472      27.49627876
H       30.94180489      12.81338692      28.90784645
H       31.25111198      13.73955250      30.41495705
H       29.83864212      12.62730026      30.28043365
H       28.29983521      13.08681202      28.49251556
H       29.07155609      14.13231182      27.27576065
H       27.90118027      16.12536812      28.30705643
H       27.24665833      15.09635639      29.59613609
H       25.72330666      16.70594978      27.60289383
H       25.11335373      15.73986912      28.97195244
H       24.52985382      14.97196865      26.04738235
H       23.66902542      14.41517735      27.50343323
H       21.98230171      16.41880226      28.58206177
H       21.63691139      15.16938496      27.35330772
H       21.25965691      16.87240791      27.02292061
C       15.95843410      31.74018097       8.02562809
O       16.67858505      30.73702240       8.72897148
C       17.42129707      29.90160179       7.85037184
C       18.15161133      28.87742996       8.70983219
O       18.95139885      28.12314987       7.80387545
C       19.90748024      27.29839706       8.45685101
C       20.69620323      26.60920143       7.32673788
O       21.37954903      25.45567131       7.81425381
C       22.48499489      25.77794456       8.64328861
H       15.15327358      31.29203224       7.41876268
H       15.48189163      32.40001678       8.75992680
H       16.60749245      32.32817078       7.36495018
H       18.18502235      30.47441101       7.30297375
H       16.77819252      29.39233208       7.10839128
H       17.42188835      28.23907661       9.22963428
H       18.76123047      29.38198471       9.48226929
H       19.39712524      26.53777695       9.07564068
H       20.57349968      27.89760971       9.10562706
H       19.99565125      26.27016258       6.55094957
H       21.38825798      27.32815552       6.84474516
H       22.25839615      26.47221756       9.46509743
H       23.30609703      26.21659851       8.04083252
H       22.84094429      24.83161354       9.08250999
C       25.59423637      30.01589203       3.54823828
O       26.69294167      30.75414085       3.02644420
C       27.54559326      31.28314781       4.05864382
C       28.40842247      32.35097122       3.39835739
O       29.31871605      32.79429626       4.40954494
C       30.07252693      33.92657471       3.99551725
C       31.06352615      34.17156601       5.13860178
O       31.93671989      35.25448608       4.78607321
C       33.25598145      34.85926819       4.42513752
H       24.95631981      30.69269371       4.15026140
H       24.97818184      29.62467194       2.73123097
H       25.95904160      29.17414665       4.17741060
H       28.17983627      30.49272728       4.48916769
H       26.95224762      31.71466064       4.88596392
H       27.76493835      33.17288971       3.04269290
H       28.94791222      31.93102837       2.53305626
H       29.41620064      34.80244064       3.84264326
H       30.59467316      33.72923279       3.04207611
H       30.53055382      34.42818451       6.07069206
H       31.63258934      33.25902557       5.35813046
H       33.26863480      34.22631836       3.52042222
H       33.77214813      34.33316040       5.24877834
H       33.81138611      35.78614807       4.21515322
C       18.73409271      20.21551514      30.90268517
O       18.66178131      18.79454613      30.99016953
C       18.82443428      18.12811852      29.72883606
C       19.26520348      16.71792603      30.06515503
O       19.10920334      15.88550663      28.90354347
C       19.55784035      14.55885792      29.17159081
C       19.21338844      13.71299839      27.94180298
O       19.77084351      12.38534927      28.06673431
C       21.20257378      12.35471058      27.94467735
H       17.94238663      20.62138557      30.25292397
H       18.58717918      20.62221336      31.91155434
H       19.71130753      20.53502846      30.51600838
H       19.59441948      18.61722755      29.10446739
H       17.86789322      18.11972809      29.17220879
H       18.62694931      16.35388374      30.88957214
H       20.31291580      16.73772812      30.42046356
H       19.02923012      14.15076256      30.05818367
H       20.64381599      14.55250072      29.36953545
H       18.12508965      13.58079147      27.84804535
H       19.54730034      14.19107723      27.00494957
H       21.73619843      12.76581955      28.81220627
H       21.53856659      12.88742733      27.03263092
H       21.49587822      11.29871464      27.84234238
C        9.77721596      36.08752060      19.10790062
O        8.42664051      35.89879990      19.52989006
C        7.62240648      35.37601089      18.47007751
C        6.33915234      34.91959381      19.15063667
O        5.59151649      34.20910645      18.16524887
C        4.62553120      33.35684967      18.78170013
C        3.71093869      32.88404465      17.64763451
O        2.59165287      32.18135834      18.19463348
C        2.91881990      30.88117599      18.65019798
H        9.79918861      36.68299484      18.17717171
H       10.30584526      36.62199783      19.90838051
H       10.27232933      35.12108612      18.93032837
H        8.10286903      34.52230453      17.96046638
H        7.40528870      36.14928055      17.71302605
H        5.75620222      35.77115250      19.55443001
H        6.60295153      34.27260208      20.00102997
H        4.02819824      33.89655304      19.54217339
H        5.11753988      32.50284576      19.27587128
H        3.28861070      33.76628876      17.14157867
H        4.25619888      32.28769302      16.89513588
H        3.50909352      30.90541267      19.57909966
H        3.44430637      30.28976440      17.88567162
H        1.96623194      30.38152313      18.87242699
C       34.11722183      26.38369179      12.35412025
O       33.20511627      27.36852455      12.83354473
C       32.11530304      27.66748238      11.95744514
C       31.49559402      28.89398384      12.62903881
O       30.37014580      29.26907730      11.84122562
C       29.50688744      30.16528511      12.55608559
C       28.65755272      30.83741570      11.48103237
O       27.86901093      31.91005516      12.01034546
C       26.75175476      31.58204460      12.82360744
H       34.61780548      26.71034241      11.42941856
H       34.85404587      26.21970749      13.15298176
H       33.60801697      25.42980194      12.13995075
H       31.38796043      26.84007072      11.90655422
H       32.45532990      27.86252403      10.92227077
H       32.23646164      29.71186447      12.67760944
H       31.19256020      28.65861130      13.66439152
H       30.07554436      30.92429161      13.12501717
H       28.87761688      29.62767220      13.28384972
H       29.35221863      31.29099464      10.75902367
H       28.03708076      30.11255646      10.93248558
H       27.03492546      31.12351418      13.78203392
H       26.05474281      30.91239738      12.29385662
H       26.21694183      32.51528549      13.04269218
C        9.62672043      21.10415077      10.68865490
O        8.62095356      21.03933334      11.71062088
C        7.74235153      19.94625664      11.40453053
C        6.64679432      19.92702866      12.47106266
O        5.80969524      18.83747482      12.08830547
C        4.53856707      18.79193687      12.73689079
C        3.75447226      17.80654907      11.86358929
O        2.58298278      17.35676384      12.57335472
C        2.71027565      16.00442886      12.99830532
H        9.15634727      21.19338799       9.69170284
H       10.25448132      21.97640991      10.90127277
H       10.24273014      20.19152641      10.66071606
H        8.29275131      18.98865891      11.34284401
H        7.26491070      20.11093330      10.42069149
H        6.05814171      20.85793877      12.45661068
H        7.01836872      19.79337502      13.50364017
H        4.06429148      19.79596519      12.73920822
H        4.60865068      18.43530464      13.78172874
H        3.44338489      18.27962494      10.91469288
H        4.40684938      16.96485519      11.57365322
H        3.52933168      15.86865234      13.72041416
H        2.86062098      15.31134129      12.15234089
H        1.78372359      15.74113560      13.52783108
C       29.88050079       4.87104940      13.53534126
O       29.02077675       5.99234295      13.31747150
C       28.46539688       6.65881252      14.47393227
C       27.09237289       7.16578245      14.02274990
O       26.58892632       7.92758322      15.12978268
C       25.18726540       8.25602436      15.05011749
C       24.96953011       9.49894524      15.92699432
O       23.92193604      10.30619144      15.37316418
C       24.21990013      11.70146751      15.28738594
H       29.29757118       4.00522518      13.87456799
H       30.34694672       4.59882307      12.57790375
H       30.66785812       5.10085583      14.26462364
H       29.10197830       7.49947262      14.79700375
H       28.32004929       5.98956299      15.33665752
H       26.43360710       6.32016182      13.76752472
H       27.19272232       7.78241348      13.10460281
H       24.56038475       7.40766382      15.36693954
H       24.90561676       8.47552872      14.00192261
H       24.69693565       9.20964241      16.96043015
H       25.90957069      10.07258701      15.96127510
H       24.73997879      11.92716026      14.33284473
H       24.85022545      12.05269241      16.11851120
H       23.27460098      12.26448345      15.28456020
C       25.92296982      30.51956177      36.11466980
O       25.39949417      31.33602142      35.05123520
C       24.91667938      30.62767410      33.87657928
C       24.57109833      31.72514915      32.87646484
O       23.69998741      31.19473076      31.88488579
C       23.26937485      32.25460052      31.01560783
C       22.31374359      31.72730255      29.93738556
O       21.90406799      32.84951019      29.15457535
C       20.53052330      33.21581650      29.28470039
H       26.43701172      29.63156509      35.71697617
H       26.61073494      31.12809753      36.70846558
H       25.09584236      30.17484856      36.74999619
H       24.01907349      30.03962708      34.10901642
H       25.68088150      29.93475151      33.49356842
H       25.49669456      32.13999939      32.44357300
H       24.07797241      32.56822586      33.40445709
H       24.14116669      32.72160339      30.53391457
H       22.76493073      33.03711319      31.61774445
H       22.79311752      30.97471428      29.27833939
H       21.42529488      31.25100327      30.38986969
H       20.32307053      33.69657135      30.25461388
H       19.86253738      32.34179306      29.20305252
H       20.28176689      33.91274261      28.47310257
C       14.27225876      32.60587692      36.48097992
O       15.34820843      31.68503571      36.55014801
C       15.07558346      30.40467262      35.97125626
C       16.12446594      29.47279930      36.56064224
O       15.85136890      28.18507385      36.01659393
C       16.85601425      27.23036766      36.36266708
C       16.43184280      25.93702507      35.67204666
O       17.42181015      24.93613434      35.92142105
C       18.30073166      24.59409142      34.85239410
H       13.44611549      32.30879211      37.14678192
H       14.63942051      33.58145523      36.81541443
H       13.88527870      32.68662262      35.45133591
H       15.17969799      30.43042564      34.87029648
H       14.05340290      30.05563736      36.18869019
H       16.07445526      29.49150276      37.66569138
H       17.13202286      29.82238197      36.26882935
H       16.93798256      27.11156654      37.45820236
H       17.82913589      27.53163910      35.94549561
H       15.46817303      25.59996605      36.08041382
H       16.28238297      26.12137985      34.59695435
H       18.94736290      25.43211174      34.56616592
H       17.74302292      24.26511383      33.96081924
H       18.90602875      23.74608231      35.19646454
C       20.71482277      11.51617527      31.53353691
O       19.68397141      11.18494320      32.48398972
C       18.87826538      10.13548851      31.91149330
C       17.72255516       9.90716457      32.86965942
O       16.92524147       8.87051392      32.28635788
C       15.85617447       8.51429939      33.16850281
C       15.05227947       7.45794582      32.40957260
O       13.85229397       7.14464474      33.14897156
C       13.99502087       6.18376875      34.17240906
H       20.26334190      11.77044487      30.55582047
H       21.26948357      12.36912823      31.95229149
H       21.40165710      10.66394329      31.37856293
H       19.48055077       9.21204948      31.78327370
H       18.49951172      10.41965485      30.90992546
H       17.11212730      10.82193184      33.01976395
H       18.08572388       9.62849140      33.87571716
H       15.19619274       9.37854481      33.38425064
H       16.22966385       8.13390636      34.13714981
H       14.70339394       7.87597036      31.44698715
H       15.64448357       6.55401754      32.18523407
H       14.64087677       6.51627445      35.00352478
H       14.34239960       5.21651649      33.77569199
H       12.98642540       6.02649021      34.58332062
C       10.14971066      13.97727203       7.20100021
O       10.45637417      14.54807663       8.46538734
C        9.27674770      14.87598133       9.25729370
C        9.80815220      15.47684193      10.54243469
O        8.66967678      15.76433945      11.36071396
C        9.02630520      16.33148956      12.64212132
C        7.69986629      16.42532539      13.38873863
O        7.83664560      17.24284554      14.56995964
C        8.16439629      16.51235008      15.75009823
H        9.52867794      14.66566277       6.59507895
H       11.08530521      13.73680305       6.67425156
H        9.56105042      13.04940510       7.33282614
H        8.65754890      13.97748852       9.44162464
H        8.65748978      15.61244869       8.71744919
H       10.37041187      16.40802383      10.32953358
H       10.48270321      14.75941467      11.04033470
H        9.45408440      17.34487343      12.51446056
H        9.72618103      15.68410778      13.19742107
H        6.95345831      16.91362000      12.73900127
H        7.32199717      15.41390800      13.60963821
H        9.02164936      15.84232235      15.57462311
H        7.30404568      15.89118576      16.06849670
H        8.38556576      17.22074127      16.56136703
C        8.00708771      10.34716511       3.69691920
O        7.71837330      10.08913898       5.06770372
C        7.10780573      11.20924282       5.74866390
C        6.59996557      10.72855377       7.10677576
O        6.13947535      11.87299442       7.83735991
C        5.79525280      11.54908562       9.19530201
C        4.77242279      12.60068035       9.63465214
O        4.30731535      12.42090225      10.98774529
C        3.32575202      11.40449810      11.15889645
H        8.71714211      11.18295479       3.58850789
H        8.43925762       9.43471146       3.26564908
H        7.08059931      10.58998585       3.15047598
H        6.25067091      11.55077648       5.15213680
H        7.80265999      12.05703163       5.86689997
H        7.37740564      10.19691181       7.68245935
H        5.77170372      10.01018810       6.93595839
H        6.68994665      11.58815002       9.84538460
H        5.39543438      10.52168655       9.24939728
H        5.22254562      13.60530853       9.63474083
H        3.93288946      12.64305401       8.91897869
H        3.61822057      10.44255447      10.70411015
H        2.34998226      11.70238781      10.73652649
H        3.19822192      11.22932243      12.23793316
C       17.50370789      27.03341484      31.92221832
O       18.34665108      27.63945580      32.89321136
C       18.23616028      29.06724167      32.99204636
C       19.32857895      29.47930527      33.96266937
O       19.31492233      30.90933037      33.98871231
C       20.43531799      31.40176964      34.74769211
C       20.39790726      32.92000580      34.62451172
O       21.28113937      33.47354507      35.61600876
C       20.71592903      33.91250229      36.87453842
H       17.51786804      27.59757996      30.97558212
H       17.86539268      26.01117897      31.74082565
H       16.46035767      26.96710777      32.27552414
H       17.23392296      29.36355209      33.35233688
H       18.38440895      29.52595901      31.99936676
H       20.29522133      29.09517288      33.59614944
H       19.16901970      29.08062935      34.98266220
H       21.37465477      30.99143028      34.32444382
H       20.37276268      31.12061119      35.81338882
H       20.75850105      33.20238876      33.62435532
H       19.36684990      33.29316711      34.74858856
H       19.89431953      33.24672699      37.17968369
H       20.33236313      34.93882370      36.77530289
H       21.50308418      33.89930725      37.64624405
C       21.34014893       7.52191734       8.75892067
O       20.34653282       6.50613880       8.62101841
C       20.18850899       6.15549994       7.22993755
C       19.17770958       5.02441883       7.12900496
O       19.03826141       4.80485010       5.72957754
C       18.25718880       3.67442536       5.32594156
C       18.19378281       3.73657465       3.78997016
O       17.04662895       3.05270863       3.28384185
C       17.15237236       1.63847983       3.30242109
H       21.04921150       8.41187477       8.17800903
H       21.42884064       7.79323149       9.81797504
H       22.31914520       7.16985464       8.40133286
H       21.14757729       5.83225393       6.79176998
H       19.81292534       7.02074146       6.65935755
H       18.20923233       5.30283117       7.59285879
H       19.54800987       4.12999249       7.65618372
H       17.22985077       3.75599575       5.73249626
H       18.69936180       2.72505522       5.67401266
H       18.03696632       4.79090214       3.53147888
H       19.11652184       3.37625504       3.30584192
H       17.45894623       1.25117171       4.28259611
H       17.81293869       1.24526489       2.51308179
H       16.14690781       1.23969436       3.14071941
C       19.35366058      21.56816673      10.29130840
O       19.37309265      20.48282623      11.20810032
C       19.39384079      20.97279549      12.56329155
C       19.34195137      19.75674057      13.46908283
O       19.18673325      20.26503563      14.80174923
C       19.10712814      19.20595551      15.77396870
C       18.76899719      19.91799164      17.08246231
O       18.87624741      19.06287384      18.24158287
C       17.79937553      18.11204338      18.30477333
H       20.23315430      22.21091270      10.43841362
H       19.34750366      21.15288353       9.27603245
H       18.43762970      22.16653442      10.43590546
H       18.52065659      21.62221718      12.75371456
H       20.30203247      21.57061195      12.75655937
H       20.23609924      19.11745453      13.36687088
H       18.47301102      19.14147377      13.17029095
H       20.06567574      18.67578125      15.85557842
H       18.34621048      18.45663643      15.49115944
H       19.49961853      20.72653008      17.25276184
H       17.76816940      20.40033913      17.04926872
H       17.78916931      17.41287041      17.45145035
H       16.82030106      18.62583923      18.34944725
H       17.92249107      17.52448463      19.22860336
C       19.57788658      10.38228321      25.26072502
O       19.34077644       9.35052586      24.29695892
C       18.26723289       8.42424297      24.55335808
C       18.40657234       7.39798355      23.44329453
O       17.33860397       6.44917631      23.61110306
C       17.42685318       5.46708870      22.56746101
C       16.22032547       4.56105518      22.71568680
O       16.43600464       3.39031148      21.91164970
C       15.74864101       3.21140409      20.68800735
H       19.23513031      10.12439632      26.27798653
H       20.66879272      10.54537964      25.31099129
H       19.04445267      11.30668640      24.95647049
H       17.28931046       8.93672562      24.53272820
H       18.34360504       7.96247292      25.55572319
H       19.38796425       6.88977194      23.50109863
H       18.33353424       7.87655687      22.44644737
H       18.36117744       4.88537407      22.65826035
H       17.39516449       5.93082333      21.56007004
H       16.13014984       4.25136852      23.77001762
H       15.28044987       5.07362032      22.45292473
H       16.20708084       3.76679063      19.85168839
H       14.69099140       3.50549436      20.76893616
H       15.76271057       2.13695455      20.45928574
C       35.35010529      32.67727280      24.37025070
O       35.54436493      31.26628876      24.28820229
C       35.62471008      30.66523361      25.60027313
C       35.44189072      29.18754578      25.30711174
O       35.55599213      28.48521996      26.54194641
C       35.58487701      27.06763458      26.31342316
C       35.98668671      26.45985413      27.65225983
O       36.68715668      25.21404839      27.45149040
C       35.87482452      24.05701065      27.36577034
H       36.16012192      33.16970444      24.93334770
H       35.30067062      33.05868149      23.34219360
H       34.40180969      32.89689255      24.88787270
H       34.83087158      31.05736732      26.26483536
H       36.59267044      30.88394356      26.08345604
H       36.18550873      28.83445358      24.56910324
H       34.44831848      29.03003311      24.84636307
H       36.32003403      26.79544258      25.53143311
H       34.59760666      26.70466995      25.96869087
H       36.68754959      27.12290192      28.18231583
H       35.10372162      26.32700348      28.30453682
H       35.40386581      23.95168686      26.37156296
H       35.05579376      24.04953194      28.10389328
H       36.52040863      23.18767738      27.55230713
C       36.34069061       8.02196980       7.35811710
O       35.60278320       7.19675303       8.24617290
C       35.53958511       7.78781223       9.54393673
C       34.78464890       6.82190037      10.44428635
O       34.91549683       7.36971617      11.74432755
C       34.36831665       6.53884649      12.77584648
C       34.48337555       7.42259598      14.02476406
O       33.91025543       6.81928921      15.18126965
C       32.48700714       6.89329433      15.18322086
H       37.35655594       8.20917988       7.75366974
H       36.43596268       7.52128267       6.38630724
H       35.84624481       8.99704647       7.21701717
H       35.00165176       8.75595284       9.52838230
H       36.54528809       7.97372246       9.96335316
H       35.22028351       5.81216764      10.36031055
H       33.72027588       6.77249384      10.14829350
H       34.94120026       5.60051727      12.88062859
H       33.31220245       6.31119919      12.55754948
H       35.54145813       7.60810280      14.26861858
H       34.02195740       8.40295887      13.82827854
H       32.03708649       6.56409979      14.23353863
H       32.13664627       7.91736031      15.37717628
H       32.10051346       6.24194241      15.98278713
C        9.92044258      27.52927971      19.75209999
O        8.57905579      28.00811195      19.83153343
C        8.01980209      27.89025116      21.15339470
C        6.52763033      28.13991356      20.93688583
O        5.96603823      28.04623795      22.24264717
C        4.57439804      27.79843330      22.28477097
C        4.35849333      27.28597450      23.70372200
O        2.97956157      26.93898010      23.85783768
C        2.22012401      27.70818520      24.76640320
H        9.98920727      26.48548126      20.10359001
H       10.24025822      27.54977226      18.70390129
H       10.60779381      28.14618683      20.35409737
H        8.45358372      28.62108040      21.85816193
H        8.20027828      26.89416695      21.58009529
H        6.12893820      27.37792206      20.24886703
H        6.33218050      29.13074112      20.48032761
H        4.26972771      27.03521919      21.54731178
H        3.96766067      28.70537949      22.09647942
H        4.98191738      26.39146996      23.85690880
H        4.67173052      28.01596069      24.47115707
H        1.81657982      28.61822510      24.29340553
H        2.81014800      27.98784065      25.65403938
H        1.36719930      27.10861397      25.10264206
C       18.35762405      31.70992661       5.00460052
O       19.13587379      30.83994865       4.18420887
C       19.29930878      29.50124168       4.65840435
C       20.05265045      28.79187584       3.53135395
O       20.18325996      27.41848373       3.87254000
C       20.54564476      26.62942696       2.74419522
C       20.81591225      25.22204018       3.25647283
O       21.21838188      24.38609886       2.17168927
C       20.19897461      23.78465462       1.38918912
H       18.85756111      31.99232292       5.94597006
H       18.15019608      32.63078690       4.44567537
H       17.37758446      31.27336502       5.25085354
H       18.31883049      29.02695847       4.83201551
H       19.85197449      29.47094917       5.61494875
H       21.04655266      29.25835419       3.38644910
H       19.48206520      28.90234947       2.58805633
H       21.45336533      27.00062180       2.24105668
H       19.73046112      26.59961891       1.99577248
H       21.62937164      25.25313187       3.99861932
H       19.91409492      24.83513641       3.75745487
H       19.70807076      24.49486923       0.70930541
H       19.43042374      23.31895828       2.02287960
H       20.66733170      22.99020958       0.79253799
C       24.10548019      13.43506432      32.95204163
O       24.91618538      13.04744625      31.82159805
C       24.11265373      12.88610649      30.62595749
C       25.02165413      12.28579712      29.56764221
O       24.30272865      12.16379166      28.33024597
C       25.17360497      11.69822598      27.27659416
C       24.45998573      11.79722118      25.92380714
O       25.31526756      11.37386036      24.84506035
C       26.49353027      12.19271564      24.63125801
H       23.32047653      12.68327618      33.15011978
H       24.72098732      13.54526138      33.86168289
H       23.59369278      14.39636803      32.75314331
H       23.68200111      13.85617161      30.31007957
H       23.26575661      12.20607471      30.81800652
H       25.36262512      11.28434849      29.90360451
H       25.90994453      12.93032932      29.42820168
H       25.44696617      10.64095497      27.44401932
H       26.08816338      12.31763554      27.25041389
H       23.58117867      11.12753868      25.89006042
H       24.09178352      12.82396889      25.75171852
H       27.22035217      12.09075356      25.44812012
H       26.20661163      13.24758434      24.49396706
H       26.97200012      11.82724190      23.71033669
C       10.23011684      23.19055367      13.85877609
O        8.98389816      23.74447823      13.42124939
C        7.86932802      23.07925797      14.03934193
C        6.58721828      23.56312752      13.37287045
O        5.59050941      22.71845818      13.94768906
C        4.23518085      23.14418411      13.83146191
C        3.49827814      22.37616920      14.93324566
O        2.09879565      22.41474915      14.62962341
C        1.22400701      23.00583076      15.56588268
H       10.27657986      22.11509895      13.61805058
H       11.04146767      23.72376633      13.34628010
H       10.35913467      23.29269409      14.94982243
H        7.82584810      23.27502823      15.12205982
H        7.95383024      21.99400139      13.89293480
H        6.61444473      23.40712166      12.27504444
H        6.37581968      24.62693405      13.57170486
H        3.82399058      22.84625435      12.84860134
H        4.12025690      24.23731422      13.94337845
H        3.83563733      21.32862663      14.88666630
H        3.73573184      22.76433945      15.93652916
H        1.32173157      24.10928154      15.60415840
H        1.34804118      22.58675003      16.58389473
H        0.20460162      22.76193619      15.22933006
C       26.49745369       5.71816111       9.33872128
O       25.97991180       4.82191610      10.31869793
C       27.03650856       4.28494692      11.13089943
C       26.32773781       3.50443602      12.24942493
O       27.23064041       3.37876105      13.35126305
C       26.60405159       2.94207883      14.57019234
C       27.73671722       2.72011280      15.58040237
O       27.35889435       1.74873769      16.56274986
C       26.75890541       2.25179005      17.75578880
H       27.23729134       5.23366547       8.67587090
H       25.64883423       6.05538607       8.72851849
H       26.97165108       6.58517647       9.81586266
H       27.62726212       5.08510160      11.60380840
H       27.71503639       3.66375852      10.51618195
H       26.00749016       2.51077962      11.89285660
H       25.40884972       4.04701281      12.54546738
H       26.05169868       2.00373840      14.39993286
H       25.87322807       3.69605780      14.92716122
H       28.60917473       2.32097626      15.04593468
H       28.03081703       3.65794301      16.07687759
H       25.67394638       2.39949203      17.65022087
H       27.17072487       3.22005725      18.07528496
H       26.91774559       1.52542830      18.56526947
C       20.66005516      18.02464294       5.34977531
O       21.35709763      17.57638550       4.18290377
C       22.34564972      16.54589081       4.41869402
C       22.93240738      16.18630219       3.05802202
O       23.83967590      15.12282658       3.36995792
C       24.61147308      14.64178658       2.26426315
C       25.48430634      13.55197525       2.86002970
O       26.15022659      12.81980896       1.81276119
C       25.44754982      11.70876980       1.26963747
H       21.33970642      18.39501190       6.12951040
H       19.97958946      18.82024193       5.02389908
H       20.04558372      17.21879387       5.78327036
H       21.85021591      15.66479397       4.85111713
H       23.11210251      16.90214920       5.12577486
H       23.44228363      17.04482269       2.59644938
H       22.14075661      15.82980251       2.37478805
H       25.21643257      15.45420170       1.82217777
H       23.96672058      14.24059677       1.46418381
H       26.25728416      13.98997498       3.50816464
H       24.86362648      12.88660145       3.47856426
H       24.62261581      12.01604462       0.60517263
H       25.01482010      11.09518814       2.07890868
H       26.16086769      11.10564423       0.69348186
C       10.86154366      21.84304810      32.97075272
O       11.63794708      20.65576935      33.00682068
C       11.83994389      19.98064232      31.76010132
C       12.73955631      18.80876350      32.12792969
O       13.10263062      18.08182526      30.94325447
C       13.73926544      16.83505630      31.25811958
C       14.21361923      16.22152328      29.93015862
O       14.66539192      14.87108421      30.11955643
C       16.08488274      14.75477028      30.26604271
H        9.82619858      21.62075806      32.64566422
H       10.82209015      22.26503372      33.98560333
H       11.29448223      22.58444405      32.27726364
H       12.31838131      20.63973808      31.00978851
H       10.88643265      19.61523056      31.32794189
H       12.18364906      18.16767311      32.83240128
H       13.63447189      19.19015312      32.64997864
H       12.99558640      16.17223740      31.73372841
H       14.58820629      16.97878265      31.95411873
H       13.36966419      16.15397644      29.22183037
H       15.00153923      16.85384750      29.48710632
H       16.47855759      15.32686234      31.12225342
H       16.61079216      15.06603050      29.34260750
H       16.28637123      13.68463421      30.43571472
C       16.21510506       1.20635104      13.32394409
O       16.87661934       2.29873872      12.70833302
C       17.83521461       2.93301129      13.57232189
C       18.38690376       4.10547400      12.76239872
O       19.41629219       4.67977905      13.56407070
C       20.04074287       5.80016661      12.91462803
C       21.13915443       6.21027327      13.89800453
O       21.73316193       7.44495535      13.47938538
C       22.72624969       7.24954033      12.44686222
H       15.69048214       1.50747955      14.24645138
H       15.47012615       0.83208984      12.61420155
H       16.92333984       0.39931357      13.56268406
H       18.64045525       2.23507595      13.84748459
H       17.35089493       3.27972293      14.50115299
H       17.56948662       4.82402802      12.55728149
H       18.78001213       3.74801683      11.78792095
H       19.30096054       6.60285759      12.72953224
H       20.43155098       5.50634623      11.92219734
H       20.70719719       6.37269735      14.89893436
H       21.87590408       5.39478111      13.98530579
H       22.30163956       6.75584555      11.55628300
H       23.56357956       6.62542105      12.80245018
H       23.07745171       8.25074768      12.16296291
C        8.84499550       1.02441168       6.26266623
O        9.02888584       2.31777239       6.80260468
C        8.76416969       2.42202163       8.21238613
C        8.98608875       3.88482857       8.54833126
O        8.96425056       4.01533842       9.95766830
C        9.30478859       5.33400106      10.39226627
C        9.19892120       5.28941679      11.90749741
O        9.40604877       6.60783243      12.42416763
C       10.65874767       6.89588547      13.04735470
H        7.79363585       0.70695102       6.35507393
H        9.09390831       1.04715204       5.19252682
H        9.48976231       0.28799948       6.76361370
H        9.45322609       1.79666233       8.79739761
H        7.72919464       2.12699556       8.44362354
H        8.18225193       4.48422384       8.08466911
H        9.95417976       4.19784832       8.11580181
H        8.59833050       6.08740568       9.99681568
H       10.33160973       5.61712837      10.08353806
H        8.17915344       4.98944664      12.19446087
H        9.90641212       4.56334877      12.33818531
H       11.51333141       6.71481752      12.37554073
H       10.77929783       6.32384157      13.98471546
H       10.62120247       7.96637535      13.30091381
C       36.90475845      30.51864624      20.22057152
O       35.68710709      31.24740028      20.06084442
C       34.98830795      30.99079514      18.82884407
C       33.63641739      31.66515160      19.04703140
O       32.89331818      31.58234406      17.82811928
C       31.54174232      32.05585098      18.03709793
C       30.82322311      31.99193382      16.68426514
O       29.63657379      32.80554581      16.75182152
C       28.46760941      32.18857193      17.27620697
H       37.68961716      30.88359261      19.54243851
H       37.21206284      30.62728882      21.26701736
H       36.73620605      29.44687080      20.02433395
H       34.84474182      29.91043282      18.65987587
H       35.53626633      31.39251709      17.96117020
H       33.76246643      32.71771622      19.35819244
H       33.10144806      31.13588905      19.84777451
H       31.54621315      33.08328629      18.44677734
H       31.02254677      31.42549896      18.77867317
H       31.46587181      32.41415024      15.89281082
H       30.58121109      30.95667267      16.39559174
H       28.59125900      31.83713150      18.30935860
H       28.12197876      31.34403038      16.66183090
H       27.66593361      32.93741226      17.29116631
C        0.72687548      15.01338577      24.70905495
O        0.91463637      16.14862251      25.53200150
C        1.45036817      15.80547333      26.81568909
C        1.71806347      17.12573051      27.53639221
O        2.23197961      16.71575928      28.80014229
C        2.38944507      17.74798203      29.76089478
C        2.96410894      17.04556656      30.99171638
O        3.21565080      18.02121735      32.01197433
C        4.56725883      18.31460190      32.36181641
H       -0.03473794      14.34021759      25.13368988
H        0.37615955      15.34802151      23.72736168
H        1.66235137      14.44645977      24.55860329
H        2.39464164      15.24553871      26.70872307
H        0.76069677      15.18910599      27.41492081
H        0.78195745      17.70906067      27.65825844
H        2.44147730      17.73137665      26.95627403
H        1.42267323      18.23656845      29.99071693
H        3.09611368      18.52661514      29.42000580
H        2.23117471      16.31602859      31.38179016
H        3.85816979      16.46298790      30.70684624
H        5.06773233      18.91606140      31.59030914
H        5.14169502      17.38946533      32.53223801
H        4.56335211      18.88475800      33.30038452
C       32.16601562      23.72428322      15.73732853
O       30.87625122      23.54480743      15.13437653
C       30.18912888      22.40806961      15.68957615
C       29.08746529      22.04008865      14.69623470
O       28.57317352      20.79308701      15.17278290
C       27.66369629      20.16437531      14.28180218
C       27.37995720      18.82237244      14.96010780
O       26.55476379      18.01174736      14.11566353
C       25.15139389      18.03114319      14.36688519
H       32.77577972      22.81474304      15.64075279
H       32.66378784      24.54591370      15.20549774
H       32.08415222      23.98287392      16.80761909
H       29.78448105      22.64394760      16.69111252
H       30.87176323      21.55170059      15.80939102
H       29.49701118      21.93354034      13.67565823
H       28.27761650      22.79439163      14.65803432
H       28.11127472      19.97581863      13.29145241
H       26.73416519      20.75303078      14.14210606
H       28.33899307      18.29477882      15.10616779
H       26.94260597      18.97480011      15.96288586
H       24.66361809      18.93018341      13.95800400
H       24.92452812      17.98880768      15.44450760
H       24.68822861      17.15110207      13.91066170
C       22.89498138      20.79030609       2.20646811
O       24.12634468      20.08321381       2.37262821
C       24.37332916      19.74544144       3.75054407
C       25.61108017      18.85084534       3.71549392
O       25.73408699      18.21364594       4.99197340
C       26.95928001      17.46018028       5.03837395
C       27.03784943      16.79059029       6.40645456
O       28.38216209      16.33829689       6.63859320
C       28.74640846      15.07872677       6.06725311
H       22.89218140      21.72676086       2.77805495
H       22.76092911      21.01357651       1.14266884
H       22.04723167      20.17767906       2.54912972
H       23.49892235      19.22526932       4.17172909
H       24.54386520      20.65432549       4.35807037
H       26.50671577      19.45621490       3.49521708
H       25.51773834      18.09353828       2.90532303
H       27.83540916      18.11825943       4.89851761
H       26.95486450      16.70040703       4.22764587
H       26.82054520      17.52260780       7.20169163
H       26.29164314      15.97934341       6.48166418
H       28.65818596      15.06678963       4.96567059
H       28.14128876      14.24751949       6.46824360
H       29.80688477      14.92072773       6.31203842
C       11.25537968      21.20324135      25.00150490
O       10.17382240      20.46918488      25.59549522
C        9.56524754      21.22121620      26.65095711
C        8.27581596      20.47862434      27.01465797
O        7.65483522      21.18246269      28.09248543
C        6.24856663      20.86906052      28.19075775
C        5.72483540      21.45019341      29.51236153
O        4.40673494      20.92465210      29.75248146
C        3.28982854      21.74587250      29.42406845
H       12.11951160      21.23789215      25.69580460
H       11.54536629      20.67223740      24.07559586
H       10.92140102      22.21974945      24.71565247
H        9.30376148      22.25254631      26.34100914
H       10.25666904      21.28553772      27.52607536
H        8.48381901      19.42582130      27.28600693
H        7.62210464      20.44754028      26.12497139
H        6.12191916      19.77262497      28.16086578
H        5.70610380      21.27952385      27.32141495
H        6.35370827      21.11195755      30.35698891
H        5.69505167      22.54690361      29.49051666
H        2.82331729      21.41218185      28.48546410
H        3.58239222      22.80156898      29.32009697
H        2.52702260      21.64342499      30.20642662
C       36.27917862      18.68796921       7.45625210
O       36.09484863      17.27894783       7.38481045
C       35.74700165      16.82045555       6.08055973
C       35.87325287      15.30281639       6.12397575
O       36.05544281      14.86680889       4.75487137
C       35.93527985      13.45959091       4.51281404
C       36.30303574      13.29485798       3.03037000
O       36.23554993      11.94241428       2.58740473
C       37.30691528      11.11772442       3.05427957
H       35.30387115      19.20312500       7.43165016
H       36.78181076      18.92608452       8.40309715
H       36.89932251      19.05845642       6.62112999
H       36.41399002      17.23192406       5.30266142
H       34.71588135      17.10046005       5.80495214
H       34.97085571      14.84992886       6.56413889
H       36.73505402      15.01351452       6.75087643
H       34.89474106      13.13372231       4.68796778
H       36.59597397      12.87441730       5.17333078
H       35.57445526      13.86393833       2.43449497
H       37.30475998      13.71519375       2.81788206
H       37.36353302      11.04171944       4.14627838
H       38.28241348      11.47137451       2.68684006
H       37.10816193      10.11093426       2.66296387
C       10.01742840      26.21412849      25.82625771
O       10.76247311      25.01428986      26.05820847
C       11.34786034      24.99456787      27.35850906
C       12.42895794      23.93023872      27.30223465
O       12.95771885      23.69486427      28.62326050
C       13.92118740      22.64099884      28.51444817
C       14.62091732      22.49077415      29.86071968
O       15.62955093      21.46581650      29.70462608
C       15.19975853      20.11492157      29.85235405
H       10.67224503      27.09856033      25.90731049
H        9.58677292      26.13446808      24.81955719
H        9.17188644      26.30493546      26.52371979
H       10.59496689      24.77688789      28.13846970
H       11.77915192      25.97875977      27.60935783
H       13.22941208      24.26047325      26.60848427
H       12.00164223      23.00437546      26.86765289
H       14.69069958      22.87282372      27.74968910
H       13.42696762      21.70513344      28.18537521
H       15.15011024      23.42081833      30.11411285
H       13.90617371      22.28149986      30.67040825
H       14.19100857      19.94640923      29.43339539
H       15.17134857      19.81805801      30.91536140
H       15.89677334      19.44589233      29.31756401
C       24.33879089      21.65137100       7.74157095
O       24.10824013      20.54446411       8.59729576
C       24.02371216      19.34332657       7.82994652
C       23.68056679      18.22952080       8.80897522
O       23.55193710      17.05758667       8.00535583
C       23.25975037      15.89686775       8.79453278
C       22.93382072      14.79550934       7.76678133
O       22.44914818      13.62504959       8.42776012
C       23.47648621      12.91240501       9.11740780
H       23.45145798      21.86516762       7.11804390
H       24.55956841      22.51363564       8.38380623
H       25.19110298      21.46246147       7.06862116
H       24.97035789      19.11929512       7.30574989
H       23.24233437      19.40167046       7.04386902
H       22.73783493      18.45908165       9.34309101
H       24.46626854      18.12173271       9.57911682
H       22.38692093      16.06906700       9.45128822
H       24.11917686      15.62928104       9.43343258
H       22.11593437      15.14522457       7.11220217
H       23.79728699      14.57006168       7.11145020
H       23.70407104      13.34426498      10.10828495
H       24.40502739      12.83370209       8.52921009
H       23.08898544      11.89685345       9.28416920
C       19.27813721      17.07452202      23.18716049
O       17.95644379      16.59833145      23.53268242
C       18.10103226      15.58850861      24.55738640
C       16.77626419      14.84762859      24.57588387
O       16.88575745      13.80193233      25.55407524
C       15.86174011      12.82786083      25.29419899
C       16.13855934      11.62828541      26.19644547
O       15.43761539      10.49980259      25.65152931
C       14.11321163      10.32389259      26.17188644
H       19.89190865      16.25704384      22.76617813
H       19.13461304      17.84790230      22.41840744
H       19.80441284      17.48414230      24.06141472
H       18.37370110      16.03574562      25.52941322
H       18.89561844      14.86885452      24.26790619
H       16.59940147      14.42833710      23.56601906
H       15.90262604      15.49201202      24.79588509
H       15.89722824      12.48363400      24.24254990
H       14.84621239      13.25229073      25.45214844
H       17.21658897      11.38586617      26.15277672
H       15.87306309      11.81024075      27.25218582
H       13.45263672      11.17666054      25.94170761
H       14.07821083      10.17057800      27.26634979
H       13.69242668       9.43681240      25.68604851
C       26.72702980       8.98709393      33.98977661
O       25.35655785       9.26702499      33.71787262
C       24.59768486       9.57040596      34.90103531
C       23.14109802       9.49882507      34.46624374
O       22.36939812       9.63046265      35.66660690
C       20.97679138       9.65883636      35.34884644
C       20.23095322       9.89930248      36.66990280
O       18.82229042      10.06541252      36.40922165
C       18.44269371      11.39300537      36.04955292
H       26.82041168       8.24462795      34.80178833
H       27.17908478       8.56635094      33.07523346
H       27.27260590       9.89264584      34.30081177
H       24.84742737      10.56435013      35.31596756
H       24.78559875       8.82232952      35.68932724
H       22.94985199       8.53385544      33.96842957
H       22.88759041      10.29053593      33.73233032
H       20.65956497       8.71794415      34.86354065
H       20.75336075      10.47060966      34.63523102
H       20.31837273       9.03631020      37.34553146
H       20.62749100      10.78016281      37.20399475
H       18.82921410      11.70339203      35.06416702
H       18.80913162      12.11676025      36.80045700
H       17.33572388      11.40645409      35.97779465
C        9.84034252       7.03448391       5.51158619
O        8.50090885       6.55059719       5.60559464
C        7.86045933       7.07330513       6.78496218
C        6.43168020       6.52184963       6.72434187
O        5.85877752       6.73259783       8.02834702
C        4.61893368       6.03966331       8.21004963
C        4.22056675       6.37561750       9.65007019
O        2.96146798       5.77763367       9.96429253
C        1.83735251       6.64383411       9.97961521
H       10.41971874       6.75059605       6.40220881
H       10.31057072       6.57134342       4.63428354
H        9.83938122       8.13360214       5.43688488
H        7.83879852       8.17453766       6.77745914
H        8.37403393       6.76373625       7.71037340
H        6.44174004       5.45252037       6.45279646
H        5.82710934       7.03464603       5.95495129
H        4.73887873       4.95402241       8.03910923
H        3.84833121       6.40353251       7.50760365
H        4.97855759       6.00226402      10.35688400
H        4.15742445       7.46894169       9.77692699
H        1.35674298       6.72130251       8.98967743
H        2.10848260       7.65496016      10.32585621
H        1.07995546       6.24757242      10.66903305
C       22.16190338      20.01232338      26.99794769
O       23.51151848      20.34878540      27.30027008
C       24.43276215      19.23604012      27.27594566
C       25.78391457      19.86681175      27.55135345
O       26.82253838      18.88881493      27.53229523
C       28.08297348      19.57615089      27.58699036
C       29.17625427      18.50325966      27.60355949
O       30.43149757      19.08527374      27.95387077
C       31.07787895      19.75060654      26.84564018
H       21.75346184      19.25402641      27.68991280
H       21.54602623      20.91879272      27.07325172
H       22.05991936      19.60773087      25.97281075
H       24.39301300      18.72379684      26.29506493
H       24.14984894      18.48983002      28.03821754
H       25.76541328      20.40147209      28.51696014
H       25.95706749      20.62102127      26.76187325
H       28.12679100      20.22894478      28.48032379
H       28.18784523      20.22936058      26.70013237
H       28.95114326      17.78086090      28.40273476
H       29.21212387      17.95118332      26.64203262
H       30.54749870      20.67997360      26.58490562
H       31.10450745      19.09809303      25.95924187
H       32.10410690      19.97010231      27.16861153
C       28.78220177      36.84150696      27.68625832
O       29.11302948      36.02908325      26.55922508
C       28.13587379      35.03856659      26.19072342
C       28.65597725      34.43343353      24.89350319
O       27.71821594      33.45221710      24.45523262
C       27.91902351      33.09398651      23.08284569
C       27.12679672      31.81849289      22.86687660
O       27.52237320      31.17583084      21.63770485
C       26.64590645      31.26749039      20.52627754
H       28.98172188      36.34429550      28.65043831
H       29.37839317      37.76181412      27.63279915
H       27.71316528      37.11217499      27.67397690
H       27.14374924      35.49843979      26.03939056
H       28.04023933      34.26980591      26.97698784
H       29.65062523      33.98144913      25.05509949
H       28.76025009      35.23491669      24.13917542
H       28.98065948      32.91668320      22.86207199
H       27.55218506      33.88631439      22.40633392
H       27.35754585      31.13179970      23.69649696
H       26.04218864      32.00972366      22.90759850
H       26.54940224      32.30826950      20.17951012
H       25.64378166      30.87407303      20.76208496
H       27.05635834      30.64769745      19.71450424
C        6.08814049       0.90488285      34.36503601
O        6.69042444       2.16284823      34.17212677
C        7.58589697       2.23073101      33.05456543
C        7.87753344       3.72871470      32.94870377
O        8.61433029       3.88945341      31.74772835
C        8.81548500       5.28815794      31.51240349
C        9.69053936       5.41804981      30.25540924
O       10.24437809       6.73821115      30.23003578
C        9.48629284       7.70884275      29.48987389
H        6.75094986       0.19493926      34.89133453
H        5.19360399       1.05740154      34.98595047
H        5.76769972       0.46614337      33.40327072
H        7.09220648       1.88244367      32.13029480
H        8.50075150       1.63689423      33.20942688
H        8.42629719       4.09656334      33.83562088
H        6.91404819       4.26888418      32.90172958
H        9.31512070       5.75897741      32.37779236
H        7.84130907       5.79155922      31.38230705
H       10.54218769       4.72231388      30.32752800
H        9.13071442       5.19105244      29.32861137
H        8.51696301       7.90933895      29.99003983
H        9.24391460       7.36592340      28.47142982
H       10.11503601       8.60846519      29.42978668
C       27.17556572      23.80567551       3.39561224
O       27.60769653      22.78853798       2.50722599
C       28.45648956      21.78343773       3.08729601
C       28.68191528      20.80079079       1.93569911
O       28.98159981      19.52092552       2.49368834
C       28.95874214      18.50753021       1.48947644
C       29.49449539      17.24972153       2.14738655
O       29.66520882      16.23498535       1.12063980
C       28.68586922      15.21399879       1.00405860
H       27.99429321      24.23011398       3.99534392
H       26.74573898      24.60319328       2.77662921
H       26.39563751      23.44452477       4.08429098
H       27.95654488      21.28847313       3.93851972
H       29.39247894      22.23135948       3.46078753
H       29.49901009      21.12699890       1.26706183
H       27.76316643      20.75088882       1.32607245
H       29.59070778      18.76190758       0.62150973
H       27.92661095      18.33993912       1.11719894
H       30.46775627      17.45100212       2.62225580
H       28.80135345      16.90269089       2.92749977
H       28.05369949      15.36498165       0.09310237
H       28.01537704      15.15571022       1.87561154
H       29.19630241      14.24170971       0.88389528
C       15.83765697      19.39508438      21.06214523
O       15.39098740      20.05221939      19.88089561
C       14.83140945      21.34945869      20.19807816
C       14.19483471      21.89760399      18.93481636
O       13.99177551      23.27108955      19.25784111
C       12.98960495      23.93591881      18.47688866
C       13.17766380      25.38375092      18.93483353
O       12.19434643      26.22919655      18.34665298
C       12.55010033      26.65156364      17.02183914
H       15.02232265      19.32759094      21.80468178
H       16.11918259      18.36780357      20.77778435
H       16.69141197      19.92503166      21.52454758
H       15.61006832      22.02637863      20.59287071
H       14.06631088      21.27396011      20.99452972
H       13.25054836      21.36931038      18.70482445
H       14.84717464      21.76141167      18.04174995
H       11.96713352      23.57739639      18.70612907
H       13.16464329      23.79949379      17.39026642
H       13.04290581      25.45633507      20.02644920
H       14.20500183      25.71130753      18.69219398
H       12.75075340      25.81209946      16.34007645
H       13.42758656      27.32026482      17.04380035
H       11.67557526      27.19259834      16.62511635
C       36.75002289       7.74954271      33.42531586
O       35.84691620       8.14010334      34.47095490
C       34.48106384       8.07147503      34.07588959
C       33.70204163       8.59174824      35.29006195
O       32.38858032       8.95134830      34.85058212
C       31.55906487       9.41348171      35.93069077
C       30.21066093       9.77668381      35.28984833
O       29.30023766      10.25934887      36.29282379
C       28.73555946       9.19215679      37.08976746
H       36.66666031       8.41500473      32.55457306
H       37.76303482       7.78471565      33.83819580
H       36.54039764       6.74079037      33.03944397
H       34.17380142       7.05477715      33.78442764
H       34.31115723       8.70511913      33.18389130
H       34.21486282       9.46624279      35.72330856
H       33.62629318       7.82328415      36.07495880
H       32.00304794      10.31574154      36.39878464
H       31.43001175       8.63778210      36.70260239
H       30.34190559      10.60631943      34.57308578
H       29.80706024       8.91264343      34.73990250
H       29.47456932       8.75504112      37.76889038
H       28.33532333       8.40072060      36.43692017
H       27.90108681       9.60078716      37.67383575
C       15.63335228       6.71283436      13.74392605
O       16.25858688       5.92992973      14.76364422
C       17.33598709       6.66391277      15.36500359
C       17.93633652       5.72292757      16.39329338
O       19.06294250       6.39152622      16.95395660
C       19.68187332       5.63546562      18.00605202
C       20.76382828       6.58526993      18.51806831
O       21.38934135       6.10621500      19.70629883
C       20.72372246       6.45368767      20.91781616
H       16.30125618       6.87834120      12.87854671
H       14.74447536       6.17226505      13.39612675
H       15.32229424       7.69804573      14.11472321
H       16.97109795       7.60601187      15.81874371
H       18.08734703       6.93275738      14.59608555
H       18.25014496       4.78773928      15.90579700
H       17.19132996       5.46509886      17.16875267
H       20.08283043       4.68854523      17.60599518
H       18.93582344       5.39789057      18.78499031
H       21.52917862       6.70963526      17.73385811
H       20.29405212       7.55798769      18.71818161
H       19.64791489       6.19533730      20.87838173
H       20.76875877       7.53698063      21.13407707
H       21.15023041       5.86950493      21.74969292
C        2.70012450      21.41130257      36.57819748
O        3.06768155      20.23673248      35.88640594
C        2.85843587      19.02141380      36.61891556
C        3.36474872      17.94048691      35.65905380
O        3.08090615      16.67095947      36.21839905
C        3.30249858      15.64772606      35.25453186
C        3.06757617      14.32673168      35.99232483
O        3.53722596      13.26083469      35.17499161
C        2.67856789      12.79352570      34.14565659
H        3.16667175      21.47864532      37.58007812
H        3.04970384      22.26470757      35.97716141
H        1.60161829      21.48385811      36.69107819
H        1.78801680      18.86999893      36.84603500
H        3.41174364      19.04860878      37.57424164
H        4.44913387      18.06163788      35.49635696
H        2.87895179      18.05214310      34.67397308
H        4.33878851      15.64490414      34.87137985
H        2.62396836      15.74817562      34.38528824
H        3.66969585      14.33344746      36.91624832
H        2.00721192      14.20921898      36.27763367
H        2.47497511      13.53615761      33.36043549
H        1.72135973      12.43884087      34.55776215
H        3.18704033      11.94853973      33.66850281
C       17.83070755      19.65845680      25.64233208
O       16.72016525      20.55574989      25.81531143
C       16.14964485      20.92931175      24.54197311
C       15.12615967      22.01267815      24.82924271
O       14.60216713      22.42427254      23.56543922
C       13.72608185      23.55640030      23.75040245
C       13.41406059      24.13685036      22.37373161
O       12.75253773      25.39698792      22.52904320
C       11.31828785      25.29376602      22.65329170
H       18.72487259      20.21158600      25.31139565
H       18.00576401      19.16052628      26.60489464
H       17.60064697      18.88528633      24.88571548
H       15.67691422      20.05959702      24.05109024
H       16.93218994      21.29201889      23.84968185
H       15.59453678      22.87489510      25.35614395
H       14.31312275      21.64582062      25.48719215
H       14.20007229      24.32353592      24.39113235
H       12.78497696      23.25802040      24.24911499
H       14.35953426      24.32650185      21.83139420
H       12.81341839      23.44981956      21.74809074
H       10.99391270      24.77284813      23.56931305
H       10.86959362      24.76040459      21.79771996
H       10.88145542      26.30271721      22.67505455
C       23.24747849       9.23702431      29.09215355
O       24.07021141       8.10912228      29.43881416
C       23.94883537       7.88474035      30.85452461
C       24.49828911       6.49499559      31.11774635
O       24.33849716       6.32029867      32.53252411
C       24.85585022       5.06277084      32.96168900
C       24.61935997       5.01448822      34.47601318
O       25.15578842       3.80383658      35.02232361
C       24.33100891       2.65775943      34.85584259
H       23.55409241      10.13367653      29.64700508
H       23.28931427       9.39080524      28.00471878
H       22.18942070       9.04751301      29.34131622
H       22.88434601       7.93334961      31.17096138
H       24.47010994       8.65215015      31.45449066
H       25.55369377       6.39340830      30.80292320
H       23.92248726       5.73934460      30.54797173
H       25.93730736       4.97599411      32.74813461
H       24.33136940       4.23440838      32.44576645
H       25.15396690       5.83933592      34.97585297
H       23.54635429       5.13792658      34.70286179
H       24.02359962       2.48951221      33.80978394
H       23.41257668       2.73827076      35.46199799
H       24.89910126       1.78399694      35.20635605
C       34.07201385      30.00674629       8.82683372
O       32.95681000      30.65247345       8.20739746
C       31.74766922      29.89546967       8.33793449
C       30.63503647      30.82467270       7.86777973
O       29.41791153      30.08156776       8.04491711
C       28.26540756      30.91059685       7.89972258
C       27.06348419      29.95488548       7.96962833
O       25.87091637      30.65005493       7.56551552
C       25.36262894      31.62093735       8.48824024
H       34.32628250      29.06463814       8.31859398
H       34.94414520      30.67182732       8.78557301
H       33.86004639      29.77019691       9.88109112
H       31.54669380      29.60053253       9.38073921
H       31.78151894      28.97526741       7.73152685
H       30.75907516      31.08953476       6.80186224
H       30.61450195      31.75952530       8.45680141
H       28.24581146      31.39376068       6.91001177
H       28.22340775      31.68604088       8.68267632
H       27.21333694      29.12535095       7.26381636
H       26.93425369      29.54702187       8.98234558
H       26.06191063      32.45558929       8.61987305
H       25.14707375      31.16211128       9.46548939
H       24.41928101      31.99309921       8.05513573
C       17.72309303      20.65132523       3.33285809
O       17.61338806      19.43923950       4.05523968
C       16.71126938      18.53543854       3.42031312
C       16.81992149      17.24630737       4.22005224
O       16.12624741      16.24756241       3.46916533
C       15.89300251      15.06076241       4.22525835
C       14.72041416      14.40080166       3.48177671
O       14.26355362      13.23658752       4.16260433
C       15.19464874      12.16024590       4.14143181
H       16.75384712      21.18062973       3.28695631
H       18.45544243      21.26894951       3.86630201
H       18.07915497      20.46790695       2.30658269
H       16.99593925      18.33256721       2.37240815
H       15.67568111      18.92977715       3.42200375
H       16.38648415      17.37158203       5.22818804
H       17.88641930      16.98176003       4.34338760
H       15.62461472      15.27367592       5.27568102
H       16.77306747      14.39668751       4.21678877
H       13.86775398      15.09937477       3.45599341
H       14.98766041      14.17435741       2.43071532
H       16.07173920      12.33829117       4.78049946
H       15.53424835      11.92824173       3.11433625
H       14.65702343      11.28416348       4.53335333
C        2.53628731      23.84701729      10.13278961
O        3.26762033      22.93039131       9.32944489
C        3.56073380      21.67100143       9.93694973
C        4.29641056      20.89139557       8.84386158
O        4.97099400      19.79633522       9.45995235
C        5.83349228      19.14999199       8.52725029
C        6.27080393      17.76985359       9.03577805
O        6.81667757      17.04737282       7.89951086
C        6.39840794      15.71062469       7.65983343
H        3.14381504      24.27064323      10.95176125
H        2.19660306      24.65302467       9.47285366
H        1.64179575      23.38153648      10.57428265
H        2.62541819      21.16990280      10.26075935
H        4.19158697      21.80397415      10.84053230
H        5.02514553      21.56199837       8.34674168
H        3.60517406      20.52789497       8.06120682
H        6.70616913      19.79568291       8.31482506
H        5.31643486      19.00459671       7.56066608
H        7.02690172      17.82906723       9.83257008
H        5.40634584      17.24975395       9.46904659
H        5.50985765      15.67846298       7.00564384
H        6.11766577      15.19280910       8.59051514
H        7.19932652      15.12890339       7.17043734
C       31.12867355      35.55438614      35.68064117
O       30.66460228      35.06347656      34.44396210
C       29.29781151      35.39896011      34.16963577
C       28.95701981      34.80742645      32.80768967
O       27.69054794      35.35847473      32.41387558
C       27.25255394      34.72985077      31.20835495
C       25.90402794      35.30429840      30.77716064
O       25.42356682      34.45943451      29.72962952
C       25.16902161      34.99198532      28.42999649
H       30.53042984      35.16571426      36.52469254
H       32.16521072      35.21421432      35.82032013
H       31.10642815      36.65815735      35.72289276
H       29.16503334      36.49227524      34.17548370
H       28.63172722      34.97908020      34.94108963
H       28.90670776      33.70621872      32.86172485
H       29.75233459      35.05387497      32.07724380
H       27.13658714      33.63785934      31.33039856
H       27.97355461      34.87878418      30.38043404
H       25.19790459      35.27992630      31.62480927
H       26.00016594      36.35511780      30.46265030
H       26.01070786      35.60486603      28.08700180
H       24.23628235      35.57368851      28.38965607
H       25.03590202      34.12703705      27.76601601
C       34.36401749      14.94891167      21.23772621
O       33.88261795      14.36513710      22.45259285
C       33.40979385      13.03380394      22.19081116
C       32.74696732      12.60550213      23.49878693
O       31.96195030      11.45701122      23.18650627
C       31.60382843      10.69310856      24.32439423
C       31.12099075       9.36181450      23.73636436
O       30.72478485       8.53063297      24.84903526
C       31.61593628       7.48173904      25.19497299
H       33.52944946      15.15899754      20.55070686
H       34.87293243      15.88065815      21.50518227
H       35.07678986      14.29175282      20.71853828
H       34.22612762      12.36016655      21.87882233
H       32.67256927      13.01350689      21.36681747
H       32.11756134      13.42398262      23.90321732
H       33.50123978      12.37589359      24.27359009
H       30.79902840      11.17041779      24.92380714
H       32.46346664      10.52782726      24.99738693
H       30.24757957       9.52398777      23.08225441
H       31.88744926       8.89001846      23.10009003
H       32.35898590       7.79040289      25.94489288
H       32.13958359       7.07287931      24.31610107
H       30.99617767       6.68617582      25.64040947
C        5.63163471      33.23897934      28.17987251
O        4.94499063      33.10919571      26.95688629
C        4.43086481      34.35404205      26.49233627
C        3.76131606      34.06600571      25.15154839
O        3.15769601      35.29883575      24.81100655
C        2.43131757      35.20485306      23.58897400
C        1.66534412      36.52761841      23.52173424
O        0.74828851      36.52962875      22.43426132
C        1.33869910      36.77325058      21.15989876
H        4.99053144      33.61029434      29.00132942
H        5.97801781      32.23387909      28.46434021
H        6.50439358      33.91612244      28.09931183
H        5.25498772      35.07790756      26.35820770
H        3.71237373      34.77854919      27.22151566
H        3.00191283      33.27257538      25.24494362
H        4.51491880      33.74360275      24.40606499
H        1.71851635      34.36553574      23.59466934
H        3.11514592      35.06517410      22.72935486
H        1.08656406      36.66056061      24.45451736
H        2.37014985      37.36977768      23.44925690
H        1.94585252      35.93204117      20.80228615
H        1.93352222      37.69629288      21.18668556
H        0.50804567      36.89263153      20.45200348
C       26.97653008      22.92165375      29.28364372
O       25.87858772      23.26540947      30.14303398
C       25.25959396      22.05635834      30.64045715
C       24.46886063      22.46666145      31.88648605
O       23.49512672      21.44119453      32.12792206
C       22.72207260      21.78251648      33.28639603
C       21.79522705      20.59341621      33.50479126
O       20.91624832      20.90141487      34.60473251
C       20.98712349      20.05793381      35.75320053
H       26.61086082      22.37857628      28.38623619
H       27.45208549      23.86147690      28.96362686
H       27.72345161      22.29213715      29.79677582
H       26.03840446      21.29784584      30.87629318
H       24.61407471      21.60466385      29.86552811
H       23.96413040      23.43977928      31.74777985
H       25.12775230      22.57068825      32.76773071
H       22.12966537      22.70338631      33.12587738
H       23.35549736      21.94485283      34.18110657
H       21.21084023      20.39368439      32.59081268
H       22.39703560      19.69184875      33.69676590
H       21.79366302      20.35619545      36.44056320
H       21.12697220      18.99698067      35.47897720
H       20.03064728      20.12548828      36.28882980
C        8.40701771       6.02448940      25.55076790
O        7.70874500       6.58717632      26.66535759
C        6.60372591       7.46429157      26.35020065
C        5.78326654       7.50939322      27.63096428
O        4.61250973       8.29120159      27.40493202
C        3.86598587       8.38818073      28.63544083
C        2.60291123       9.21720982      28.36463928
O        1.96628797       9.51757145      29.61739731
C        1.11988533       8.49403572      30.11681366
H        8.87246132       6.80720329      24.93330956
H        9.17878151       5.36115503      25.96401596
H        7.72780275       5.43888330      24.91150665
H        6.00149822       7.04793882      25.52391243
H        6.95647049       8.46687126      26.06248283
H        6.36278725       7.91923571      28.48098946
H        5.50998402       6.47650385      27.89621353
H        4.46262217       8.89964104      29.41656303
H        3.57224917       7.39431620      29.00936699
H        2.89629173      10.18011379      27.92408752
H        1.92880964       8.68903828      27.67029190
H        1.61946964       7.51634645      30.20853233
H        0.21581730       8.34759712      29.50515747
H        0.78562903       8.80715561      31.11190796
C        1.51584661      17.32905006      16.65471649
O        2.41228724      16.28009987      16.27057076
C        2.72638988      15.36749554      17.34037590
C        3.60122919      14.31494427      16.65795708
O        3.93734217      13.31127357      17.62955093
C        4.51187134      12.17020416      16.97602081
C        4.86017895      11.17209530      18.09318542
O        5.83492422      10.21996784      17.63573837
C        5.48670864       9.29015541      16.60585976
H        1.76098883      17.73709869      17.64819145
H        1.57020354      18.11001587      15.88664627
H        0.48028949      16.95390320      16.68113327
H        1.81256723      14.92166710      17.76631355
H        3.22543359      15.90799046      18.16415405
H        4.51702070      14.75788975      16.21883011
H        3.04150844      13.87964821      15.81005669
H        5.43065357      12.43932724      16.43072701
H        3.81043267      11.73544693      16.23716164
H        5.31109810      11.70471001      18.94618416
H        3.95016766      10.68467808      18.48171997
H        5.04561043       9.77628231      15.72180080
H        4.79752827       8.51201916      16.97868729
H        6.40719271       8.79346466      16.27811050
C       11.30030346      35.14464951      15.27120018
O       11.19746304      33.86409760      14.65221977
C       12.01157475      33.68886185      13.48205280
C       12.09037495      32.19978333      13.18291092
O       12.63036537      32.11515045      11.85824299
C       12.58970356      30.80793762      11.26485348
C       13.45030880      30.87808228       9.99613476
O       13.34147167      29.69035721       9.17394924
C       14.15346050      28.61873055       9.66862774
H       10.77907848      35.90043259      14.66207790
H       10.82544422      35.07598877      16.25405884
H       12.35701180      35.43534851      15.39283657
H       13.01521683      34.10921860      13.64549732
H       11.52541637      34.17830276      12.62388039
H       11.08305550      31.74187088      13.22287083
H       12.72749043      31.73126411      13.94769192
H       11.55016613      30.53604698      11.00526810
H       12.98169422      30.03977966      11.95104599
H       13.10227585      31.71502876       9.37537479
H       14.49451733      31.07156563      10.28579712
H       13.82039833      28.26375771      10.65496159
H       15.20254421      28.93768883       9.73518848
H       14.07601643      27.78451729       8.96153641
C       34.31911469      29.07690048      29.62953949
O       33.06970978      28.36926079      29.53228951
C       32.83358765      27.49274254      30.66241837
C       31.76154327      26.53940201      30.16244316
O       31.30308342      25.80754852      31.31995201
C       30.20522690      24.94637871      31.00436592
C       30.21850204      23.96089172      32.16243744
O       29.23574257      22.93488693      31.93556023
C       27.95458221      23.35572624      32.42336655
H       35.11686707      28.44624901      30.04735565
H       34.58301926      29.38336563      28.60937691
H       34.24255371      29.95008850      30.29626465
H       32.50967789      28.05606270      31.55723572
H       33.76551437      26.97698021      30.93582344
H       32.14531326      25.84099197      29.39631462
H       30.91476822      27.06852150      29.68433189
H       30.34395790      24.41382217      30.04562759
H       29.24704170      25.50129128      30.93415070
H       31.20112419      23.46878433      32.20396423
H       30.05238533      24.45975685      33.13385391
H       27.48459816      24.11235809      31.77131462
H       27.98570251      23.74742699      33.45184708
H       27.29024315      22.47669029      32.39556122
C       22.02624512       1.56925213      17.32011795
O       21.55289268       2.19532990      16.13358307
C       22.56235123       2.51736999      15.14690304
C       21.89485741       2.23818874      13.80259132
O       22.75473595       2.79624033      12.79479313
C       22.19761276       2.58906865      11.48959732
C       23.11994553       3.27866745      10.47636795
O       22.47859955       3.28357983       9.19221783
C       22.88724327       2.30198336       8.25455856
H       22.32389832       2.29065847      18.09496498
H       21.20222282       0.96792585      17.73443604
H       22.88125229       0.90391505      17.11666107
H       23.46661949       1.90615714      15.28216648
H       22.84460068       3.58151221      15.24029732
H       20.90713120       2.72283340      13.77856350
H       21.76030731       1.15745819      13.63244629
H       21.18085670       3.01958084      11.42818165
H       22.11240387       1.51323056      11.25842857
H       23.24593544       4.32503700      10.79930305
H       24.11514091       2.81726766      10.43486023
H       22.64599991       1.28052855       8.58431530
H       23.96423149       2.35551190       8.03699875
H       22.31307030       2.48583889       7.33766651
C       35.07304001      21.20934486      24.02197647
O       34.21696091      21.78354454      23.04076576
C       33.61675262      20.78381920      22.20639229
C       32.85518265      21.50193787      21.09735489
O       32.18161774      20.44510078      20.42373276
C       31.27468872      20.91684151      19.44372177
C       30.56535530      19.66528130      18.91617393
O       29.60884476      20.02812004      17.90884018
C       28.41878128      20.67486954      18.36406136
H       35.73484421      20.44159508      23.58755684
H       35.69993591      21.99225426      24.47056770
H       34.48391342      20.73425293      24.82894897
H       32.89522171      20.17363548      22.77709961
H       34.37782669      20.10607529      21.78364182
H       33.54788971      22.03437233      20.41896820
H       32.15204239      22.24510765      21.52317810
H       31.78385925      21.41817093      18.60204697
H       30.54281425      21.61944008      19.89225769
H       31.27787590      18.97890091      18.42779732
H       30.08726883      19.13802910      19.75966263
H       28.59408188      21.62942886      18.88419724
H       27.81947517      20.01342773      19.01734543
H       27.80516243      20.87944794      17.47200775
C       29.60482979       2.34289551      32.60903549
O       28.37927818       2.79979277      32.06740952
C       27.86864662       1.94373417      31.03340530
C       26.52270699       2.55888557      30.67603302
O       25.95231247       1.76428556      29.64123917
C       24.61431313       2.19935322      29.36556435
C       24.10428619       1.36427498      28.19624329
O       22.77037048       1.81689751      27.88142586
C       21.67274857       0.99447620      28.25759315
H       30.42521477       2.40684676      31.87064934
H       29.85840797       2.96249008      33.48247910
H       29.52482414       1.29294932      32.93910599
H       27.73549843       0.90808874      31.38929749
H       28.54154396       1.92190981      30.15570831
H       26.65915108       3.60387707      30.34307098
H       25.88376617       2.60306191      31.57499313
H       24.58880997       3.26928544      29.09217262
H       23.95205116       2.08025956      30.24244690
H       24.73050117       1.52680564      27.30086517
H       24.11284256       0.28963527      28.43568230
H       21.40374184       1.10816252      29.32114792
H       21.85570526      -0.06729531      28.04758072
H       20.80409431       1.30064058      27.65545464
C       29.77465630       2.70100689      26.94575310
O       29.41911316       3.89565301      27.62004280
C       30.41636848       4.35220337      28.55721474
C       29.82569885       5.64778280      29.09638977
O       30.74524498       6.20752048      30.01997185
C       30.76392555       7.63665962      29.99254990
C       31.83663750       8.08307457      30.97909164
O       31.87158966       9.52104473      31.03226089
C       32.50847244      10.08235073      29.86742401
H       29.72189331       1.84138572      27.63087463
H       29.03645706       2.53199267      26.15390015
H       30.78323746       2.75686669      26.50716591
H       31.37609291       4.53604937      28.04983139
H       30.59485245       3.62101722      29.36133957
H       28.84777641       5.46387577      29.58834457
H       29.64273834       6.29969835      28.22170830
H       29.78685760       8.04892159      30.29426575
H       30.98757172       7.99593019      28.97081375
H       31.60488510       7.74688387      32.00011826
H       32.82046509       7.67835379      30.70308495
H       31.82269859      10.09012794      29.00388145
H       33.42812729       9.53895569      29.61038017
H       32.74890137      11.11887074      30.13972473
C       20.29389000      35.00336838      15.66680145
O       20.65832710      33.67115784      15.35006428
C       21.78651619      33.21046829      16.09798431
C       21.88627434      31.73361969      15.74290657
O       22.88675690      31.17434692      16.58000755
C       22.81547165      29.74140739      16.56877518
C       24.03049469      29.25957680      17.35317230
O       24.24845505      27.86076355      17.08140755
C       23.55537605      26.94799232      17.92868423
H       21.13921165      35.69121552      15.50391102
H       19.45228958      35.27978134      15.01702595
H       19.94356155      35.08895874      16.71069717
H       21.63468361      33.34831619      17.18841362
H       22.70006943      33.75672913      15.80268097
H       22.12905312      31.58206940      14.66981888
H       20.89910889      31.26946449      15.91727924
H       22.85628510      29.34889030      15.53159046
H       21.85996056      29.41571808      17.01172829
H       24.92331314      29.78611755      16.98653793
H       23.92428589      29.44710922      18.44000244
H       22.46013260      26.96963120      17.77448273
H       23.77927589      27.10869789      18.99547577
H       23.91118050      25.93831444      17.67028618
C       16.37180901       2.33920336      26.40836716
O       16.64918327       3.35355997      27.36704636
C       16.74182129       4.68515682      26.80766869
C       16.65141869       5.58752251      28.03307533
O       16.92509270       6.92274237      27.60942078
C       16.93713760       7.83285904      28.72786331
C       16.77801514       9.21541023      28.11165619
O       17.00510597      10.25329208      29.04753113
C       15.86429882      10.66520214      29.80685043
H       17.13227654       2.30752206      25.61058807
H       16.34152794       1.37873781      26.94349098
H       15.39039326       2.50628495      25.92907906
H       15.90364361       4.87223625      26.11038017
H       17.67474556       4.80676365      26.22703934
H       17.32978630       5.27760601      28.84991455
H       15.62267399       5.52708673      28.42918205
H       17.85862160       7.74372053      29.33240128
H       16.08291817       7.65324259      29.40802383
H       17.46664238       9.33833694      27.25401115
H       15.77608013       9.26319599      27.65939522
H       15.43239403       9.84853649      30.40798759
H       15.05642986      11.02050114      29.14516068
H       16.14084816      11.48304844      30.48979759
C        9.60780907      13.54968643      16.47994995
O        9.97034836      13.78637123      15.13279152
C       11.38597012      13.79264927      14.94026947
C       11.71721840      13.57351208      13.47077751
O       12.98946857      14.24356365      13.33793068
C       13.55403423      14.13596630      12.03215790
C       14.88463402      14.88290787      12.11617565
O       15.48245144      14.87646580      10.80021954
C       16.35967636      13.78941250      10.43819332
H        9.96561146      14.31845951      17.18904305
H        8.50946903      13.53377438      16.52503777
H        9.91065407      12.54182816      16.81140518
H       11.85321045      12.98694420      15.53584576
H       11.77665901      14.75289345      15.31931591
H       10.94743252      14.00792313      12.80899715
H       11.75116062      12.50557804      13.18672943
H       12.89885139      14.57919312      11.25444508
H       13.72419643      13.08303833      11.73811817
H       14.67806244      15.92888927      12.39811897
H       15.54748344      14.45303440      12.88758183
H       15.79886150      12.84228992      10.36443329
H       17.18658257      13.66413212      11.14978790
H       16.75338554      14.00114822       9.43102932
C       31.98391914      34.25934601      22.82757187
O       31.35962296      32.99752426      23.03039360
C       31.87199402      32.01408386      22.11968040
C       30.91522408      30.83626938      22.17190170
O       31.31935883      29.94837761      21.12014389
C       30.41070938      28.87324524      20.85524559
C       30.81256866      28.31019974      19.48235512
O       30.00793076      27.15371513      19.13081741
C       30.43294525      25.90799522      19.70097733
H       31.80833054      34.61669540      21.79535866
H       31.53727150      34.95030594      23.55276299
H       33.06700516      34.19484329      23.00576973
H       32.90668869      31.73364067      22.38480568
H       31.84639740      32.39881516      21.08663750
H       29.88981628      31.18659210      21.98049927
H       30.90394402      30.33888626      23.16157722
H       29.36315918      29.23395538      20.83069420
H       30.48288727      28.09146500      21.63323402
H       30.60772896      29.04246712      18.68741226
H       31.88979721      28.07359314      19.45403290
H       30.05780029      25.77204323      20.72687531
H       31.53088951      25.81824303      19.71940422
H       30.00714874      25.09349632      19.08941841
C       22.12345695      18.56674767      22.33802414
O       21.06007195      19.25636864      21.68482971
C       20.70683289      20.47730827      22.36669540
C       19.59915543      21.13042641      21.56356812
O       18.99113846      22.04647064      22.47386360
C       18.31178284      23.13932800      21.82238007
C       17.76063728      23.96008873      22.99246788
O       16.67958641      24.80939484      22.60791016
C       17.16127777      26.03652000      22.06324196
H       21.81059837      18.20668602      23.33678818
H       22.38000107      17.69609070      21.71175766
H       23.00331497      19.21822357      22.46629333
H       21.57004356      21.16374397      22.43978882
H       20.34265327      20.28023148      23.38931465
H       18.86809540      20.38297653      21.20236969
H       20.00865364      21.63371658      20.66978073
H       17.50618362      22.75464439      21.17226219
H       19.01160240      23.71935463      21.20175552
H       17.35212898      23.29032898      23.76653671
H       18.57916641      24.54595375      23.44094086
H       17.69194984      25.89642525      21.09895134
H       17.83161736      26.55671692      22.77629089
H       16.25669861      26.64500237      21.87839127
C       15.67226601      28.51729774      19.99811745
O       16.62670326      29.45453835      20.46889496
C       17.53796959      28.95858765      21.47108459
C       18.52244949      30.08821297      21.75181389
O       19.17890358      29.84574318      23.01463127
C       20.10446167      30.92661858      23.23711014
C       20.85988617      30.63255692      24.53126144
O       21.49821472      31.82431793      25.01290321
C       22.73636246      32.11828995      24.34937286
H       15.12551022      28.00692749      20.81655693
H       14.93789101      29.04843521      19.37366104
H       16.13051033      27.71596336      19.37822533
H       18.04925919      28.05367088      21.08716393
H       16.97757530      28.68118477      22.38022614
H       18.00233078      31.05998802      21.76348877
H       19.26425171      30.13826370      20.93461227
H       19.54762268      31.87785339      23.30697823
H       20.79582596      31.00713921      22.37513924
H       20.15651894      30.31182861      25.31698990
H       21.57343864      29.80534172      24.37251854
H       22.61058235      32.20050049      23.25648117
H       23.49365234      31.34871483      24.56636810
H       23.07701111      33.07863617      24.75956345
C       30.45549583      24.53542137      10.36355782
O       29.79841805      25.53258324       9.58271027
C       30.43639755      25.66045189       8.30071545
C       29.56283760      26.59950066       7.48828030
O       30.23319054      26.68408203       6.22919798
C       29.52581024      27.53004646       5.33335161
C       30.43084145      27.75224304       4.11425400
O       29.75378227      28.63096046       3.20724106
C       28.81105995      28.01354599       2.33082151
H       31.53312111      24.74923134      10.46794605
H       30.00498390      24.50753593      11.36411572
H       30.34913254      23.53488731       9.91138077
H       30.51373291      24.69025040       7.78280735
H       31.45585442      26.05850410       8.42394543
H       29.46805191      27.58526802       7.97728539
H       28.54065132      26.19099426       7.38072395
H       29.29432106      28.49523735       5.82026100
H       28.55835342      27.09010124       5.02752781
H       31.34464455      28.26329231       4.44690466
H       30.73007774      26.81901932       3.61121845
H       27.95824242      27.58302307       2.87644601
H       29.27980423      27.20632362       1.74586427
H       28.42062759      28.79651451       1.67302895
C       23.52610207      20.01336670      18.36216736
O       24.18174744      19.19620323      19.32880783
C       24.99776077      18.18467140      18.71037102
C       25.56166649      17.40752029      19.87755394
O       26.28897095      16.27651405      19.38571930
C       26.85003471      15.61707592      20.53531075
C       27.30478287      14.23261356      20.10238647
O       27.59470177      13.48947811      21.30393982
C       28.96074104      13.38625145      21.71781540
H       22.99601555      19.40350151      17.61353683
H       22.75748444      20.58827209      18.89427948
H       24.24115944      20.67973709      17.85360336
H       25.80968475      18.63679695      18.11569595
H       24.38899422      17.55016708      18.03882027
H       24.72017860      17.09069061      20.52338600
H       26.18926048      18.06444168      20.51184845
H       26.08700562      15.51322556      21.32486916
H       27.68337631      16.21124077      20.95411491
H       26.47729492      13.71208382      19.59426880
H       28.15386772      14.22687912      19.40147591
H       29.27218819      14.22008896      22.36420250
H       29.65073586      13.30920219      20.86474609
H       29.05958557      12.44691849      22.28491974
C        4.78887415       1.23821926      21.74928665
O        5.09800196       2.40630770      21.01113510
C        5.73827744       3.42217708      21.81469536
C        5.77274799       4.66640663      20.94459343
O        6.47694731       5.62803459      21.72410393
C        6.42116261       6.93978357      21.13068390
C        7.16622400       7.83076239      22.12985992
O        6.91134882       9.21656513      21.86781502
C        7.68535042       9.69141483      20.74172592
H        3.96653295       1.41782391      22.46207047
H        4.46346998       0.45288593      21.05339813
H        5.66388226       0.87990761      22.31315231
H        6.75794268       3.11367536      22.09076309
H        5.17247486       3.61315942      22.74242973
H        4.74318933       5.00164366      20.70439911
H        6.28584766       4.45463276      19.98638535
H        5.36762714       7.24903345      21.00169563
H        6.88591814       6.92363119      20.12518883
H        6.79113531       7.62802792      23.14779472
H        8.24795818       7.60115004      22.12174225
H        7.51602221       9.09760761      19.82970619
H        8.76559353       9.69055653      20.96842384
H        7.33329582      10.71317959      20.54095459
C       11.07119942      17.54927826       6.99040699
O        9.83004856      18.25992012       7.02480221
C        9.28094864      18.34641075       5.69427490
C        8.06650829      19.23845863       5.84586859
O        7.33388662      19.20625687       4.61693287
C        6.15444756      20.04307175       4.69014168
C        5.53272915      20.04203987       3.28654623
O        4.29398251      20.75062752       3.27899551
C        3.15748477      20.00576210       3.70883751
H       11.82691956      18.11609077       6.41736603
H       11.39566994      17.38110352       8.02566528
H       10.95347786      16.56135559       6.51524401
H        9.03005695      17.33578873       5.31861830
H       10.02643585      18.76779366       5.00069904
H        8.35149860      20.27465248       6.10292530
H        7.43664742      18.86096191       6.65954781
H        6.42787647      21.06362534       5.00728703
H        5.42932558      19.64179802       5.42024088
H        6.22352648      20.57055283       2.60688138
H        5.42002535      19.02312088       2.87770963
H        3.17048049      19.75442123       4.77915955
H        3.01608300      19.08564377       3.12393069
H        2.27298141      20.63436317       3.53862238
C       15.50510216      25.98752594      26.12468338
O       14.42531395      26.83720207      26.50904465
C       14.36364841      27.06172562      27.92653656
C       13.24145985      28.08577156      28.10671997
O       12.49537373      27.66868591      29.25951576
C       11.28081036      28.41392136      29.38169289
C       10.66347694      27.91310120      30.68947220
O        9.44139862      28.61183739      30.97459602
C        9.55026913      29.89759064      31.54701614
H       15.40229225      24.98672485      26.57828522
H       15.50277138      25.85908508      25.02295876
H       16.46939659      26.40488815      26.43952179
H       15.33052635      27.45162582      28.29326820
H       14.13392544      26.13143158      28.47180939
H       12.59930038      28.06159592      27.20619583
H       13.60708904      29.12114525      28.24039459
H       10.60823250      28.20582199      28.52577209
H       11.48114204      29.49879837      29.43515205
H       10.40062714      26.84921646      30.58979797
H       11.37493229      28.03604889      31.52056503
H        9.93446350      30.64379692      30.83638191
H       10.18783379      29.90841103      32.44724274
H        8.53062820      30.19252777      31.84674263
C       33.41970444      18.19274330       1.18481302
O       33.03213882      17.10705185       2.00767350
C       33.06731033      15.87964821       1.28988051
C       32.71670914      14.83139515       2.34064555
O       32.84232330      13.57209587       1.67602730
C       32.51435852      12.48299408       2.52864742
C       33.02029419      11.24777794       1.76032603
O       32.64185333      10.05980873       2.46673250
C       33.59764481       9.67570400       3.45228672
H       32.66858673      18.36712456       0.39634284
H       33.46949387      19.07448196       1.83527756
H       34.40455627      18.00227356       0.71872252
H       34.06861877      15.68857765       0.85892415
H       32.32978439      15.86761379       0.46370721
H       31.68932152      14.97782040       2.72760773
H       33.39291763      14.91516685       3.21134853
H       31.42337799      12.43076897       2.71773958
H       33.00564194      12.57548618       3.52032328
H       32.55743790      11.17718410       0.76090944
H       34.11346054      11.31172085       1.62480903
H       33.60218430      10.32863903       4.34009457
H       34.61711884       9.62898064       3.03857160
H       33.29250717       8.67473316       3.78705382
C       17.61842155      23.76679230      28.34965515
O       17.70990753      24.53497887      27.14714241
C       18.84093475      24.22213554      26.31780624
C       19.28629303      25.54099274      25.69886398
O       20.28204536      25.24107361      24.69392395
C       20.87849998      26.44844627      24.19935608
C       21.89208794      26.05768394      23.10277939
O       22.33104324      27.25045013      22.42293930
C       21.52437782      27.56639481      21.27165413
H       18.52192688      23.86251640      28.96022797
H       16.76083183      24.16990852      28.90796471
H       17.38110352      22.70844650      28.14597702
H       18.55593872      23.48788261      25.54405212
H       19.66278648      23.78996849      26.90250587
H       19.67307663      26.20577240      26.48981857
H       18.42565155      26.05344772      25.23147392
H       21.35120392      26.99210358      25.03852081
H       20.09112358      27.10231018      23.78185081
H       22.78702927      25.58796692      23.54893684
H       21.44774437      25.33988571      22.38570404
H       20.47968292      27.75880051      21.56248093
H       21.50718880      26.73674202      20.54367065
H       21.93831062      28.46681976      20.79824829
C       12.66319847      25.01719284       6.61065626
O       12.07796860      23.75871277       6.34922504
C       11.85308838      23.50804520       4.96139956
C       10.93505478      22.30273247       4.82504892
O       10.65531445      22.21070480       3.43115640
C        9.75923729      21.15866852       3.07628107
C        9.59015560      21.21262932       1.55062687
O        8.56596661      20.31698990       1.07480752
C        8.74432755      18.94521523       1.41599786
H       11.95768738      25.84015274       6.41328573
H       12.94554234      25.06559563       7.67363644
H       13.56492138      25.17750549       5.99186563
H       12.80365181      23.33047676       4.42660952
H       11.35559464      24.35895348       4.47479630
H       10.01773643      22.47453499       5.41805315
H       11.42201710      21.38414383       5.20322561
H        8.77896023      21.29603767       3.56838202
H       10.15834236      20.17241478       3.36694193
H        9.23310089      22.21247673       1.26366818
H       10.54324913      21.01652145       1.02677953
H        8.50800037      18.76761627       2.47836709
H        9.75319958      18.56823921       1.18830061
H        8.01171970      18.38056755       0.82036233
C       12.16155624       7.52884483      25.09950447
O       12.42844296       7.52155781      26.51327515
C       12.76917934       6.19419527      26.94182968
C       13.06175137       6.30789614      28.42857170
O       13.20169449       4.96005440      28.90833473
C       13.68397331       4.94940615      30.25032234
C       13.82832336       3.46936297      30.59444427
O       14.35712624       3.36961508      31.92007446
C       15.65543556       2.83147573      32.10378647
H       11.32960606       6.85264874      24.83397675
H       11.86771011       8.54489326      24.80418015
H       13.04480171       7.20671320      24.51676178
H       13.64089966       5.79512835      26.38496208
H       11.92937183       5.49932814      26.74668694
H       12.25745201       6.82181168      28.98046875
H       13.98055840       6.90238714      28.60679436
H       13.00355816       5.47041035      30.95119286
H       14.66819954       5.44427443      30.32780457
H       12.82730865       3.00887704      30.58579254
H       14.45417309       2.94260645      29.85299873
H       16.43981171       3.55417347      31.83162117
H       15.80200100       1.92187965      31.50252724
H       15.75023746       2.56646442      33.16708374
C       26.81173706      25.50540161      18.65418434
O       26.15730476      26.48401451      19.47335815
C       26.76154709      26.68267822      20.76082611
C       25.74943924      27.51882935      21.54232407
O       26.22320747      27.64085770      22.89385223
C       25.32199287      28.43356514      23.68581581
C       26.01850128      28.69516754      25.01219940
O       25.19088745      29.59073067      25.80144310
C       25.81838036      30.69528008      26.44930267
H       26.85183334      24.53420639      19.17577362
H       26.21345139      25.37048912      17.74051094
H       27.82644081      25.83234406      18.39095306
H       27.72993279      27.20636177      20.67068291
H       26.92065430      25.71377945      21.26789093
H       24.75790977      27.03534889      21.52285767
H       25.62522316      28.51793671      21.08854294
H       24.35789108      27.91451263      23.81977081
H       25.09532356      29.39205360      23.18553925
H       26.14716530      27.75787544      25.58141708
H       27.01135063      29.13538361      24.81929970
H       25.66855049      31.62275124      25.87207794
H       26.90028572      30.53913307      26.58611298
H       25.37110138      30.85231781      27.44612694
C       36.20127106      34.65246201      19.43425179
O       35.07373047      34.95405960      18.62151718
C       35.37467194      34.79383469      17.22881699
C       34.10068893      35.15630722      16.48411179
O       34.40404510      34.95030594      15.11070061
C       33.27378082      35.17813873      14.27128601
C       33.73372269      34.87116623      12.84755230
O       32.65969849      35.14932251      11.93477345
C       31.81780815      34.04707336      11.60055733
H       37.04500961      35.32978821      19.22506332
H       35.90275955      34.75732040      20.48444366
H       36.52923965      33.61322021      19.28876877
H       35.64084625      33.74822617      16.99742508
H       36.21383667      35.44340897      16.92813301
H       33.81369781      36.20352173      16.70073700
H       33.27826691      34.50099182      16.81175423
H       32.90736771      36.21892166      14.36596775
H       32.45012665      34.49559402      14.53299236
H       34.58060074      35.52398682      12.58083153
H       34.07088852      33.82804871      12.75352478
H       31.17639732      33.74428177      12.44230556
H       32.39200211      33.17384720      11.25627708
H       31.16047668      34.35509491      10.77719307
C       13.21990395      18.37136650      23.65974998
O       12.46919441      17.92535973      22.52570343
C       11.42370510      16.96857262      22.83912849
C       10.85536003      16.61253357      21.47592545
O       10.09614849      15.41431999      21.58972740
C        9.66368294      15.04895687      20.26916504
C        8.94481754      13.71383667      20.43997765
O        8.47963238      13.23796654      19.17537880
C        7.21094322      13.79946899      18.82773018
H       13.94733047      17.61394691      24.00808716
H       13.72659397      19.30528450      23.36665726
H       12.56460571      18.61731720      24.51266098
H       10.66868782      17.41829300      23.51698875
H       11.83084679      16.07322693      23.34591675
H       11.68068981      16.46179771      20.74937248
H       10.22503567      17.42393112      21.06147766
H       10.50897598      14.92825127      19.55874634
H        8.97865295      15.81236267      19.84045601
H        9.64383316      12.95856094      20.85387611
H        8.10990334      13.82014751      21.16492462
H        7.25026417      14.89407349      18.69390106
H        6.43799210      13.56431293      19.57892990
H        6.88600636      13.36255550      17.87252235
C       20.33155441       3.67372537      25.94447136
O       20.92853165       4.21481991      27.11739922
C       20.00634384       4.57382011      28.16340256
C       20.84466553       4.82203293      29.41315842
O       19.96056747       5.29666662      30.44916916
C       20.66250992       5.43161678      31.69782448
C       19.63021660       5.82290745      32.74429703
O       20.36176491       5.95385313      33.99467850
C       19.84982300       5.32776642      35.15830994
H       19.77364349       4.44532681      25.38314056
H       21.11516953       3.25658846      25.29584122
H       19.62837982       2.85514712      26.18520355
H       19.27143860       3.77076340      28.33350754
H       19.45171738       5.48975325      27.89094925
H       21.62665749       5.57954407      29.22556496
H       21.34850502       3.88603210      29.70665550
H       21.43927765       6.21296501      31.63472366
H       21.14776230       4.48222017      31.97464752
H       19.15010071       6.78612614      32.50537872
H       18.82995605       5.06981134      32.81930923
H       20.36776924       4.37209654      35.35317993
H       18.77074242       5.12936544      35.04143524
H       19.97393608       5.97549534      36.04076385
C       21.02964592      25.29539299      14.16674328
O       20.16378403      25.78765869      15.17735004
C       20.27544022      27.20449829      15.39042377
C       19.31915665      27.54559135      16.53053474
O       19.42631721      28.95168877      16.74515724
C       18.60386467      29.43256187      17.83648872
C       18.94405746      30.91427803      18.01934242
O       18.30205536      31.49141502      19.15343475
C       16.92828560      31.86564255      19.01126289
H       22.08526039      25.42234039      14.45246887
H       20.80932808      24.22802353      14.03453159
H       20.84701729      25.80860710      13.20851612
H       19.99195862      27.74226570      14.46990681
H       21.30087662      27.48611259      15.67741394
H       19.57962418      26.99313164      17.45410919
H       18.28361320      27.26787186      16.26436234
H       18.80227852      28.89687729      18.78280449
H       17.53122330      29.29784203      17.60954285
H       20.02786446      31.01379776      18.21674919
H       18.69478798      31.47010231      17.09557343
H       16.30876350      31.09614182      18.52415085
H       16.82147789      32.80715561      18.45471001
H       16.50067711      31.99317932      20.01650429
C       36.49114227      34.17553329      36.45853043
O       35.44385529      33.28537369      36.14937973
C       35.09099960      33.23674393      34.76842880
C       33.92026138      32.26132584      34.67553711
O       33.41608810      32.35810089      33.35155106
C       32.30506897      31.49168777      33.11168289
C       31.84742737      31.82741737      31.68915749
O       30.51891899      31.33879471      31.42936897
C       30.44783592      29.91591835      31.24670792
H       36.19971085      35.21894455      36.24177551
H       36.69972229      34.09492493      37.54011917
H       37.41647339      33.94076538      35.90361786
H       35.92874908      32.87514496      34.14360428
H       34.77058792      34.22510147      34.39673996
H       33.15819931      32.52973175      35.43146896
H       34.25687790      31.23893738      34.90217590
H       31.47713661      31.69090652      33.81922531
H       32.59316635      30.43221855      33.17971039
H       31.78796577      32.91997910      31.59209061
H       32.55082703      31.43354034      30.93560028
H       30.83831596      29.38138771      32.12681961
H       30.98648834      29.60088158      30.33914757
H       29.38524246      29.66031837      31.14829063
C       15.62318611      10.13216972      22.25601006
O       16.78930283      10.94687080      22.38192177
C       17.02902985      11.67456245      21.16154671
C       18.35533524      12.39545631      21.36696243
O       18.59469604      13.06383324      20.12267303
C       19.87536430      13.73365021      20.16369438
C       20.16555023      14.28655815      18.76539612
O       21.40749359      15.00253010      18.82820511
C       21.24723053      16.35206795      19.28639030
H       15.66960812       9.47228909      21.36719322
H       15.52224445       9.52346611      23.16806602
H       14.70625687      10.74305439      22.13858986
H       16.20055962      12.36910915      20.93699646
H       17.10046005      10.98484421      20.29987526
H       19.14789581      11.64754963      21.58092308
H       18.30011368      13.09533215      22.22956467
H       20.67373085      13.02409840      20.44800568
H       19.84340286      14.52943897      20.93454361
H       20.27408028      13.48192310      18.01675987
H       19.34042549      14.91387177      18.38144875
H       20.84070206      16.42704582      20.30962372
H       20.57558441      16.90848541      18.61028481
H       22.24993896      16.80956078      19.27521706
C        8.70959854      18.00370216      32.53039169
O        7.61854219      17.82044411      31.63119316
C        7.96587849      17.86993790      30.22858238
C        6.73411465      17.34317589      29.48442459
O        6.97152662      17.54675484      28.08996201
C        5.88841581      17.07775879      27.25901794
C        6.26577330      17.34102821      25.79026794
O        5.20668316      16.93657684      24.90017509
C        4.98691654      15.53019142      24.89559937
H        9.06096935      19.04780769      32.53148270
H        8.38191891      17.72334480      33.54048157
H        9.55829716      17.35751343      32.25454712
H        8.85324383      17.25586700      29.99506569
H        8.17446041      18.91131783      29.91861343
H        5.82723808      17.89109039      29.80345917
H        6.54057074      16.27255821      29.70117378
H        4.95317554      17.62553024      27.50390625
H        5.67751551      16.00916481      27.43013000
H        6.35781527      18.42497826      25.60459518
H        7.22482538      16.86227989      25.48599434
H        4.63981104      15.12308598      25.86384201
H        5.89840889      14.98490715      24.57612991
H        4.19330359      15.34909630      24.14836502
C       29.63463783      26.83380318      15.92319775
O       30.59504700      27.86102486      16.11523819
C       31.98299980      27.44270706      16.14877892
C       32.75293350      28.76031303      16.20975113
O       34.10631180      28.54838753      15.81703281
C       34.63188934      29.76023102      15.27615738
C       36.14108276      29.54769897      15.06456566
O       36.81504440      30.79602432      15.27910995
C       36.89683151      31.62775040      14.12082577
H       29.72685432      26.04260635      16.68672180
H       28.64475822      27.30152702      16.01436424
H       29.72643471      26.36407471      14.93047523
H       32.21737671      26.87267113      15.23299980
H       32.15616226      26.80255699      17.02925301
H       32.68040466      29.22874069      17.20491409
H       32.24547195      29.44374275      15.50675488
H       34.43009186      30.60075951      15.95877743
H       34.11415482      29.99200821      14.32338810
H       36.52240753      28.84935570      15.82453918
H       36.38383102      29.13890076      14.06678677
H       35.92350006      32.07551575      13.87913704
H       37.26200485      31.06239319      13.24716282
H       37.60873795      32.42216492      14.38049316
C       10.77145195      25.88912773      35.51280212
O       11.88732243      26.14924240      34.67737579
C       11.94181252      27.54025650      34.31253433
C       13.24006844      27.67985916      33.52003479
O       13.19213104      28.98385429      32.93127060
C       14.31109333      29.21147537      32.05170822
C       14.28202820      30.69684219      31.68641853
O       15.55650139      30.96795654      31.06094360
C       15.99968624      32.31214523      31.28351212
H        9.83639622      25.79046822      34.93403244
H       10.94679356      24.95620918      36.06306839
H       10.61682892      26.70676613      36.23706055
H       11.91590977      28.17094994      35.21851730
H       11.06770229      27.80757523      33.69665909
H       13.30812836      26.88445473      32.74903107
H       14.11056137      27.59318542      34.19344330
H       14.25228214      28.56046295      31.15898132
H       15.25594330      28.99334145      32.57905960
H       13.46204853      30.90561676      30.97464180
H       14.11371517      31.32739639      32.57783890
H       16.33287811      32.46217728      32.31978989
H       15.18557072      33.02198792      31.05925751
H       16.84334564      32.49168777      30.60629845
C       16.34128761      15.77118874      20.48316002
O       15.56196785      14.67100811      20.98046875
C       14.44468594      15.05859566      21.80598450
C       13.85273075      13.70567226      22.18060875
O       12.71917534      13.86912346      23.03460312
C       12.16663265      12.57348728      23.31485748
C       10.89427757      12.83391857      24.11330795
O       10.41395855      11.55471706      24.59970093
C        9.10365868      11.14144897      24.20096779
H       16.79135513      16.34126854      21.31336021
H       17.12224960      15.33204651      19.83856583
H       15.69147682      16.43698502      19.88090706
H       13.71234417      15.65447044      21.22711563
H       14.73165989      15.66817474      22.68515205
H       14.63068867      13.09170532      22.68315315
H       13.58146954      13.16894722      21.24991798
H       12.89015198      11.95657253      23.89038467
H       11.94332886      12.02744579      22.37262535
H       11.06959724      13.49191284      24.97789764
H       10.13299656      13.33553219      23.49095726
H        9.14003086      10.32394314      23.46143723
H        8.52368832      11.96770382      23.75403023
H        8.54385757      10.77876949      25.07568932
C        1.38846338      20.29247856      23.89966011
O        2.53719044      20.64989281      23.16945267
C        3.73452091      20.03697586      23.67736435
C        4.82489824      20.27216148      22.62893486
O        6.01334286      19.73805428      23.20850754
C        7.19605732      19.93058586      22.41021538
C        8.32668114      20.16245461      23.42506409
O        9.48032475      20.80766487      22.84251404
C       10.06457520      20.24780464      21.68466759
H        1.39799082      20.66901207      24.94071579
H        0.51025450      20.72580147      23.39837456
H        1.25530314      19.19888687      23.91116714
H        3.57684755      18.95215607      23.81524277
H        3.99063396      20.47437668      24.66723824
H        4.93409014      21.35288811      22.41491890
H        4.56359291      19.74807930      21.68401337
H        7.08693075      20.81632996      21.76019287
H        7.36496019      19.06155014      21.74284172
H        7.98307180      20.89461517      24.17184448
H        8.60417843      19.24007225      23.97121048
H        9.33439159      20.04415703      20.87996483
H       10.60358715      19.31448364      21.93429184
H       10.79112434      20.98281479      21.29623413
C       17.45165634      13.07112885      15.96970558
O       16.59644127      12.34259892      16.86120605
C       16.41819000      11.00265408      16.39037514
C       15.52777386      10.36845779      17.44141960
O       15.42419434       8.97067833      17.08911705
C       14.52323055       8.25589275      17.96296310
C       14.22108269       6.96890497      17.19085503
O       13.15269947       6.23117256      17.83731651
C       13.59978294       5.14293718      18.64484024
H       16.99240303      13.18571663      14.96446705
H       17.59795952      14.06247425      16.41057014
H       18.43375969      12.58598518      15.84689426
H       17.38991737      10.47544289      16.28416634
H       15.93200970      10.97750092      15.39431381
H       14.52328396      10.83129501      17.45279121
H       15.92344666      10.50070667      18.46780968
H       13.59584904       8.84215927      18.12805557
H       14.98194599       8.05682945      18.94926834
H       13.85473728       7.21658707      16.17974472
H       15.12014675       6.34456205      17.07254219
H       14.01892471       5.45994043      19.61390495
H       14.35078335       4.52805185      18.11775970
H       12.71116543       4.52567053      18.85485458
C       37.42107391      29.40572548      36.42595291
O       36.03446579      29.22851181      36.70311737
C       35.37474823      28.38781357      35.75511551
C       34.12771988      27.86837387      36.45617676
O       33.54581833      26.96428299      35.51783752
C       32.53438568      26.12380981      36.07490158
C       32.27401352      25.10550308      34.95931625
O       31.19113541      24.23755455      35.36149979
C       31.58884239      22.97187996      35.86767578
H       37.60451508      29.99195099      35.51078796
H       37.86896515      29.93842506      37.28579712
H       37.93948364      28.44087601      36.28671646
H       36.01574707      27.55909920      35.41296768
H       35.09075928      28.94440079      34.84472275
H       33.42370224      28.68647766      36.69909286
H       34.38600922      27.36493301      37.40336990
H       31.60962486      26.69641113      36.27227020
H       32.86645508      25.65817070      37.01993561
H       31.94338036      25.62902260      34.04380035
H       33.18303680      24.53516769      34.71006775
H       32.07745743      23.04202271      36.85221100
H       32.25395966      22.44891357      35.16087723
H       30.66307640      22.38932800      35.96134949
C       24.45896339      23.90334320      21.20564079
O       25.75511551      23.36846542      20.90748215
C       26.36199951      22.81107903      22.09457016
C       27.55267715      21.98900032      21.64769745
O       27.94472122      21.22661781      22.80760574
C       29.05430031      20.38846016      22.47198677
C       29.36353874      19.56882286      23.71945190
O       30.48684311      18.71510506      23.42778015
C       30.18189812      17.44188690      22.85798264
H       24.48323441      24.64362907      22.02363014
H       24.06624603      24.38857079      20.30114555
H       23.74803162      23.10774803      21.50795937
H       25.62928391      22.17055511      22.61482620
H       26.65009880      23.61557007      22.79439545
H       28.37537193      22.63782501      21.29372406
H       27.25565529      21.31750679      20.82537651
H       29.94345665      20.98866653      22.21328354
H       28.80861855      19.74293518      21.60716820
H       29.64626884      20.23419952      24.54868889
H       28.47440720      19.00281906      24.04455376
H       29.63683128      17.53398514      21.90086746
H       29.54223633      16.85094833      23.54101944
H       31.12436676      16.90458870      22.69183350
C       29.05783844      28.91299248      34.70545959
O       27.92012405      28.03946686      34.62991333
C       28.28930473      26.69503403      35.01337814
C       26.99402046      25.90987778      35.11940765
O       27.37803650      24.56417465      35.42264557
C       26.24542809      23.70508194      35.58535385
C       26.83656693      22.29691124      35.69639587
O       25.85210228      21.29642487      35.35939789
C       25.05124664      20.83827782      36.45936203
H       29.93614388      28.46915627      34.20951462
H       28.76953125      29.83859825      34.18613815
H       29.32460403      29.13886261      35.75132751
H       28.85684967      26.69225311      35.96024704
H       28.93559647      26.24954224      34.23461151
H       26.41900635      25.94301224      34.17054367
H       26.32345772      26.30916214      35.89734650
H       25.58198357      23.76134872      34.69872284
H       25.64091873      23.99605560      36.46088028
H       27.64372253      22.17491150      34.95428085
H       27.25612831      22.12382317      36.69972229
H       24.32821083      21.59895325      36.79966354
H       25.65071106      20.51419067      37.32366562
H       24.45676804      19.98565292      36.10034180
C        4.18617773       7.76381302      35.10330582
O        4.36514902       7.56178331      33.72260284
C        4.13924932       6.23502922      33.22884750
C        4.61267233       6.24144793      31.78054047
O        4.58659649       4.88790131      31.33589935
C        4.96968603       4.71343708      29.97121429
C        4.87169981       3.21819115      29.65643883
O        5.51567888       2.97346354      28.39501762
C        4.71591949       2.91500211      27.22199440
H        4.93330908       7.23192596      35.72011948
H        4.29233599       8.84224033      35.30552292
H        3.17866421       7.46463394      35.43761444
H        3.06442213       5.99313498      33.28036499
H        4.70004177       5.49098587      33.81674194
H        5.63393927       6.66396284      31.72861099
H        3.94107652       6.87270117      31.17577744
H        6.00799322       5.05409098      29.80421448
H        4.29322863       5.26636124      29.29413605
H        5.40704346       2.66455793      30.44054985
H        3.82542276       2.88635421      29.65089226
H        4.12114000       3.82354879      27.07514381
H        4.04430485       2.04481339      27.24081421
H        5.39112043       2.80976224      26.36455727
C       24.66749191      35.44878387       5.37210846
O       23.44014740      35.51153946       4.67773962
C       23.24851990      34.41630554       3.78467965
C       21.79959488      34.52323532       3.32326317
O       21.61781502      33.47812271       2.39125443
C       20.24602699      33.24935150       2.06148434
C       20.22735977      31.86810684       1.39030123
O       19.07972527      31.68882751       0.53511429
C       17.80335999      31.88538551       1.16599655
H       25.52000237      35.29705429       4.68519831
H       24.81361008      36.39132309       5.92026711
H       24.67809296      34.62451935       6.10834265
H       23.41695786      33.43955231       4.27524662
H       23.93037033      34.47143936       2.91312027
H       21.61760521      35.50818634       2.85795951
H       21.11552811      34.44895172       4.18547106
H       19.86478424      34.01410675       1.36700010
H       19.60635567      33.27188110       2.95867395
H       21.09902382      31.72648239       0.73088038
H       20.23823166      31.10409737       2.17638707
H       17.75548553      32.78544998       1.78915811
H       17.54126167      31.02853203       1.80999529
H       17.05742264      31.97651863       0.36260468
C        8.00331116      32.25952911      24.27487373
O        8.63415337      31.65321350      23.16354752
C        8.36514854      32.29309082      21.90881920
C        9.07391357      31.40016747      20.89108849
O        8.91426373      31.96552086      19.58913422
C        9.50257778      31.04869270      18.65131569
C        9.17163372      31.50679970      17.23065376
O        9.61897755      30.52812958      16.28044701
C       11.04088974      30.41811562      16.15232086
H        6.90721941      32.24664307      24.15585327
H        8.25093079      31.68887329      25.18135071
H        8.31136227      33.31090164      24.39656258
H        8.74889755      33.32793045      21.91460419
H        7.27696705      32.32245255      21.70835114
H        8.60846996      30.40735245      20.90791512
H       10.13412571      31.27833557      21.16940308
H        9.09088421      30.03182220      18.77903748
H       10.59765434      30.99831200      18.79177666
H        8.07781124      31.59582329      17.10226631
H        9.63170338      32.49181366      17.02664948
H       11.45205688      29.71356773      16.89240646
H       11.54131508      31.39499855      16.23727798
H       11.23743248      29.99427223      15.15527058
C       12.28994560      23.92264748       1.04958487
O       11.69485760      24.88776398       1.89555776
C       10.90515900      25.86637115       1.22555506
C       10.12624741      26.58928108       2.32808137
O        9.27686596      27.49967766       1.65211618
C        8.52385235      28.27808762       2.56798244
C        7.73818493      29.29045677       1.72948718
O        7.23561096      30.35485458       2.55327606
C        5.94862795      30.20707321       3.11578369
H       13.12085629      24.33852768       0.45545873
H       12.62602711      23.11272049       1.71179950
H       11.54483223      23.49993324       0.35810488
H       10.20985317      25.39502335       0.51105720
H       11.54826164      26.57584381       0.67394555
H       10.81303215      27.11994934       3.01149440
H        9.54276943      25.86505699       2.92428565
H        9.16348648      28.81268501       3.29219365
H        7.81721115      27.65717697       3.13914323
H        8.42992496      29.72489548       0.99190396
H        6.92944193      28.77917099       1.16953242
H        5.90234804      29.51592445       3.96737123
H        5.22869158      29.81529236       2.33382750
H        5.59085083      31.19495010       3.42920113
C       20.30374146      28.90549278      28.98319626
O       20.43137169      28.34387970      30.27625275
C       21.60936356      28.64350510      31.02487564
C       21.83222389      27.43425751      31.91670418
O       22.71917152      27.77705574      33.00309372
C       23.02364731      26.59444618      33.74619675
C       23.28663445      27.02681541      35.18140411
O       23.82001686      25.95359612      35.98159027
C       22.87623405      25.05321503      36.55420303
H       21.19977570      28.75700188      28.35624695
H       19.46484947      28.38414764      28.49704170
H       20.04734230      29.97908974      29.03144646
H       21.46580505      29.56012917      31.63007545
H       22.47178268      28.77927971      30.34426308
H       22.22575188      26.61567116      31.29762268
H       20.85429573      27.09237289      32.30027771
H       23.89569473      26.06969643      33.30700302
H       22.18234634      25.87688065      33.70259857
H       24.06355476      27.80664253      35.20849991
H       22.37069893      27.44639015      35.64215088
H       22.68440819      24.19055557      35.89402771
H       21.90651131      25.54558563      36.73639679
H       23.26865578      24.68502426      37.51362228
C       25.80155373       1.86954808      24.07126236
O       25.49960518       2.96303391      24.93833542
C       24.32259941       3.71625066      24.57319260
C       24.19981194       4.79001331      25.65366364
O       23.08708763       5.61315870      25.29443169
C       22.81984138       6.59299469      26.31919479
C       21.63231468       7.40761709      25.83315659
O       21.34174728       8.44246769      26.79307175
C       20.34550858       8.19419003      27.78459740
H       26.03919029       2.21502113      23.05027580
H       26.65237808       1.32686162      24.49752617
H       24.93744469       1.19159126      23.99561310
H       23.41604424       3.08819103      24.56226158
H       24.43190765       4.16121817      23.56961632
H       25.12073898       5.39267969      25.69710159
H       24.02038002       4.32036924      26.63950157
H       23.68678093       7.25189877      26.50032234
H       22.53430939       6.11500311      27.27081108
H       21.84667397       7.89540291      24.86472130
H       20.76345444       6.74227953      25.67125511
H       20.69892883       7.57326365      28.63079262
H       19.46661377       7.68235111      27.34540367
H       19.97240639       9.15836620      28.17455482
C        4.04812193      10.64769173      23.85183334
O        3.74359345      11.55649567      22.79574585
C        4.83764553      12.48019218      22.65242767
C        4.32544184      13.59800720      21.75945854
O        5.41444635      14.51998329      21.70010185
C        5.00104094      15.68186474      20.94733238
C        6.14712906      16.69573021      21.08304024
O        5.88703632      17.85429001      20.27852631
C        5.79462862      17.69167900      18.86476898
H        4.21440887      11.15174580      24.81621933
H        3.18593097       9.97655964      23.96197128
H        4.93931484      10.04256916      23.61208344
H        5.71733713      11.96675873      22.21381569
H        5.14918470      12.88350105      23.63338280
H        3.41689825      14.07036877      22.18482971
H        4.02998781      13.22917557      20.75295448
H        4.06699705      16.10553741      21.35361290
H        4.77798271      15.38642216      19.90364838
H        6.21061325      17.04713249      22.13051414
H        7.11912155      16.24862289      20.80725479
H        5.35213375      16.73377991      18.54766464
H        6.78635406      17.78598785      18.38465691
H        5.12191963      18.47562790      18.48732376
C        1.25324070       7.44985914       4.34373045
O        2.14906144       6.83039856       3.43072176
C        3.33324504       6.38567877       4.09295559
C        4.19970465       5.79281521       2.98706675
O        5.26769209       5.13576603       3.65303373
C        6.16958046       4.50183344       2.75235796
C        7.10818195       3.66911793       3.63261127
O        8.01964760       2.94945955       2.77877116
C        7.55249262       1.75041866       2.19083714
H        1.72241497       8.29840469       4.86148357
H        0.38497961       7.82915497       3.79679179
H        0.88262236       6.74982071       5.10861063
H        3.10035515       5.62495947       4.85473728
H        3.84948444       7.21843529       4.60674906
H        4.55892420       6.59266329       2.31631994
H        3.61841941       5.08007479       2.37543488
H        6.77084827       5.23882103       2.19312429
H        5.64451265       3.85783076       2.02240348
H        7.70048952       4.32649040       4.28833628
H        6.52684927       2.99523330       4.27880669
H        6.71958208       1.91283858       1.48816812
H        7.24254608       1.02462721       2.96296763
H        8.39398575       1.31037331       1.63151252
C       30.11610222      28.84184265      27.12080383
O       30.55988503      30.08304596      27.64939499
C       31.44871521      30.85144615      26.80577660
C       32.18636322      31.70211411      27.83596611
O       32.91465378      32.73968124      27.17799377
C       33.14997482      33.82892609      28.09488487
C       34.04897308      34.82413864      27.36491966
O       34.41090393      35.91235733      28.21847725
C       33.43895340      36.93645859      28.38256264
H       30.95043373      28.17542267      26.85473824
H       29.52647591      28.36023712      27.91252136
H       29.47588348      28.96900940      26.22878075
H       30.86444855      31.45903969      26.09162903
H       32.11716080      30.19593048      26.21745300
H       32.84035492      31.06437302      28.45341682
H       31.44162941      32.14820099      28.52573776
H       33.64189529      33.48493576      29.02424049
H       32.18939590      34.30470657      28.37855721
H       34.97973251      34.31881332      27.06779480
H       33.54192352      35.16740799      26.44727516
H       32.59157181      36.63522339      29.01692009
H       33.03818130      37.24921799      27.40516281
H       33.94921875      37.78709030      28.86131668
C       12.11474514      11.01567459      19.50499916
O       13.19789791      11.91650486      19.25746346
C       12.70618057      12.92594433      18.32343483
C       13.88671112      13.84235477      18.01598740
O       13.38024426      14.91413689      17.21480560
C       14.46934223      15.53160191      16.49931526
C       13.92771149      16.78660774      15.80832958
O       15.07878971      17.63030624      15.55013466
C       14.77779675      19.02002335      15.80184746
H       11.74090385      10.56598759      18.56300354
H       12.44941235      10.22180462      20.19137383
H       11.24615479      11.53230095      19.95236778
H       11.83197880      13.45035458      18.75285149
H       12.32005787      12.43468189      17.41074562
H       14.66271305      13.27260494      17.46626663
H       14.36331749      14.21654129      18.94475937
H       14.89709377      14.80822849      15.77301693
H       15.28558254      15.82168865      17.19221497
H       13.39633274      16.55628586      14.86341000
H       13.20035267      17.30531693      16.45712280
H       14.36544037      19.18498993      16.80973434
H       14.02315140      19.39056969      15.07960892
H       15.72103024      19.56813049      15.68266582
C       28.69935226      21.19172096       8.35972309
O       29.71572113      21.19529533       9.35432243
C       29.57200050      20.16715813      10.34082603
C       30.81584167      20.33646584      11.21568108
O       30.77479553      19.35901451      12.27020931
C       31.89615631      19.55926704      13.13406658
C       31.92387962      18.42975807      14.15980721
O       32.89301682      18.83488083      15.14920044
C       33.97933578      17.96407127      15.47172356
H       27.72055626      21.43717194       8.80182552
H       28.96903038      21.93469620       7.59937763
H       28.63029099      20.21941376       7.85259724
H       29.53010178      19.17682266       9.85497475
H       28.63912582      20.29733467      10.92307091
H       30.86467361      21.35583115      11.64698792
H       31.72441101      20.20461464      10.59989452
H       31.84980011      20.53869057      13.64778900
H       32.83652878      19.52225685      12.55717945
H       30.93336868      18.33259583      14.63708496
H       32.16386032      17.46932220      13.67417717
H       34.73856735      17.97967529      14.67428017
H       33.62580109      16.92760849      15.59834671
H       34.43139267      18.30175209      16.41462135
C       11.09127903       9.41046238      15.99523449
O       11.81093311      10.17703342      15.02529621
C       13.03341770       9.57324696      14.60927677
C       13.67394543      10.54730797      13.63029766
O       14.93400669       9.95974445      13.28195763
C       15.66630173      10.80746937      12.38562584
C       17.07993507      10.21855927      12.27763653
O       17.81848526      11.11877728      11.42911816
C       18.22175980      10.62707806      10.13720989
H       11.71700668       9.16570377      16.87380981
H       10.20713615       9.99257660      16.29835129
H       10.71117687       8.46608543      15.56687546
H       12.86080074       8.60436440      14.10062122
H       13.71592903       9.39519691      15.46479034
H       13.79075432      11.53947067      14.11611938
H       13.01951027      10.67879200      12.73960114
H       15.67768002      11.84405422      12.78118992
H       15.16960907      10.84184933      11.39514542
H       17.53455734      10.21364975      13.28479099
H       17.07907486       9.18376923      11.89507389
H       17.34870148      10.42484379       9.49702358
H       18.81460571       9.70727634      10.21406174
H       18.82695007      11.41287327       9.66726875
C       21.57287216      23.66055489      19.35683632
O       20.14923096      23.73035622      19.30321121
C       19.65735817      23.81832886      17.95264816
C       18.13837242      23.90222168      18.01788902
O       17.74620056      24.11534882      16.65981102
C       16.38543510      24.53002930      16.50849724
C       16.23751259      25.09036827      15.08617496
O       14.86752892      25.43323326      14.84256554
C       14.00324154      24.39699173      14.36920929
H       22.02250481      24.60867882      19.01714897
H       21.84580231      23.45248795      20.40045166
H       21.94843674      22.83949089      18.72076988
H       19.97308159      22.94249153      17.35700989
H       20.03797722      24.71939659      17.45182991
H       17.78153419      24.71386337      18.68350029
H       17.69278526      22.96808624      18.40397072
H       16.09144020      25.29036140      17.26251411
H       15.69523048      23.67868423      16.63289642
H       16.81250000      26.02825356      15.00601101
H       16.60976982      24.37415123      14.33240604
H       13.87735653      23.58109665      15.10548973
H       14.37397385      23.95886612      13.43045521
H       13.01776886      24.85232925      14.19575691
C        7.53575611       5.45815325      15.26465130
O        8.52932835       6.07022047      16.07151794
C        8.78864574       5.48172140      17.36705208
C        9.67097092       6.52383280      18.04560280
O        9.95076561       6.11821699      19.40202713
C       10.76331043       7.14227104      20.01422691
C       11.13871956       6.65710402      21.41123962
O       11.79505920       7.72412443      22.12192535
C       13.20891571       7.76243258      21.87689018
H        6.56466150       5.41639566      15.78292370
H        7.41846752       6.07052469      14.36300468
H        7.81720352       4.43345022      14.97186852
H        9.31309891       4.51837540      17.25825882
H        7.85121393       5.30768442      17.92174721
H        9.15117741       7.49927187      18.04089546
H       10.61336231       6.63474703      17.48140907
H       10.19945908       8.08861637      20.08025742
H       11.66429996       7.31731033      19.40138626
H       10.23020840       6.39717484      21.98036194
H       11.75544357       5.74257374      21.35507965
H       13.42336178       7.94277143      20.80664635
H       13.67912292       6.81269455      22.18490028
H       13.61879539       8.58243847      22.48662567
C       23.32798386      10.08162975       6.05704212
O       23.05862236      11.23672962       5.25455379
C       21.70366859      11.28202820       4.80857182
C       21.61573029      12.50268459       3.91537714
O       20.27478600      12.56088543       3.41008091
C       20.13514900      13.70692921       2.57648492
C       18.77141571      13.58175945       1.87903762
O       18.75314140      14.27850819       0.61567813
C       18.75664139      15.71790314       0.78137982
H       23.03451729       9.16248512       5.52074194
H       24.40346909      10.05595398       6.27049303
H       22.76947212      10.11950970       7.00410128
H       20.99839783      11.36207867       5.65414810
H       21.42230988      10.38023853       4.24157572
H       22.33761787      12.40320206       3.07859659
H       21.88669014      13.41530895       4.47781420
H       20.92977142      13.72468090       1.79864538
H       20.22848701      14.63485146       3.17137575
H       18.57719421      12.52823257       1.63336754
H       17.94346809      13.96323109       2.49576855
H       19.65463829      16.06145859       1.31604671
H       17.85752487      16.02419281       1.33943200
H       18.72640800      16.12787056      -0.23642950
C       12.42504025       3.74352002      24.27484894
O       12.23178387       3.31975341      22.93121719
C       10.87123680       2.99594808      22.59358215
C       10.87017059       2.65348601      21.10809135
O        9.55301094       2.16342974      20.82660103
C        9.36723137       1.90378058      19.42844772
C        7.97343445       1.27472866      19.34060287
O        7.73381901       0.69885463      18.05242729
C        7.29137230       1.60501969      17.05271339
H       12.13723183       2.95861530      24.99980545
H       13.48523998       3.99373317      24.43634033
H       11.81687737       4.63958359      24.50074768
H       10.19631863       3.84931755      22.78314209
H       10.50904942       2.14581656      23.19193649
H       11.63409424       1.89519274      20.86734390
H       11.07868481       3.56825233      20.52755165
H       10.10928631       1.19792366      19.01132774
H        9.37762260       2.84773588      18.86155701
H        7.90746164       0.45999590      20.07538414
H        7.19885921       2.01431870      19.60362816
H        8.06670761       2.33099651      16.77832031
H        6.39531898       2.13906813      17.40559769
H        7.02225161       1.00239480      16.17478371
C       12.30574417      32.54196548      27.94254684
O       13.63909721      32.47109222      27.44861031
C       13.72941589      32.82568359      26.04642868
C       15.22318268      32.91593933      25.74385834
O       15.31440067      33.31094360      24.36831093
C       16.65270615      33.20333481      23.86466026
C       16.66230392      33.82900620      22.45923615
O       17.94475174      33.55610275      21.85446930
C       18.85948181      34.66690063      21.85446358
H       11.67790794      31.74259949      27.52277374
H       12.31372356      32.42301559      29.03318596
H       11.84586239      33.50968933      27.67507172
H       13.20160770      33.77890396      25.87094688
H       13.24690914      32.06024551      25.41990662
H       15.70615387      31.93533134      25.91271973
H       15.69833755      33.67228699      26.39494896
H       16.93211174      32.13776779      23.77352333
H       17.36784935      33.71726608      24.53238487
H       15.90585995      33.33784103      21.82470131
H       16.41249847      34.90405273      22.50711441
H       19.13010979      34.97307205      22.87530899
H       18.40811348      35.52477264      21.32959175
H       19.76402473      34.33258057      21.32766151
C       37.16342926      14.58450699      11.93094921
O       36.22297668      15.49798107      11.38336754
C       36.49844360      16.84679985      11.83199692
C       35.45627975      17.73467445      11.16808224
O       35.63709259      18.99884224      11.80801201
C       35.12699127      20.09208488      11.03522205
C       35.23122787      21.32130623      11.95021343
O       34.40652466      22.37166595      11.41210365
C       35.07258987      22.99184799      10.29351425
H       37.09189224      14.54605961      13.03460407
H       36.90853500      13.58975601      11.53758430
H       38.20183563      14.84544182      11.66678810
H       37.52362442      17.13696289      11.54298496
H       36.43509674      16.92269325      12.93268681
H       34.42793655      17.35138702      11.32713890
H       35.61286926      17.76923561      10.07181168
H       34.07141876      19.92060280      10.75316525
H       35.68539429      20.20369530      10.08737755
H       34.80424118      21.08158684      12.94082260
H       36.26959229      21.66599274      12.08612061
H       35.26108551      22.30310249       9.46023273
H       36.02331161      23.45197678      10.60172939
H       34.39962387      23.77475357       9.91983986
C        6.64401007      28.92854118      14.88093567
O        5.85265398      29.85403252      14.13871765
C        6.60343456      31.04568100      13.93750477
C        5.73085833      32.00667572      13.13802242
O        6.51652384      33.20116425      13.14231300
C        5.89175653      34.28810501      12.44974327
C        6.97432184      35.37033463      12.30988216
O        6.44619846      36.44477463      11.53295040
C        6.45978928      36.22248840      10.12527657
H        6.92959261      29.32408714      15.86657047
H        6.03691149      28.02584267      15.01903343
H        7.56797457      28.66516304      14.34227276
H        7.54062891      30.83238220      13.38120747
H        6.88270092      31.50832939      14.90311337
H        4.75432539      32.17134476      13.62471008
H        5.55159378      31.64857483      12.10839844
H        5.03151274      34.65981674      13.03013706
H        5.53729486      33.94459152      11.46057987
H        7.26650476      35.77043152      13.29153538
H        7.87358618      34.93521500      11.83527565
H        5.73319530      35.45547104       9.81732273
H        7.45733356      35.92134857       9.77820301
H        6.18500710      37.17919540       9.66269588
C       27.94222450      24.61325455      25.33588600
O       28.79597855      25.74917030      25.23213577
C       29.41898918      25.79193687      23.93003654
C       30.63222122      26.67843246      24.11312294
O       31.54673576      26.33363914      23.06422615
C       32.71915436      27.13554382      23.26572800
C       33.73041153      26.81897736      22.15171242
O       34.81427002      27.74298286      22.25037384
C       34.44720840      29.09927177      21.95172691
H       28.42198753      23.68546104      24.97992897
H       27.67173004      24.47344589      26.39149284
H       27.01022339      24.76655006      24.75248146
H       28.70340157      26.16189575      23.17378616
H       29.73870659      24.78891563      23.59615898
H       31.07111549      26.50271797      25.11260986
H       30.34907913      27.75119400      24.06656265
H       33.14442062      26.94076538      24.26614952
H       32.41109085      28.19631386      23.23671913
H       34.15878677      25.81347466      22.28547096
H       33.24446106      26.86783409      21.16169930
H       33.67195511      29.49205589      22.62697983
H       34.06386948      29.18196678      20.92260551
H       35.34310150      29.70898628      22.09828568
C       32.73410797      16.60939407      25.43773460
O       32.81127930      15.62452221      26.45622444
C       34.13743973      15.56718445      26.98016167
C       34.09076691      14.45582962      28.02310371
O       35.37144470      14.34392452      28.62405396
C       35.37297440      13.28689766      29.58684349
C       36.72213745      13.34905052      30.30571365
O       36.83275986      12.20321751      31.17223930
C       36.29353714      12.35554504      32.47654343
H       33.40086365      16.36998558      24.59453392
H       31.69688797      16.60354996      25.07083893
H       32.96628189      17.60409737      25.84120369
H       34.42302704      16.52595139      27.45256805
H       34.87235260      15.32629871      26.19026566
H       33.77709579      13.51874352      27.52630424
H       33.31269073      14.69579506      28.77381516
H       35.24881744      12.30679417      29.09392929
H       34.54781342      13.40529919      30.31583405
H       37.54677963      13.29800129      29.57801437
H       36.82495880      14.28403950      30.88344955
H       35.19015503      12.44560528      32.45087814
H       36.70360184      13.23276711      33.01045990
H       36.54005814      11.44279385      33.03897095
C       24.98021698       7.74759722      23.13997269
O       25.78045654       7.29367685      24.21364594
C       26.18182182       8.41137505      25.02752495
C       26.89311600       7.89912081      26.26922226
O       27.23126602       9.09011936      26.98160362
C       28.09683037       8.91819668      28.11249924
C       28.15981483      10.33443069      28.69656944
O       28.91763687      10.42935085      29.90712166
C       28.20044899      10.14407539      31.11315155
H       25.55523682       8.40266514      22.45829010
H       24.60321999       6.87814903      22.57909203
H       24.09177017       8.29846191      23.49987984
H       25.30485153       9.00976181      25.33186531
H       26.84382629       9.09012413      24.46351814
H       27.78182983       7.29297256      26.01696396
H       26.20990562       7.27833652      26.87776566
H       29.08729362       8.55684566      27.78251457
H       27.66401291       8.20644379      28.84134483
H       28.61816216      10.99844074      27.94501686
H       27.13209915      10.69335556      28.86120987
H       27.64985085       9.18680000      31.04749298
H       27.45164299      10.92281818      31.35017204
H       28.92149734      10.06766796      31.94089890
C       12.67317200      32.37144852      20.69307137
O       12.58474922      31.23758316      21.55858803
C       13.89379311      31.03119087      22.12105751
C       13.88723755      29.90856934      23.15219498
O       15.18212891      30.00832367      23.76267433
C       15.41352844      29.12508011      24.86491013
C       16.89856148      29.32945442      25.22248459
O       17.25766945      28.84932709      26.53772163
C       16.83067894      29.67084694      27.63480949
H       13.34806824      32.19035721      19.84046364
H       11.66737843      32.58464813      20.30070114
H       13.04164505      33.24782944      21.24660110
H       14.25416756      31.95115471      22.61088753
H       14.61076832      30.78697586      21.31294441
H       13.74349022      28.91906166      22.67658234
H       13.06894016      30.01401138      23.89569664
H       15.22329521      28.08728218      24.55379677
H       14.72634983      29.34770012      25.70174980
H       17.50928879      28.75634766      24.50821304
H       17.18202400      30.38828659      25.11950874
H       15.76430988      29.93433952      27.54914856
H       17.41914368      30.59658813      27.70690536
H       16.93211555      29.09438896      28.56682777
C       16.20615578      36.76470184      35.30090714
O       17.42600060      37.46229935      35.15794373
C       18.53127289      36.58079529      34.93577194
C       19.76767349      37.43484116      35.16447449
O       20.89247894      36.57352829      35.07693863
C       22.09140778      37.27265167      35.39117050
C       23.21287918      36.22634125      35.50797653
O       24.46891212      36.91667557      35.54404449
C       25.14435959      36.94973373      34.27181244
H       16.26048851      36.02871323      36.11788177
H       15.42898273      37.49655533      35.55841827
H       15.90880108      36.23957062      34.37779236
H       18.51257324      36.14810181      33.91614914
H       18.51902580      35.74854279      35.65787888
H       19.71789932      37.91445923      36.16193390
H       19.80964088      38.22542572      34.39980316
H       21.97869492      37.84486771      36.33000565
H       22.34721756      37.96925735      34.57818985
H       23.11343956      35.67051697      36.45306015
H       23.15085411      35.50745010      34.67299652
H       24.50748062      37.36012650      33.47234726
H       25.46261406      35.94308090      33.96707535
H       26.03581429      37.57792664      34.39752960
C        1.51051331       8.81445122      17.36428833
O        1.13306749       8.03072166      18.48445892
C        2.15260553       7.95354795      19.48281860
C        1.49028957       7.20354843      20.63030052
O        2.45493197       7.13648176      21.67268181
C        2.04373240       6.32842779      22.77990341
C        3.20551515       6.45897961      23.77140617
O        3.05407238       5.52680731      24.85699463
C        2.21736908       6.01062727      25.91294479
H        2.31974530       8.34509563      16.77848434
H        0.63394278       8.93344879      16.71579933
H        1.85870755       9.80940437      17.68734169
H        2.47492242       8.95226669      19.82755089
H        3.04645443       7.41415071      19.12140656
H        1.20343494       6.19915724      20.28324699
H        0.56887102       7.72907305      20.94798660
H        1.91958201       5.28079414      22.46009254
H        1.09848118       6.69053745      23.21940994
H        4.13928318       6.18638277      23.25058174
H        3.30717731       7.49570322      24.13473320
H        1.22991705       6.32695627      25.54360771
H        2.68525791       6.85530806      26.44320107
H        2.05283809       5.19429684      26.63177490
C       21.59047890      11.51430702      11.85630417
O       21.25495529      10.57568455      12.87402439
C       20.55663872      11.16567802      13.98814583
C       20.45922470      10.04205608      14.99804592
O       19.98864937      10.58576107      16.24179649
C       19.97533798       9.57523918      17.25458527
C       19.41295242      10.27397537      18.50064278
O       19.08467674       9.33587456      19.56307602
C       17.93646049       8.51820850      19.32419968
H       22.11895752      12.38496208      12.27310085
H       22.22428894      10.98606300      11.12868690
H       20.69114494      11.87173557      11.32593918
H       19.55590057      11.52315617      13.67261982
H       21.08988571      12.04030704      14.40879345
H       21.44797707       9.55835533      15.10009193
H       19.77360916       9.25457096      14.61900234
H       20.99831390       9.19350433      17.43659019
H       19.34567451       8.72637081      16.93317413
H       20.13807297      10.96267700      18.96511459
H       18.52141762      10.87511253      18.25503349
H       17.72886086       8.34819031      18.25220490
H       17.02016258       8.96416855      19.76124001
H       18.08866501       7.53686619      19.81705284
C       17.31829834      29.49829483      14.03370762
O       16.07698059      28.98994637      14.53697300
C       15.22086239      28.72664261      13.40824223
C       13.86152458      28.33212662      13.97686958
O       13.09887123      27.86639977      12.85630798
C       11.68958187      27.71499443      13.02390003
C       11.14469624      27.21920586      11.67720795
O        9.74288845      27.54275322      11.58186150
C        8.82929611      26.46884727      11.80932522
H       17.15048981      30.40891838      13.43686676
H       17.98208427      29.71202469      14.88065815
H       17.81163406      28.75531578      13.38301086
H       15.62322330      27.91103935      12.78011990
H       15.09688950      29.61836052      12.77276611
H       13.35332680      29.18521500      14.46214676
H       13.95800972      27.54074860      14.73283577
H       11.20968342      28.67868614      13.27224731
H       11.43935299      27.01046562      13.83759594
H       11.65346050      27.77885056      10.87487507
H       11.32737255      26.14499474      11.52166176
H        8.81609249      26.13475227      12.85666943
H        9.05298710      25.58810616      11.18763447
H        7.82700253      26.82698822      11.54028893
C       22.49598312      11.13193321      21.85815048
O       22.41204262      12.50772095      22.25992012
C       23.72282028      13.12075138      22.26767921
C       23.51086044      14.54159832      22.76256561
O       24.77861595      15.01529408      23.20875359
C       24.74561882      16.40645981      23.59426308
C       26.17440414      16.73532677      24.06358147
O       26.24647713      18.04839516      24.61286163
C       25.86860847      19.08716774      23.69089317
H       23.21277428      10.59563446      22.50074768
H       21.49650002      10.68672276      21.96580124
H       22.81461143      11.04893589      20.80445862
H       24.15767479      13.07670021      21.25025368
H       24.39504242      12.57589722      22.95377159
H       22.79007339      14.57528591      23.61142159
H       23.08396149      15.16803074      21.95632553
H       23.99319267      16.59709930      24.38238525
H       24.45653152      16.99864578      22.71018028
H       26.47608185      16.04165077      24.86857605
H       26.87372208      16.61493874      23.21513939
H       24.78153992      19.09158897      23.50833702
H       26.38132095      18.97196579      22.71947289
H       26.14774132      20.03930473      24.16043282
C       31.86689377      16.52342606       9.77086735
O       32.13551712      15.92071247      11.04154968
C       32.65194702      14.59737015      10.85068417
C       32.92875290      14.02116776      12.23133087
O       33.31805420      12.66602612      11.96752453
C       33.93362427      12.00719452      13.07406330
C       34.95493317      11.06290436      12.41369820
O       35.73333359      10.46110725      13.46107578
C       37.14150620      10.33284664      13.26102638
H       31.09118080      15.97083282       9.20819569
H       31.50175476      17.54132462       9.95571899
H       32.75860596      16.57675171       9.12451363
H       33.58694458      14.61019135      10.25905418
H       31.92914200      13.96417141      10.30059528
H       32.03173447      14.06476879      12.87584114
H       33.73875046      14.57997131      12.73473549
H       33.17784500      11.45243454      13.66390419
H       34.43075180      12.71863461      13.75977612
H       34.42280197      10.28829861      11.83000469
H       35.56411362      11.64992237      11.70952702
H       37.69921494      11.12073517      13.78819752
H       37.39647293      10.36130142      12.19147968
H       37.44785309       9.34840870      13.64825153
C       13.40155888      36.58415985       9.56437492
O       12.55037689      35.70815659       8.83918571
C       11.68108845      35.02328873       9.73919392
C       10.89337158      34.07475281       8.85259247
O       10.06533051      33.35211563       9.77860260
C        9.44514751      32.21463013       9.17401886
C        8.64238071      31.63765335      10.34423828
O        8.05412865      30.39475060       9.96675301
C        6.79038382      30.44227791       9.34417820
H       13.92225170      36.04340744      10.36922169
H       14.13803482      36.99576187       8.86837578
H       12.82506466      37.40251923      10.02593899
H       11.01043415      35.72440720      10.27499676
H       12.24089622      34.45397568      10.49683189
H       11.56468868      33.39822769       8.29675579
H       10.27895451      34.61451340       8.11077404
H       10.19590950      31.48823738       8.81885242
H        8.79926205      32.49975967       8.32398033
H        9.32162189      31.44518471      11.19498444
H        7.88742018      32.35298157      10.71569157
H        6.82845211      30.71800041       8.27678680
H        6.12616396      31.15563393       9.85918522
H        6.34663010      29.44256783       9.42554188
C       26.75528145      30.20397377      30.31277657
O       26.40708542      28.82013893      30.33592606
C       25.95266724      28.41180992      29.02877808
C       25.55132103      26.95872688      29.08213043
O       25.14163399      26.64526939      27.74492264
C       24.95159912      25.25254631      27.53676605
C       24.27572250      25.14701462      26.16878891
O       23.86288452      23.80011177      25.86913109
C       24.92203712      22.90019417      25.56085014
H       25.87799835      30.83258629      30.08316994
H       27.15006828      30.50075912      31.29521751
H       27.51687622      30.39054108      29.53025627
H       26.75296402      28.53423691      28.27268219
H       25.08865738      29.02137184      28.70672798
H       24.73082352      26.79072952      29.80333519
H       26.40225220      26.33000183      29.40331459
H       24.30736923      24.81234550      28.31263733
H       25.91171646      24.70992279      27.54368401
H       23.34737206      25.74326134      26.18571854
H       24.90287971      25.53982162      25.34725571
H       25.67925644      22.86452484      26.36182022
H       25.41058922      23.17782784      24.61050797
H       24.47084045      21.89949226      25.48291588
C       28.61528969      11.32383633       3.67710352
O       29.47690392      12.06566334       4.52048874
C       30.38016891      11.21123028       5.24817371
C       31.14189148      12.14564705       6.17297792
O       32.28310776      11.45515347       6.69608688
C       33.05321884      12.30826283       7.54898787
C       34.21275711      11.45346451       8.03849030
O       35.07574081      12.30245495       8.83021164
C       36.47117996      12.25542545       8.51641655
H       28.09651375      10.50998211       4.21146297
H       27.85961533      12.00450993       3.27051282
H       29.15290070      10.87488461       2.81998134
H       31.04225159      10.68148708       4.53865623
H       29.81873322      10.45347214       5.81777287
H       30.47760582      12.49314690       6.98689318
H       31.46279526      13.03832626       5.60072374
H       32.43826294      12.71255684       8.37331104
H       33.43812180      13.16956043       6.97404480
H       33.82144928      10.63702679       8.67284203
H       34.72944260      11.00411987       7.17307615
H       36.66103363      12.70799351       7.52341700
H       36.84919739      11.21951580       8.50316715
H       37.01794815      12.82432652       9.27984810
C       27.59520721      16.43191528      11.21378708
O       27.82850838      15.14729595      11.78808212
C       28.50094604      14.29597855      10.85555553
C       28.88611794      13.04896355      11.64637280
O       29.54464340      12.18181610      10.73668766
C       29.96966934      10.94699574      11.32206440
C       30.59210587      10.11657524      10.17484379
O       30.40718842       8.70237064      10.36830521
C       30.94449234       8.30030155      11.63241863
H       26.93837738      16.35566521      10.32860279
H       27.11473274      17.06032181      11.97316742
H       28.54209900      16.89029884      10.88703728
H       29.41767502      14.76822662      10.45594788
H       27.85987282      14.02036762       9.99531460
H       27.96200943      12.58723736      12.04444981
H       29.51557541      13.32015133      12.51612377
H       29.09013939      10.40606785      11.73537636
H       30.67408180      11.12864208      12.15798187
H       30.09219170      10.36720467       9.22569752
H       31.66803169      10.35384464      10.08058453
H       30.34844589       8.64298820      12.50037479
H       31.98355865       8.65072918      11.78073597
H       30.91623497       7.20376253      11.67597103
C       13.20606422       8.23972797      10.53887081
O       13.93559933       7.10403681      10.99510098
C       14.59910583       6.42372322       9.90758896
C       15.07830143       5.10965919      10.47301674
O       15.63445473       4.38864613       9.36993599
C       16.24389648       3.16578460       9.80881691
C       16.57229614       2.37825871       8.53092003
O       16.97311211       1.03373778       8.81067181
C       18.16385841       0.93658596       9.58429718
H       12.37964249       7.93719053       9.86936283
H       12.73371983       8.73942471      11.39607048
H       13.86472702       8.94312191      10.00323391
H       15.45176315       7.01177549       9.52077293
H       13.91025257       6.22690201       9.06700516
H       14.22097874       4.57846546      10.92264366
H       15.80913544       5.27684259      11.28040123
H       15.55317593       2.60578775      10.46258831
H       17.14968491       3.39124084      10.39143658
H       15.67806530       2.29868722       7.89111567
H       17.35914230       2.89918327       7.95964718
H       18.04022598       1.32899106      10.60875797
H       19.00912857       1.45708907       9.10600281
H       18.40136147      -0.13511860       9.65468979
C       12.18704319      36.69192886      23.21815872
O       13.47702980      37.21315002      23.52995682
C       14.13017845      36.49211502      24.59216499
C       15.54466915      37.05598068      24.66294670
O       16.23799515      36.28544235      25.63930511
C       17.63013649      36.59057236      25.68099594
C       18.24101448      35.61726761      26.69421005
O       19.64157295      35.86652374      26.82086945
C       20.48414993      35.31824493      25.79532433
H       11.52175999      36.73043060      24.09666252
H       11.75032997      37.31346512      22.42945480
H       12.23868084      35.65104675      22.86867905
H       14.17812824      35.42459106      24.34731102
H       13.59209919      36.61400604      25.54834557
H       15.54031658      38.12408829      24.93485832
H       16.00498199      36.94896317      23.66146851
H       17.79859543      37.63449860      25.98897743
H       18.08657455      36.43267059      24.68573380
H       17.78611183      35.76729584      27.68595314
H       18.02247429      34.58139801      26.39862061
H       20.31861687      35.81233597      24.82604790
H       20.32665062      34.23703766      25.67051506
H       21.51684189      35.48067856      26.13371086
C       29.98949432       4.63910198      19.62700844
O       29.24604988       5.49883986      18.79836082
C       29.22387505       6.85701370      19.29361343
C       28.38958549       7.62127542      18.27845001
O       28.36425591       8.93521023      18.79967117
C       27.84667969       9.88195801      17.87936783
C       28.33238029      11.24692345      18.35860062
O       27.71000671      12.25578880      17.54220200
C       28.43313789      12.54804707      16.34830856
H       29.55814362       4.56474495      20.64364052
H       29.94914436       3.63747525      19.17817497
H       31.03902054       4.96300936      19.72406578
H       30.23805618       7.27126503      19.37848282
H       28.76075363       6.90378761      20.29383469
H       27.37476540       7.18489027      18.16951752
H       28.87143135       7.56940269      17.28149605
H       26.74187851       9.86282539      17.88712883
H       28.16127586       9.66759014      16.83509254
H       28.01568031      11.43810940      19.39725876
H       29.43052483      11.31710148      18.33321571
H       28.46178246      11.68946362      15.66085052
H       29.46550941      12.85903931      16.57583618
H       27.89003372      13.36348343      15.85113430
C       30.68531036      18.45883560      31.88658714
O       29.38954544      18.75716209      32.40916443
C       28.36432076      18.03903961      31.71587753
C       27.05506325      18.43199348      32.38267899
O       26.02089310      17.77819061      31.63161278
C       24.73532295      18.05175781      32.22534943
C       23.70341110      17.44601250      31.27526093
O       22.36247253      17.79745293      31.70171547
C       21.80400658      17.02497864      32.76736450
H       30.75844193      18.73038292      30.82174301
H       31.41502380      19.03976822      32.46535110
H       30.92649269      17.38455582      31.97220993
H       28.51981544      16.94723701      31.76865959
H       28.32817268      18.31724739      30.64742661
H       26.90875626      19.52550888      32.36400986
H       27.02794647      18.13054657      33.44651413
H       24.55254364      19.13817978      32.30748749
H       24.66306686      17.61489868      33.23875046
H       23.81111908      17.89306831      30.26963615
H       23.82401848      16.35012436      31.18651199
H       22.36401176      17.08692360      33.71979904
H       21.72928238      15.95384312      32.47879410
H       20.78326416      17.39371109      32.95026779
C       11.35210419      17.26246643      36.90742493
O       11.68900204      16.14982033      37.71947861
C       11.79523373      14.98158836      36.90987778
C       12.14870167      13.80718613      37.80929947
O       12.14927101      12.69743443      36.92353058
C       12.73028088      11.49400520      37.41564941
C       13.11815834      10.71293259      36.14511871
O       13.62765789       9.41555119      36.46554947
C       14.87505436       9.42383099      37.13815689
H       10.38186264      17.11038017      36.40416718
H       11.27507401      18.14052391      37.56410217
H       12.10482121      17.42959023      36.11727905
H       12.58000660      15.07273293      36.13551331
H       10.85329628      14.77640247      36.36694336
H       11.42039776      13.69455338      38.63055038
H       13.14432335      13.97355080      38.26567459
H       12.00231647      10.92882633      38.02490997
H       13.61168385      11.70950413      38.04695511
H       12.22735405      10.55384541      35.51686478
H       13.83536148      11.29431152      35.53764725
H       14.84151363       9.85164452      38.15320206
H       15.63723087       9.95752335      36.53997421
H       15.19693851       8.37550068      37.23538589
C        7.87466574      12.96635342      27.77096748
O        8.76326561      13.79995155      27.03035736
C        9.16889763      14.95191860      27.79221535
C       10.22591972      15.60608196      26.93029976
O       10.71869469      16.75007057      27.63620567
C       11.62478256      17.42307091      26.74272537
C       12.37673569      18.47573280      27.55949020
O       13.56270313      18.87206078      26.82198524
C       14.64254665      17.93701172      26.73707008
H        6.87492228      13.41071129      27.92259598
H        7.72792816      12.03249073      27.20516396
H        8.29112053      12.76051235      28.77652931
H        9.55856037      14.66711807      28.78793335
H        8.31443787      15.62626266      27.96375465
H        9.78949642      15.87189579      25.94319344
H       11.03820801      14.88290405      26.72646523
H       11.06027222      17.86443329      25.89285278
H       12.33164024      16.69516182      26.29378510
H       11.76434231      19.38820076      27.66074181
H       12.61344814      18.12023544      28.57389069
H       14.32692623      16.98262596      26.27146530
H       15.08390141      17.72730827      27.72209930
H       15.39210701      18.40526390      26.07830238
C       35.13661194      21.93152428      33.09730911
O       34.30567932      21.59074593      32.00611115
C       34.07501984      22.69956398      31.11875916
C       33.16190720      22.13955307      30.02617264
O       32.81062698      23.22937012      29.16878128
C       31.98724174      22.73447418      28.09480476
C       31.46956825      23.88473701      27.22321129
O       30.82717323      23.32030678      26.06447983
C       31.68003654      23.02490234      24.94171143
H       34.64699936      22.64137840      33.78922272
H       35.34865570      21.01387787      33.67142105
H       36.08634567      22.38822937      32.77222824
H       35.02121735      23.07487297      30.69613075
H       33.59407425      23.54019356      31.65554619
H       32.25238419      21.70079231      30.47847176
H       33.67124176      21.34183121      29.45001984
H       31.10545731      22.19400215      28.48639107
H       32.55261993      22.02443886      27.46636009
H       30.68891335      24.46245003      27.75222206
H       32.27928925      24.58266830      26.94056702
H       32.48206329      22.31783295      25.18826675
H       32.11537552      23.94244957      24.52354240
H       31.03645706      22.54559708      24.18699455
C       17.47692299      15.56950378      34.93639374
O       16.45480347      15.33871937      33.95112610
C       15.49572372      14.31865692      34.33312607
C       14.24844170      14.62192631      33.50808334
O       13.23690224      13.66520691      33.78664017
C       12.07361221      14.02598572      33.03118896
C       10.94261456      13.04850483      33.30039978
O        9.82056999      13.51544476      32.51795197
C        8.59821987      13.71747875      33.20196152
H       18.02793312      14.62715626      35.13025284
H       18.17197800      16.33547783      34.55232239
H       17.05277824      15.90886688      35.89590454
H       15.28713417      14.38053322      35.42026520
H       15.89831543      13.31624317      34.12845993
H       14.49061584      14.58093452      32.42944717
H       13.88449192      15.64182472      33.73578644
H       12.28330135      14.01805496      31.94434929
H       11.72627068      15.04640388      33.30784607
H       11.21434021      12.03864479      32.96096039
H       10.68959427      13.00129509      34.37081146
H        8.62582779      14.59572315      33.87016296
H        8.29324341      12.83524799      33.78932571
H        7.81840897      13.90517616      32.45310593
C       12.79307365       3.40326953       6.88043547
O       13.33931351       4.71592760       6.88897085
C       14.09232426       5.05380344       5.69862032
C       14.99903679       6.16652775       6.20399380
O       15.85394287       6.52637196       5.12495518
C       16.64561081       7.64906120       5.52276802
C       17.74184608       7.80194139       4.45907831
O       18.62239647       8.87110901       4.84454489
C       18.01246452      10.16948986       4.76019430
H       13.48065472       2.68122244       6.41486120
H       12.63307285       3.12102008       7.93085766
H       11.82584476       3.36403608       6.35044289
H       13.41356373       5.38366985       4.89070034
H       14.67287445       4.19906425       5.31581831
H       15.56585217       5.79313612       7.07857752
H       14.39052677       7.02204752       6.56577539
H       17.10586166       7.47782421       6.51627827
H       16.01615906       8.55185699       5.61402130
H       18.34945869       6.88593054       4.44334888
H       17.31296539       7.95556021       3.45409203
H       17.20034218      10.31256294       5.48679018
H       17.59998512      10.32259750       3.74759698
H       18.79364586      10.91403008       4.96011925
