1242
Lattice="28.25 0.0 0.0 0.0 28.25 0.0 0.0 0.0 28.25" Properties=species:S:1:pos:R:3 pbc="T T T"
Na       5.23643780      20.50376892      25.67479324
Na      16.09892464       1.75242448       1.90910327
Na      13.56264114      16.25698853       6.56869745
Na       6.57995081       6.21462440      27.41191101
Na      12.49977589       1.04257739      14.21489429
Na       5.52290487       5.37069035       8.93498993
Na      18.18892097      13.27837181      22.58405685
Na       6.69367456      17.69490242      20.77456093
Na      28.16111755       7.51558495       8.92469597
Na       1.94601285      29.03006363      12.77235794
Na      22.94579124      15.38036156       0.31409037
Na      19.68851471      17.28113747      13.79483128
Na       7.57431269      16.73428535      24.97927475
Na       8.45562267      18.66979408      16.36587524
Na      16.23411179       9.39526749       3.89872503
Na      14.90389919      24.70876122      12.40513039
Na      13.11985779       5.29189348      15.63514900
Na      11.50756836      14.81459999      23.55077744
Na      12.48660374      22.83732796       8.14009666
Na       8.98700237      12.49054146       6.56371307
Na       9.77750301      19.50217438       4.24742508
Na      -0.91991949      25.52282524      11.77190208
Na      18.96438408       8.80806351      23.23110008
Na       6.03932667       9.46783161       6.21070337
Na      22.33490944      15.40914154       4.07620525
Na      20.28716087      15.39498329      25.55661583
Na      24.90025711      27.23562241       4.50251341
Na      19.44873047      27.26001549      13.97705078
Na      10.20615101      28.67150116      24.30130196
Na      18.22636986      15.36264896      19.13477135
Na      11.66961956      19.03937912      28.24303055
Na      14.44375420      22.15730286       1.52080202
Na      24.29083061       6.47184420      13.23363209
Na       9.73461723       3.50087810      11.21549416
Na      25.64889717      11.52157784      26.56690407
Na       1.89057374       7.88431454       2.05700064
Na      22.59276009      25.01678658      24.34514046
Na      24.22457695      10.87415695       7.90831661
Na      13.32960606      26.86274719       8.15132904
Na       3.92480850      13.40850258      25.24329758
Na      20.59774971       1.81312144       9.44720268
Na      20.36783981      20.52666092      17.85697937
Na       4.29607439       4.08518171       5.73407841
Na      14.25790310      10.30998135      25.48704910
Na      20.05593872       6.98055506      17.29049301
Na      28.28527832       8.37077808      14.88486671
O       12.61162853      21.87883186      25.43945312
S       13.43413258      21.02014160      26.30188560
O       13.13160610      21.12051392      27.75876808
O       13.61431694      19.63566971      25.84639740
C       15.13397408      21.73729134      26.19717979
F       16.01384544      20.99354172      26.94035912
F       15.51439953      21.71312714      24.90551186
F       15.13107681      23.00427055      26.68415070
O       12.84663773      14.48126030       9.12133503
S       13.39292431      13.38929272       9.95282269
O       14.85002041      13.23618793       9.85123158
O       12.82006264      13.28572369      11.29403496
C       12.78207779      11.88358974       9.06263256
F       13.19802189      10.76284790       9.69390106
F       11.39959431      11.91020489       9.02065754
F       13.23421574      11.85587788       7.78234053
O       20.40939522      25.15482521      20.61730003
S       19.55346107      25.58444595      19.49527168
O       18.35238266      24.74153519      19.30049133
O       19.41661835      27.01220322      19.25989914
C       20.59514809      25.03969765      18.05248451
F       19.92418289      25.23479843      16.87840080
F       21.75590134      25.75068474      18.00695229
F       20.93086052      23.71110153      18.11718178
O       12.65340233      16.98665047      21.42500496
S       11.71709633      17.07440567      20.30521011
O       11.72876167      18.36554909      19.59591866
O       11.52986908      15.86483002      19.50539970
C        9.98362350      17.17900848      21.16341782
F        9.01270008      17.02613831      20.19449043
F        9.82662678      16.17757225      22.09052467
F        9.82146454      18.36679077      21.80190659
O       11.55449772       4.08036280       4.06131983
S       11.87009525       2.93020272       4.91700983
O       11.83737087       3.23142290       6.36658573
O       11.28165722       1.64997566       4.53936863
C       13.70097065       2.70066667       4.51871014
F       14.37550068       2.01224875       5.46073341
F       13.85115719       2.02341032       3.31555533
F       14.29386711       3.90302491       4.39222956
O       17.72659874      18.94455910      10.35901165
S       16.58508110      18.07074547      10.08470535
O       16.09197235      17.32633781      11.26723099
O       15.51560783      18.67300987       9.26472378
C       17.24161911      16.76247215       8.92714596
F       16.24957848      15.88914967       8.62054253
F       17.66300201      17.35469055       7.77399635
F       18.27202034      16.07620811       9.45102978
O       15.60542870       9.98994255      22.45472336
S       14.88673306       8.79349041      21.91996765
O       15.67851353       7.56981134      22.09294891
O       13.48640919       8.70576572      22.30991554
C       14.83129883       9.06573296      20.08681107
F       13.78666973       8.40751362      19.51510429
F       14.66895485      10.39686489      19.86360741
F       15.97467899       8.66775227      19.49366760
O       13.04843807       6.37537479      13.33152294
S       12.48417759       5.76758575      12.11997318
O       13.43220329       5.47410536      11.04886913
O       11.44725609       4.72992325      12.34837437
C       11.44554043       7.16032648      11.39733219
F       10.90954018       6.72510386      10.21108437
F       10.45409584       7.52059078      12.24260616
F       12.24362183       8.22093010      11.14394760
O       18.84692001       9.28166962      18.75263405
S       19.23695946      10.08387852      19.91369629
O       18.56027794       9.79682922      21.19056511
O       20.67800713      10.37541389      20.00713348
C       18.49273109      11.75020313      19.55932045
F       19.04645920      12.67659283      20.44416046
F       18.77616882      12.12531662      18.31312370
F       17.16484070      11.71961498      19.78087997
O        2.35846376      15.12872887       8.58318901
S        3.39221263      14.08147430       8.64944839
O        3.49146533      13.36686516       9.94020748
O        3.48443556      13.22797012       7.45599031
C        4.99611759      15.03973866       8.63120842
F        6.05197096      14.19359589       8.50505066
F        4.99879026      15.90681553       7.57763481
F        5.14184046      15.77306557       9.77711010
O       28.20058250       4.84135580      10.87884426
S       26.75387383       4.75605345      10.72297287
O       25.98646355       5.81127882      11.41879272
O       26.23219109       4.42813444       9.38502789
C       26.32334518       3.15013671      11.71438980
F       25.01438332       2.88011813      11.55704308
F       27.06525421       2.13131452      11.22459602
F       26.62373543       3.34037042      13.01558876
O        5.90635061      24.87063980      24.22378349
S        6.85519600      23.75759125      24.05918503
O        7.29702473      23.12711525      25.32601166
O        6.57636023      22.77085304      22.98996925
C        8.44006824      24.57403755      23.45167160
F        9.42423153      23.67571259      23.25248146
F        8.17658329      25.21886444      22.28679276
F        8.86812592      25.47527313      24.38621140
O       13.90380287      24.03593063       9.64270306
S       15.34360313      24.13873863       9.23793888
O       15.59589863      24.92121124       8.01632404
O       16.23126984      24.51852226      10.36585426
C       15.86352348      22.37470245       8.83392429
F       17.18615913      22.30775833       8.64062691
F       15.49301624      21.61728668       9.88279629
F       15.22538471      21.99049759       7.69950867
O       22.45776176      20.52125740      12.10023022
S       22.33613777      19.82723999      13.38808346
O       21.36422920      20.42461967      14.32966232
O       22.24034119      18.35458946      13.23286915
C       23.96472931      20.07155609      14.29650116
F       23.80428696      19.81254387      15.61927986
F       24.88602829      19.23001671      13.78704453
F       24.38301659      21.34128380      14.13593388
O       23.60231972      14.03088570       7.50110483
S       23.66469765      15.27362061       8.31894588
O       22.52426910      15.42078972       9.24081421
O       24.97943687      15.58666134       8.87236977
C       23.48351288      16.62473106       6.99494267
F       23.60456085      17.83849716       7.55156755
F       24.47052574      16.42018890       6.08338833
F       22.27600670      16.51616287       6.37163687
O       10.54656315       9.66553879      21.49465942
S       10.88761044      11.07237148      21.66285515
O       12.18333721      11.49447727      21.12362862
O        9.80303383      12.04023933      21.49594688
C       11.27259254      11.15987682      23.56889153
F       11.13951969      12.41154766      24.13111687
F       10.48325443      10.32204437      24.27324295
F       12.58251572      10.80788898      23.78371811
O        2.34392691       7.11500549       9.45232868
S        3.19221854       8.25357914       9.87299633
O        2.57666063       9.15192318      10.86737347
O        4.61217880       7.96399307      10.10195255
C        3.21907878       9.30003929       8.35496998
F        3.95381021      10.39312267       8.63133621
F        3.77340603       8.64938927       7.28788710
F        1.93913770       9.64300251       8.06399727
O       17.86215210      17.30820656      23.40365410
S       18.60715294      17.34018135      22.13158226
O       18.48311996      16.07143211      21.37964821
O       18.53266144      18.56713295      21.34593010
C       20.43341255      17.37384224      22.59714508
F       21.17217255      17.65905952      21.49589729
F       20.64589310      18.32876587      23.53005981
F       20.90445709      16.18343544      23.08707237
O        3.18885016       3.89638424      22.46581268
S        3.82725883       3.58424306      21.17043495
O        2.95163083       3.71005344      20.00023079
O        5.18851519       4.10555649      21.03799629
C        4.12364244       1.73358297      21.30966568
F        4.91220856       1.27109659      20.30526161
F        4.73030567       1.44103599      22.49590302
F        2.92604065       1.05725026      21.26078606
O       16.66757393      13.44458580      16.42205048
S       16.53396797      12.16955471      15.65582275
O       17.40952110      12.10041523      14.47975254
O       16.46121407      10.94846058      16.47845459
C       14.76822567      12.26292610      14.99128628
F       14.52707100      11.13935661      14.25726509
F       13.91594505      12.35094738      16.04197693
F       14.63729668      13.34934711      14.19148350
O       17.18822670      26.82954597      25.48347664
S       17.46388054      26.41677666      24.09032059
O       16.26259041      26.18513870      23.27794456
O       18.60323715      27.08494377      23.47154427
C       18.17439651      24.69525146      24.28040886
F       18.56131935      24.22175026      23.07546234
F       19.29954147      24.71866608      25.09947205
F       17.25436783      23.87324333      24.84432220
O       17.06362724       5.83839607      18.51842499
S       16.01682281       5.17469120      19.31489944
O       16.44141769       4.80587816      20.66769600
O       14.67602253       5.74255371      19.13751411
C       15.86340237       3.54175401      18.51625633
F       14.89593983       2.81729412      19.14957047
F       15.48373508       3.69726849      17.20578766
F       17.03534889       2.88384128      18.53678513
O        8.23920250      17.28833389       3.63661957
S        8.59766674      17.21802521       2.20038390
O        7.52094507      16.87679863       1.25837338
O        9.38544655      18.39759445       1.75914884
C        9.75911236      15.73114491       2.14351678
F       10.14658451      15.50059414       0.87908971
F       10.83833408      16.01088905       2.91381240
F        9.13593483      14.64683342       2.63978148
O       14.57010174      10.94560909       2.79441190
S       13.86172104      11.27740288       4.04835415
O       14.72161293      11.31022072       5.23321247
O       12.83429146      12.33686638       3.94127154
C       12.87143803       9.70033073       4.23102760
F       12.17388535       9.74071884       5.38469315
F       12.06252861       9.56024361       3.16288471
F       13.75717831       8.65632534       4.24182081
O        8.23738575      24.15951920      16.22827911
S        7.07243156      24.38608932      15.36181259
O        6.16096449      23.23964119      15.16222382
O        6.46309328      25.71976471      15.44279289
C        7.95532703      24.45420265      13.65270138
F        7.05650616      24.66936874      12.63794708
F        8.86021042      25.47414017      13.66413879
F        8.61103249      23.29340363      13.37615585
O        8.25880623      13.33487320      23.52999878
S        7.67332220      13.39520264      24.87255096
O        8.65152740      13.38334465      25.97040367
O        6.54234362      14.33713341      25.01699448
C        6.78375959      11.70707607      25.05714035
F        6.12878847      11.67940903      26.24422073
F        5.90079021      11.56425381      24.03342056
F        7.69159985      10.71903515      24.99946785
O       23.28340530      18.95906639      25.28572083
S       23.49692535      18.21021271      26.53115654
O       22.52672195      18.54739761      27.61563873
O       23.69278717      16.75378609      26.35829163
C       25.16741371      18.83329964      27.17123032
F       25.52173996      18.19146919      28.30266762
F       26.09478188      18.60001183      26.22585106
F       25.10303307      20.16769028      27.43181992
O       13.69239235       2.69527054      12.83392429
S       14.97875977       2.83990240      13.55395699
O       15.54439831       4.18284178      13.62837029
O       15.01785469       2.01740861      14.77979183
C       16.18437958       1.99068046      12.41893578
F       17.44882202       2.21568704      12.82306576
F       15.97818470       0.62827587      12.38918400
F       16.01906586       2.49142456      11.18164921
O       26.04832268      22.86612892      21.57264900
S       24.66019249      23.27408218      21.34794044
O       24.01142883      22.78799057      20.12644958
O       23.82014275      23.24955177      22.58650589
C       24.73561096      25.13250732      21.08656120
F       23.47576714      25.62119675      20.98741722
F       25.36289597      25.76428795      22.12924004
F       25.43540764      25.42016792      19.94552994
O       14.91683102      18.25131798      16.00982285
S       15.19831848      18.15326881      17.45667648
O       14.93191147      19.35814095      18.24018860
O       14.80077553      16.87638664      18.07715034
C       17.05621719      18.01083755      17.44681931
F       17.55693626      17.91041183      18.70873451
F       17.44015694      16.91457748      16.73373222
F       17.60964966      19.11362076      16.86841583
O       16.91702843      12.95999813       3.87405562
S       17.83858299      12.23864937       4.74241114
O       17.80074883      12.58986855       6.17200041
O       18.01103020      10.78355026       4.49531984
C       19.54730034      12.80237007       4.14053297
F       20.54679108      12.42209053       4.98720360
F       19.81960487      12.29854870       2.91481996
F       19.54913521      14.16279697       4.06864738
O        5.50439358      11.66749954      14.26864529
S        5.56420565      11.99431133      15.70445824
O        6.51733828      13.04950237      16.10321999
O        4.25011206      12.08163261      16.38399506
C        6.35306549      10.43556881      16.43181038
F        6.59432173      10.59919071      17.76044655
F        5.51920795       9.38056850      16.22726440
F        7.51881170      10.18478966      15.78747272
O       17.90193939       2.57702613      15.54295158
S       18.85184097       3.57288647      16.02576256
O       18.41105843       4.96312761      16.11566544
O       19.74079895       3.08385730      17.09569740
C       20.05315018       3.71100616      14.63147354
F       21.06952858       4.54964161      15.00476646
F       20.61032104       2.50664568      14.25050163
F       19.45030022       4.24967813      13.53965473
O       12.29860401      25.09375572       2.46146703
S       13.15332127      25.24036217       3.63979459
O       12.99882030      26.52393532       4.32547951
O       13.31720638      24.06029701       4.50123882
C       14.89301300      25.37151527       2.88787627
F       15.82747173      25.66430664       3.82764244
F       15.27817917      24.19707680       2.29741383
F       14.92648697      26.33921051       1.93362451
O        2.50653505       4.71547079      15.96545696
S        2.93017793       5.94006538      15.26260090
O        1.96354520       7.05582571      15.40112114
O        4.32936478       6.34955263      15.34094238
C        2.72942281       5.40423918      13.47870350
F        2.92058802       6.44785643      12.64717770
F        3.62705564       4.44188309      13.14349174
F        1.47337270       4.91772270      13.31448364
O        3.77791166      20.43864822       3.44040513
S        3.43115807      20.73553848       2.03628421
O        3.44011307      22.17539024       1.69213629
O        4.06388092      19.83334160       1.05284345
C        1.57012939      20.34188080       1.90529668
F        1.09576404      20.76840401       0.69764292
F        1.36691356      19.02100372       2.01547575
F        0.92831659      21.00517654       2.91250348
O        7.16104794       4.22599888      26.26891708
S        8.38183784       3.88372111      25.50151443
O        8.13018894       2.95560884      24.38500404
O        9.26076221       5.01562023      25.25109291
C        9.28896809       2.76442552      26.72594643
F       10.36786175       2.21449232      26.09680367
F        9.70408058       3.39799714      27.83042908
F        8.45712757       1.75305498      27.08084869
O       25.23590851      13.30463696      21.36107063
S       26.15505409      14.09858704      22.19031334
O       25.51014900      15.20960236      22.90905571
O       27.10517120      13.31964302      23.01394463
C       27.35047340      14.83884621      20.92672348
F       28.26588058      15.63508511      21.54340363
F       28.02776718      13.86882114      20.27119255
F       26.64432907      15.57344532      20.02750206
O        1.59581661      17.33739853      26.33952522
S        1.73129714      15.87133217      26.30847168
O        3.12011933      15.40812778      26.52705002
O        0.73857844      15.07632256      27.04885101
C        1.42345142      15.47967243      24.50253105
F        1.50413787      14.12854576      24.27235413
F        0.22427598      15.96258545      24.17403412
F        2.38918567      16.06415176      23.73754501
O       25.17053032       9.75587368      19.70639038
S       26.26125908      10.03408241      18.76874352
O       25.83208847      10.42529392      17.41352844
O       27.40967560      10.76127243      19.31643677
C       26.97535515       8.33920860      18.43977356
F       28.01878738       8.39372253      17.53743744
F       27.46465874       7.76170635      19.57101059
F       26.01997757       7.53199673      17.89332962
O       24.89820290       8.75858879       3.59798789
S       25.44515228       9.62312412       2.53350782
O       25.68210983       8.99766731       1.23316085
O       24.81598663      10.95599174       2.50992417
C       27.18255043      10.00235558       3.19148493
F       27.89578247      10.74258614       2.30867362
F       27.12212753      10.65264797       4.37824631
F       27.86074066       8.82863617       3.39600444
O        4.22288084      13.09894848       2.70316982
S        5.36479235      12.96183395       3.61571431
O        5.18849421      11.97449207       4.69790363
O        6.67282009      12.87095451       2.96059918
C        5.46372032      14.64126396       4.56929445
F        6.39717150      14.57050991       5.55304766
F        5.85673857      15.58344936       3.67916799
F        4.27548981      15.00839901       5.09900379
O       20.31317520       3.14617753      23.32541656
S       20.78403473       2.41240478      22.14524841
O       20.85071182       0.95423251      22.24653053
O       20.35119057       2.95164037      20.84182930
C       22.60579109       2.80109453      22.12607193
F       23.19631577       2.23139620      21.02268982
F       22.83482742       4.15624142      22.06602478
F       23.26813316       2.33932495      23.24207115
O       14.02345181       5.07714796      23.65407944
S       13.72829819       3.64887190      23.68375015
O       12.72790909       3.25164580      24.69845390
O       13.61090851       2.96576929      22.39278412
C       15.30033970       2.92346764      24.40538406
F       15.19191074       1.57095921      24.53856659
F       16.37923241       3.17532492      23.61747169
F       15.58303070       3.44141817      25.65546417
O       13.48622417      18.79289055       3.35128880
S       13.28288460      20.07534409       4.03498793
O       14.37020779      21.03943443       3.81608367
O       11.91817951      20.62229729       4.01331091
C       13.48293972      19.61135101       5.88674068
F       13.15780830      20.61525345       6.73315668
F       12.62719154      18.56659698       6.11791039
F       14.74975300      19.23018074       6.12236357
O       14.82507896       4.86402464       7.50500584
S       15.29920101       6.23902512       7.28055906
O       15.93370819       6.89196205       8.45042515
O       16.01628304       6.45774508       6.01125860
C       13.72509480       7.26513767       7.21074057
F       14.07141781       8.57319927       7.11297274
F       12.97464848       6.90646029       6.13156605
F       13.00508595       7.08837605       8.33856010
O        2.52996969      10.00557327      17.53023338
H        2.66250086       9.16164875      17.05628777
H        3.11579585      10.66900921      17.10200500
O       15.04554462      16.45439148      27.95953178
H       15.42191887      17.20943069      27.46651840
H       14.57422733      15.89837360      27.30437851
O       24.01194572       7.99848080      11.10922813
H       24.63487053       8.38629246      10.46449375
H       23.25119591       8.60949421      11.18722534
O       25.23664093      25.03331947      12.76034641
H       24.82557487      24.21967888      12.40037823
H       24.62049103      25.37471008      13.44318485
O       18.24790955      27.09248352       1.57832623
H       18.25410271      27.36792755       0.63464046
H       17.34021759      26.82037354       1.80658424
O       26.24517059       2.17492604      26.42901993
H       26.94120598       1.58149552      26.07089233
H       25.46434402       1.59447241      26.50138855
O       16.85368538      14.54625225      11.86131573
H       16.35326195      14.00403309      11.21424484
H       16.34313011      15.37701797      11.91474056
O       20.61579895       3.98915267      10.82039261
H       19.76889992       4.19693470      11.25720692
H       20.74016953       4.70954227      10.15671444
O       17.10119438       8.21186066      12.48003101
H       16.65130234       8.47379398      11.63604736
H       16.79080963       8.87857246      13.12255096
O       27.30911255       8.51746273      11.12959671
H       26.73006058       9.29687786      11.19845772
H       26.84981155       7.75864744      11.55149078
O        6.91448832       1.32485104       7.24027729
H        7.82552862       1.63795745       7.06318569
H        6.34264088       2.15700650       7.17499256
O       24.50954819       3.99866509      17.14300728
H       24.92859840       4.87944698      17.09038925
H       23.64165115       4.11391211      17.57826233
O        1.72045779      12.33855343      27.16627884
H        1.02513480      12.49108791      26.49850655
H        1.68174791      13.14867878      27.71895218
O        9.11212730       4.22562504       2.89258599
H        9.24052715       4.59198618       3.79251599
H       10.00457096       3.84998083       2.70862818
O        4.45941305       4.08833456      25.16595459
H        5.42769051       3.97331476      25.12424850
H        4.15122938       4.06417322      24.23662758
O       24.15360641       5.90407705       8.23329830
H       24.97588158       5.41167498       8.48869324
H       23.86383247       6.30456209       9.07956600
O        4.01620245      18.55647087      26.18369102
H        3.07776022      18.30087471      26.32168198
H        4.52835417      18.04762268      26.84898376
O       21.79894447       6.90955305      12.95186710
H       21.10626221       6.87424469      13.63944530
H       21.55471802       6.26764345      12.25801373
O        2.95511508      10.48714161      22.97636795
H        2.28971839      10.10965633      22.35964012
H        3.51454616      11.03553200      22.39129448
O       26.81246185      11.04758072      24.44387245
H       26.41600800      10.43355370      23.80021667
H       26.90282631      11.90732479      23.95276070
O        9.18399334       8.34172344       5.57112503
H        8.57311630       7.57977867       5.52253008
H        9.20808792       8.56950092       6.52261972
O       14.88807678      14.24710178       6.50666046
H       15.08585739      13.83373356       7.37385559
H       15.50321007      13.83147049       5.87021446
O        6.31659603      12.63509941      11.40177059
H        5.46113968      12.90745354      11.01113224
H        6.07701159      12.09448719      12.17834187
O       21.23342896      12.63427830       8.09581852
H       21.07734299      11.89922237       7.47318125
H       21.95868492      13.18787193       7.72299480
O       20.86096764      22.64003944      21.47095490
H       21.60920906      22.67228889      22.09403038
H       20.72968292      23.57756042      21.16856575
O       10.52701283       5.50023937      15.48733616
H        9.91075325       5.92220449      16.12206078
H       10.13935471       4.61758709      15.33369541
O       19.04966545      21.15370941      15.31893063
H       19.83118057      20.72039413      14.88582325
H       18.25232315      20.69354057      15.00088310
O        8.38413811      12.33995533       0.18450564
H        7.67934513      12.90685940       0.54997599
H        8.55115986      12.69944477      -0.71557623
O       23.37026405       4.10370970      13.49347973
H       23.13356972       3.45921707      14.18999290
H       22.98135567       3.78945374      12.65939140
O        4.29554367      21.53042030      21.62646866
H        5.02562618      21.97016716      22.11146736
H        4.06561279      20.72505379      22.13512039
O        8.84091091      10.38328743       2.67726612
H        8.40984821      11.21412468       2.38913465
H        8.65781689       9.71823692       1.98625052
O       22.39872742      23.83099174      15.38786697
H       22.60189247      23.25999451      16.15162468
H       21.46218681      23.64988899      15.15770054
O       14.12257385      22.58776093      13.13424492
H       14.57269287      21.74030304      13.33308506
H       13.16527939      22.42839622      13.20390511
O        7.50362253      21.58891296      10.70915699
H        7.71125937      22.51548767      10.93486786
H        7.34526253      21.13239288      11.56251907
O       23.89235115      14.52667141      18.81840134
H       24.47386360      13.93346691      19.34247971
H       24.47521019      14.98582172      18.18249702
O        6.28316832      27.40856552      17.91523933
H        6.84006977      26.86480713      17.32381821
H        5.38287830      27.05885506      17.78284645
O       19.37391853      14.54464054      15.81612968
H       18.42915344      14.30091190      15.90823936
H       19.82976532      13.70473099      15.61403751
O       10.11837006       5.32333231       7.23649740
H       10.75303268       6.04359722       7.05852365
H       10.53829956       4.53083277       6.81662035
O       23.49278069      13.51802921      11.57505226
H       23.03357697      14.00176239      10.85910130
H       23.73735809      14.21866989      12.21390247
O       18.98064804      20.98989296       5.99854660
H       18.17890739      21.40476608       6.37599277
H       19.56829262      20.78053856       6.74927330
O       27.28965569      19.04269981      11.75442791
H       27.92107773      18.41938972      11.34622192
H       26.47513771      19.06749535      11.21387863
O        3.56403422      20.67157173      11.76438713
H        3.96407938      21.21485329      11.05777168
H        2.75551248      20.25410271      11.40169334
O       26.60326004       8.33550453       7.10506868
H       26.93219185       8.95417500       6.42677832
H       25.86018753       7.83030844       6.72401142
O       21.73285484      20.62980652      19.91156960
H       21.48348427      21.51301575      20.31927109
H       21.30654907      20.01101112      20.53141022
O       18.06715393      18.41997719       4.54366732
H       18.52699280      17.91473961       5.23974276
H       18.15475273      19.34558105       4.86039782
O        5.34514236       7.18898869      22.23331833
H        6.17800665       6.67830563      22.16931152
H        4.63978529       6.54379034      22.02683258
O       19.74893379      23.43341637      14.06643581
H       20.14249420      23.01190948      13.27591515
H       19.29114532      22.69429398      14.55689144
O       24.19756699      17.32201767      17.52118492
H       24.07571411      17.54876137      18.48362160
H       24.82373810      17.97973633      17.16971397
O       15.84443188      14.33781147      18.85993576
H       15.42680359      15.21825409      18.72795868
H       16.09062958      14.00490284      17.95914078
O        9.47670841      16.00322342       6.11038160
H       10.15583038      15.38127613       5.76668167
H        8.86106491      16.19220161       5.36985159
O       20.48544121      16.30027199      18.71630669
H       20.65813255      16.47502518      17.76546478
H       20.71289062      17.12231445      19.18530083
O       19.05700302      -0.14213270      16.20939064
H       18.21048737       0.34063411      16.30521774
H       19.70983505       0.49403939      16.57108116
O        8.16392040       6.03221703       0.94138241
H        8.44396400       5.41187000       1.66201842
H        8.96655560       6.55324554       0.74644411
O       13.20803165      13.30718613      19.07127380
H       12.91178894      12.48832130      19.51488113
H       14.18987465      13.28872299      19.02894592
O       10.66358471      19.74364662       8.69084167
H       11.43038368      19.13488007       8.80435371
H        9.91488457      19.19730377       8.37740517
O       18.18750763      10.71598721       8.41783142
H       17.96864510      11.37607098       7.72418356
H       17.96227837      11.10665035       9.28654480
O        1.16114652      17.40638542       5.33547926
H        2.08394599      17.69204140       5.21068811
H        1.04972458      16.62221146       4.76046419
O        9.27985954      27.91388512      11.52941513
H        8.80626202      27.66634560      12.34426975
H        9.18831825      27.17303276      10.87431145
O        2.13868690      11.61039543       5.04712200
H        2.83117127      12.03170586       5.59348106
H        1.98160279      12.25366879       4.33020449
O       12.56130219       8.30588531      25.87648964
H       11.59497643       8.40643311      25.95563698
H       12.70765114       7.66017962      25.15539932
O        3.30063653      21.98785973      26.20003510
H        3.72713327      22.86738014      26.16388893
H        2.88501191      21.92812538      27.08310127
O       23.60591316       0.79745728       5.69150400
H       23.73205566       1.66417420       5.25499964
H       22.64590263       0.69237775       5.83382893
O       16.36575508      25.39363480      17.33885574
H       16.98483276      25.37643623      18.11483002
H       16.85305595      24.88656425      16.65869141
O       27.67935753      27.64824104      19.50303078
H       27.69548988      26.67461205      19.57207870
H       26.89742088      27.87673378      18.96378517
O        7.28407860      26.66140747      27.55353165
H        7.93652678      27.22017097      27.08563042
H        6.46991253      26.68973732      27.00510406
O       17.49981880      21.45033073      12.61086750
H       16.70966148      21.07109451      12.17941761
H       18.24836922      21.26554108      11.99759674
O        4.91816425      19.22409630       8.74344826
H        4.40991545      19.83161736       8.16765022
H        4.85829878      18.34367943       8.33250618
O       18.00565147       9.55777454      25.55952835
H       18.53043365       9.06470013      26.22142982
H       17.12132454       9.14382935      25.58434105
O       22.42855453      13.62601662      22.33315086
H       23.35270309      13.62370396      21.98988914
H       22.23625946      12.67206669      22.49088860
O       24.33567047       2.90832496       2.87812018
H       24.83981323       3.63033366       2.44980502
H       24.27100372       2.18041897       2.22832394
O       17.84367752      20.55246925      23.25491905
H       17.45071602      19.67947197      23.44641304
H       18.14961624      20.47112465      22.33287430
O       26.56758118       2.34294510      19.37997437
H       25.96490860       2.79429388      18.75715446
H       27.48347473       2.42719603      19.02334976
O        9.58595562      25.71456146       9.84450054
H       10.56270599      25.90073395       9.89251995
H        9.37735939      25.56524849       8.90056992
O       21.41688919      13.05434132      18.50519562
H       21.59803772      13.24423122      19.44692802
H       22.19813919      13.43773365      18.06055832
O        3.85905790       9.07577419      13.45904827
H        3.48143053       8.59590626      14.21760654
H        3.16717243       9.11503887      12.77364159
O       11.70023823      24.31360435      26.38603210
H       12.04769897      23.51151085      25.93134499
H       10.73556042      24.17155266      26.40973091
O        7.19829607      14.53494930      21.36336327
H        7.47158718      14.32611847      20.44637871
H        7.82928085      14.09029293      21.98380470
O       24.34175873      17.85145569      22.76904297
H       24.81638336      17.02201843      22.98701668
H       23.82773399      18.11266899      23.56391144
O       12.31626129      20.85258675      21.10096550
H       13.00057316      21.45436478      20.73810577
H       12.40508652      19.99915695      20.62254715
O       25.35951424      24.91487885       7.64215708
H       25.11523247      24.60547638       6.74242640
H       26.22163391      25.36282730       7.52676916
O        1.36946321      14.60175133       3.90176964
H        1.88567150      14.89936733       3.12386847
H        1.98674512      14.63137913       4.65529299
O       20.63838196      17.78613281       8.84623241
H       20.66345978      16.80891228       8.76875305
H       21.34869385      18.01371193       9.47812271
O        8.17672729       9.69261265      28.17425156
H        7.98982334       9.50962543      27.23841095
H        8.17250729      10.69773197      28.24532890
O       13.53482246       0.88577861      16.77064896
H       13.52713299       1.27740896      17.66578865
H       14.17165470       1.43130362      16.24746704
O       19.77532387      15.82006264      11.87269688
H       20.15333176      14.92370415      12.00440407
H       18.85462761      15.61926746      11.59705734
O       11.94246101      22.53652763       1.53547239
H       11.77114773      22.64179993       0.58012068
H       11.86159134      23.44019127       1.92772448
O        0.19937694      14.25793076       6.68864822
H        1.02352870      14.47692585       7.17713785
H        0.31436992      13.34978676       6.35829830
O       26.59825134      23.81450081      10.28164673
H       25.88013458      23.98034859       9.63071442
H       27.21981239      23.20505714       9.83262348
O        8.19895744      23.12601662      28.03042603
H        7.64394140      23.36496925      27.25247574
H        8.39594078      23.94107628      28.52541161
O       10.70366287      17.42741203      16.30403137
H       11.17803288      16.62056160      16.62836647
H       11.39581299      17.95929337      15.86566925
O       24.55035019      12.00886059       5.81537771
H       24.30396652      12.92415810       6.07355928
H       24.38741112      11.87686634       4.86443520
O       17.42700386      24.85422897      12.98110104
H       17.38863945      24.35000610      12.14210033
H       18.08609962      24.35435486      13.52384663
O       14.26297855      24.25663948      22.88484573
H       15.03201008      24.86747169      23.01653099
H       14.60377216      23.36472130      23.07906342
O       23.27266312       7.65922213      26.00577354
H       23.60703468       7.58199883      26.92296028
H       23.92678261       7.20232630      25.44414330
O        7.83883190      10.86121941       5.20645809
H        7.14790106      11.40691185       4.76971054
H        8.32131672      10.41605568       4.47109318
O        3.21654606      27.29653931       7.40677547
H        4.12715864      27.36917114       7.76989365
H        3.31736231      27.16800499       6.44363117
O       11.26011467      13.66384792       5.76964283
H       11.77196884      13.23919392       5.03301144
H       11.85734367      13.61227894       6.54928160
O        5.09055185      17.13192177      23.67352676
H        4.79674625      17.29564476      24.60096169
H        4.85712290      16.20590782      23.44041634
O        6.84555340      20.53343964      14.89600372
H        6.59781742      21.47124481      15.08062553
H        6.02569914      20.05992889      14.66025734
O        1.09729683      18.01525497      15.03679657
H        0.74872786      17.36857796      14.39708805
H        0.44400051      18.12508774      15.74907589
O        1.02135015       2.11386967      24.10727310
H        1.70135677       2.73166037      23.77151871
H        0.37682775       1.99646962      23.38034439
O        6.23233938       4.62309837      11.44787025
H        6.72811079       5.43345261      11.68646717
H        5.93828678       4.23367929      12.29105663
O        1.39149547      23.12902641      17.02717972
H        0.41187999      23.18631172      17.04007912
H        1.65653884      23.05732346      16.08974075
O       11.89994335      19.17548180      11.87987804
H       12.72704315      19.57816696      12.21085262
H       11.58378506      19.78200912      11.18600082
O        7.45593691       6.48301983       6.55107021
H        8.18738461       5.96016169       6.95812178
H        6.69485188       5.83143330       6.44997787
O       22.24655151      10.76864719      10.04878139
H       22.25410843      10.61253643      11.01949501
H       21.88776970      11.67225933       9.90871143
O       18.26462364       5.76749086      11.26633644
H       18.51495743       6.68568230      11.49330711
H       17.37912750       5.62447119      11.66110706
O        9.80656528      12.35444164      11.98060608
H       10.58738136      12.67187405      11.48558998
H        9.82657719      12.86684227      12.81475353
O        5.47039318      18.59553528      12.32438946
H        4.90061569      19.26318359      11.88050461
H        5.78764772      17.98151588      11.63821125
O        4.12732220      25.87765884      11.46477127
H        4.31917381      25.01562500      11.05630207
H        4.51676559      25.87972069      12.36185074
O        8.06431198      10.02492237      10.74758434
H        7.30245447       9.73289490      11.29369640
H        8.28164864      10.93387413      11.04575253
O       23.49360657      15.85793591      13.72156334
H       23.09214211      16.72869110      13.49279785
H       24.39062500      16.07301903      14.03847313
O       22.33866882       7.41839647       3.59156775
H       21.74757195       8.07177544       4.02978897
H       23.22126770       7.85381651       3.55141854
O       20.79567909       7.26015186      21.22229195
H       20.18099213       6.74290133      21.78812408
H       20.53285980       6.92940044      20.33430481
O        7.81440687       0.21586059      24.23264885
H        7.58411598       1.17036402      24.32375526
H        7.04462051      -0.31111762      24.51438713
O        7.23073483      11.01374626      21.00113678
H        7.51680470      11.76594830      20.43954468
H        7.82804394      11.08570576      21.77826118
O        5.82337761      14.38100147       0.43308812
H        5.14687729      13.86166954       0.91526228
H        6.18585873      15.01092720       1.09007931
O        9.69647026      16.60986710      26.08632088
H        9.45424080      16.83634377      27.00442123
H       10.17037296      17.40054703      25.71047974
O       19.92906189      19.92558670       0.97592449
H       20.50184059      19.17211151       1.22534621
H       19.50472832      20.22917938       1.80284190
O       23.72658920      17.95646095      10.78508663
H       23.05213928      18.10500526      11.47510242
H       23.69773293      17.02178383      10.50881195
O       16.93804359       1.32145619      20.79999924
H       16.15852165       1.61633611      21.30295563
H       17.60814857       2.01000881      20.99394035
O        9.75135422      24.60248756       6.95667744
H        9.21432114      23.82882881       6.70671701
H        9.91289806      25.10412407       6.13235235
O       26.35976219      17.07173347       3.48084736
H       25.47266769      17.48432732       3.45275688
H       26.35038567      16.51041985       4.27727365
O       11.93710327      26.44318199      23.04306602
H       12.89903069      26.60221863      23.13780212
H       11.83138847      25.50474548      23.29278564
O       17.82746887       1.04313457      26.69074821
H       17.45052528       0.25860491      26.21583176
H       17.79751778       1.75709367      26.02188110
O       10.62625694      18.61561203      24.70061493
H       11.47017479      18.78579521      24.23874474
H       10.00537586      19.36726570      24.58117104
O       22.66763306       8.77205849      17.79254150
H       23.18368912       8.35490513      18.51911736
H       22.37095642       9.62900162      18.16763878
O       20.48963165      26.08099365       7.93613529
H       21.11969566      25.44114494       8.32235146
H       19.62313461      25.65011597       8.08088303
O       12.96163177      21.81831169      17.50593376
H       13.35639095      22.30713654      18.25587845
H       13.45874786      20.97594452      17.46893501
O        5.15865231      27.17416573      25.67080879
H        5.15306759      26.42623901      25.03346062
H        4.41844702      27.77735901      25.47805214
O       15.65189457      12.56471539      22.97566605
H       15.50451756      11.66823769      22.56165695
H       15.47876835      13.31887722      22.35871887
O       12.15033531      26.49785614      10.37929535
H       12.13343048      27.45217133      10.62616920
H       12.48880196      26.04813004      11.18204403
O        4.71403074      14.26643658      22.42322540
H        4.02260160      14.03703594      21.77894974
H        5.59069347      14.21407032      21.95102501
O        5.32408381      15.36582375      13.51687717
H        4.56516361      14.83131027      13.82293701
H        5.98432875      14.72411156      13.17698574
O        7.71697950       5.48399734      16.44280052
H        7.40087032       5.82370520      15.58407974
H        7.26120520       6.01098680      17.13472748
O       15.24070072       8.63622761      10.54700851
H       15.38446808       8.21315670       9.67289639
H       14.63505650       8.03124332      11.02014256
O       25.91701508       1.45368528       7.80885839
H       25.01003456       1.43397856       7.45315552
H       25.98107910       2.26052547       8.35476685
O        1.87293518      10.24547386      20.35501289
H        0.94050390      10.43717670      20.11806679
H        2.31218219      10.11335659      19.48826218
O       15.77001572      10.85307980      27.51119232
H       16.59562683      11.37194157      27.38989067
H       15.38316727      11.16693497      28.35315323
O       14.08265591       8.76276588      16.39137650
H       14.23743153       7.98272181      16.95755768
H       14.86965370       9.34117317      16.48106003
O       26.10199928      27.59020042       1.80365658
H       25.86662292      26.66941071       2.14859414
H       27.02282333      27.76118660       2.08900499
O       11.86940098      25.63759613      13.21368599
H       12.10923195      25.63638687      14.16637707
H       11.15300179      26.29118156      13.11703968
O       22.12886620       1.89320707      17.83866501
H       21.22645187       2.27687621      17.73411942
H       22.09534645       1.39272392      18.67711258
O       27.23206520      17.63604927       7.77617455
H       27.85143852      17.04249001       7.30835009
H       26.52450371      17.06915665       8.13849354
O        2.34747577      15.98714256       1.52051270
H        2.85043168      15.55869102       0.79867321
H        1.50301123      16.28128624       1.12348461
O       10.26325035       2.26777411      15.04542732
H       10.32670689       2.03472471      15.99318123
H        9.30946159       2.24201822      14.83191109
O       21.91089249      10.19196224      13.10817909
H       22.59620667       9.80896759      13.69509983
H       21.04889107       9.81102085      13.40217876
O       14.65158176       0.02530878       9.42469406
H       14.46998310       1.00632846       9.15993881
H       14.91706467      -0.00812159      10.35508442
O       25.52027321      23.00312805      25.39943504
H       25.28005219      22.15062904      25.80658913
H       25.37992859      22.88318443      24.43694496
O        2.69430757       3.93117070       3.75452256
H        1.73640025       4.07018995       3.90197682
H        3.00651097       4.74775124       3.28339696
O        3.40301824      17.85253334      19.95101166
H        3.13822055      18.00940895      20.88342667
H        3.29342747      16.90329742      19.76033211
O       11.04981995       2.12830973      19.13412094
H       11.43602467       1.59920526      19.85884285
H       11.38459015       3.03969502      19.29794121
O        2.85283351      11.86978531      12.78098965
H        3.65910482      11.51501560      13.22487068
H        2.93424702      11.65131664      11.83044434
O       12.94853783      14.12636852      21.72594643
H       12.73007202      14.29102802      20.77289009
H       12.93038559      13.14093494      21.78757286
O       11.92983055       5.13904905      19.19247818
H       11.72332764       5.79934216      19.88416672
H       12.91726589       5.18614912      19.12304878
O       27.39907265       5.30015802      15.67899704
H       28.27547073       5.30050468      16.12144661
H       27.54501343       4.79452229      14.86289692
O       21.43793678       4.21600199       4.99817610
H       20.67256927       4.51542759       5.52202320
H       21.85758972       5.03432989       4.65846682
O        3.87399340       9.21261024      27.45092010
H        3.29571652       9.99867821      27.47927666
H        3.96282840       8.95861244      26.50457191
O       27.46489716      20.61428833       8.04201221
H       26.82393456      20.24853325       8.69033527
H       27.52374840      19.89327049       7.38579369
O        7.58977127       6.76360989      10.30201817
H        7.60135174       7.73092318      10.44939995
H        8.52215385       6.47779131      10.25513554
O       26.27531242      23.14122009      16.54559708
H       26.43018150      22.56080246      15.77594280
H       25.81461525      22.56557083      17.20090485
O        3.22158670      21.11675644       7.32948494
H        2.33356619      20.74669838       7.16385889
H        3.40114737      21.75616074       6.61248493
O        6.35698986      22.65092278       8.00414944
H        6.44732189      22.01035118       7.27325964
H        6.51751423      22.12524223       8.81848240
O       25.35696220      20.79703331      18.21662712
H       24.41332626      20.89730453      18.45528221
H       25.82754135      20.95913696      19.05870056
O        6.37136793      19.80615044      19.71204567
H        6.67922258      20.53814507      20.27401161
H        5.58420277      20.13987923      19.21850014
O       10.16467190      24.57763481      18.35916901
H        9.73254013      24.42012215      17.49338531
H       11.11136818      24.75400925      18.19243622
O        1.05841649       1.84292901      18.54018784
H        1.11638319       0.92603540      18.86921501
H        1.72421396       2.37559652      19.03298569
O       20.15572357      17.14559174      27.25110817
H       20.96955299      17.69187164      27.40083694
H       19.44858551      17.76679611      26.99375725
O        7.25454903      10.71131802       8.13492107
H        7.80125666      10.26416492       8.82152271
H        6.60264826      11.19488144       8.67986870
O       15.50213051      17.87189102      21.27904320
H       15.49070358      17.00473595      20.81514740
H       14.78647232      18.38932991      20.85368156
O       14.89079952      19.70431519      13.46662235
H       14.90352631      19.39423370      14.40141392
H       14.94787979      18.90363503      12.90318489
O        8.28557587      20.30521011      24.78240776
H        8.37479687      20.62947273      25.70874596
H        8.02551842      21.08350372      24.24857521
O       23.50982475      17.79814911       3.48945260
H       23.05575752      18.65739059       3.35100698
H       23.37613297      17.32398987       2.62378907
O       16.67316437      22.26087189       5.00707197
H       16.37805557      23.17567444       5.18437386
H       15.86793137      21.79089165       4.70751715
O       17.47172928      18.28591537      13.69236565
H       16.99549103      17.74929810      13.02332687
H       17.40473557      19.20077133      13.34083366
O        6.35024405      20.20516014      27.85147858
H        5.56309652      20.14477158      28.43882751
H        7.10596228      20.38057137      28.44129181
O        6.79772568      27.14536667       5.36000061
H        6.81489563      28.02973938       5.78626871
H        6.95109797      27.27213097       4.40071058
O       24.31216240      23.65219879       3.28755355
H       24.78789139      24.55854607       3.34210300
H       23.68841171      23.73797798       2.53939986
O       13.76475048      14.48728561       1.71696591
H       14.08185482      14.70326710       2.61448812
H       12.96401024      15.03945160       1.61511648
O       18.44622231       2.58736444       7.82257891
H       18.35145950       3.57509112       7.86987209
H       18.43138504       2.30570555       6.88981581
O       19.74153328      27.18801880      26.99731064
H       19.57826805      28.13769341      26.80289459
H       19.18604469      26.73151207      26.33286476
O       23.66895294      17.43706894      20.14809799
H       23.83334732      17.73120117      21.08106995
H       23.43486404      16.49102783      20.20683098
O       20.04855537      23.70122147       9.85333443
H       19.94148064      22.72830963       9.95235062
H       19.44525146      24.08526611      10.51845551
O        1.74008822      17.25599289      11.93587780
H        1.79099262      16.50515747      11.30964279
H        2.65466857      17.36854935      12.26808167
O        3.08915591      18.97729111      22.74460411
H        2.20510292      19.09812737      23.13489532
H        3.57534838      18.33192825      23.30885315
O        7.98130226       6.24368811      13.57604504
H        8.95342827       6.28591585      13.68665600
H        7.66743469       7.15470505      13.37327480
O       13.84961700      23.60920143      20.08129883
H       14.73243332      23.88801003      19.76560783
H       13.77230549      24.02038193      20.97316742
O       13.15274620       3.17252016      27.56621742
H       13.25293636       3.44492626      26.62315750
H       12.79522800       2.27369571      27.47109604
O       26.07342911       5.35475922      26.25599098
H       26.06900978       4.37876034      26.14427185
H       26.90940094       5.55497169      26.72604561
O       27.88429260      21.20007324      13.78644371
H       27.76602554      20.36488914      13.28079510
H       27.71013832      21.90564919      13.13552094
O        9.47651100      19.72220612      18.37712860
H       10.32179642      19.29989815      18.64287186
H        9.42391491      20.54050064      18.92499733
O        8.61959648       8.84009838      19.59210968
H        8.08501339       9.57960892      19.96233368
H        9.40891552       8.86049938      20.18124771
O       20.51618385       8.94476700       5.05424929
H       19.84345436       9.58126450       4.74091673
H       20.65473366       9.13102436       6.00993013
O       22.46740532       2.85357475       7.99099445
H       22.96711540       3.61701035       8.34918022
H       22.23555183       3.11556411       7.07828379
O        4.34065390       8.58387756      24.48626900
H        4.88823462       7.99543381      23.92110825
H        4.04622269       9.30522442      23.88268280
O       10.83464527      21.27228737      14.11781502
H       10.67027950      21.27085495      13.15751457
H        9.96923161      21.29475594      14.57132339
O       12.79815197      17.24471474       1.14839423
H       13.00275040      17.69018555       2.00205946
H       13.66723442      17.07117653       0.72476876
O        9.81957340      21.88716888      20.14865303
H       10.72063065      21.59715271      20.43610573
H        9.94214725      22.72158432      19.65285492
O       19.92489052      15.03043842       7.02978659
H       19.17959023      15.24139786       6.44653797
H       19.68031120      14.18191719       7.44984674
O       23.33980179       1.40308905      15.34515381
H       22.80168152       1.48960698      16.17951012
H       24.24411964       1.62740541      15.64027119
O       13.08368015      17.48500443       9.04324150
H       13.20493889      16.69314575       9.61171818
H       13.94895840      17.96454620       9.09077644
O       19.45865059      23.66303444       4.48707676
H       19.07688332      23.56606293       3.59355235
H       19.37090874      22.78118134       4.90402746
O       17.19016075      27.21622276       7.04706144
H       16.64022827      26.74964523       7.71488190
H       17.70941353      26.50495529       6.62257195
O       20.78523636       6.22889090       9.25062752
H       19.86304283       6.39998055       8.95299911
H       21.39234161       6.72697115       8.66765022
O        1.52446258      26.48099709      23.30952835
H        2.49390721      26.45306015      23.42814445
H        1.32124639      27.39670181      23.03253937
O        2.40969324      23.88359261       3.80672479
H        1.63903189      23.53227806       4.28892994
H        2.59894729      23.25996208       3.06562686
O        2.48825216       1.83203936      15.00938416
H        3.07581306       2.56784272      15.28644085
H        1.65466988       2.01841569      15.48426819
O       27.06129456       1.26127481      22.00220108
H       26.62919998       1.96805108      21.47676468
H       27.33768654       0.60502666      21.33025551
O       24.13796043      25.78466225      26.93816948
H       24.01389122      26.06778526      27.86773300
H       25.01926994      25.36035156      26.90051842
O        9.30895996      15.34366989       8.94109154
H        9.23348522      15.53514481       7.98126078
H       10.22403336      15.01468945       9.07239819
O       18.40373611       0.95675659      10.09008408
H       17.93181419       1.44839811       9.38276672
H       18.16489983       0.01565427       9.99134064
O       13.19647884      16.75683022      14.27925777
H       13.63168049      16.15984535      13.64176178
H       13.90778637      17.12552261      14.84747601
O        7.13849068      24.07855225      19.36503983
H        7.97103691      24.56677246      19.20956993
H        7.23776197      23.70573044      20.25933838
O        6.49193668       8.57044315      12.69922352
H        6.38701344       9.18571949      13.45339108
H        5.56231356       8.31544209      12.50167847
O       13.48825550      15.54128933      25.27791023
H       14.22617817      14.89772892      25.19189453
H       13.81285000      16.36143684      24.80738068
O       17.97117996       8.12529278      16.33554077
H       17.75776482       8.78075504      17.02876282
H       17.17739105       7.55581808      16.22926521
O        6.34198856      26.78049278       2.55681849
H        5.40616322      26.62006378       2.80055165
H        6.36052275      27.36784935       1.78052056
O        4.25806284      14.62478733      18.05219269
H        5.01432943      15.11104107      17.66419601
H        4.22948313      13.77865028      17.54962540
O       11.00910187      21.92952728      10.45960236
H       10.41563702      22.69501305      10.56935883
H       10.58057404      21.28716469       9.85290623
O       21.92377281       0.96510124      12.06412888
H       22.63365555       1.04249144      12.73614311
H       21.22772598       1.57791340      12.36441231
O        6.20521069      27.05588150       8.48543453
H        6.60326099      27.92812920       8.25901413
H        6.51088095      26.41538048       7.81849241
O       26.69671249      19.48454666      21.58100700
H       25.96776962      18.93049812      21.93175697
H       26.34740067      20.39282417      21.67520905
O       11.86758804      11.24041176       0.33828753
H       12.55677509      10.78709888       0.86444026
H       11.54916286      11.94068050       0.94087368
O       15.99630547      14.03726482      25.27947617
H       16.72951889      14.68118095      25.15030098
H       15.93414593      13.47820568      24.46338081
O        6.03770828      16.63622284      26.96216393
H        5.63982201      15.78135777      27.24711227
H        6.58625937      16.93602943      27.71773148
O        1.86440539      23.16540527      22.81778336
H        1.59450996      24.04394913      22.49358559
H        2.60200047      22.85455132      22.25517845
O       10.00903702       9.13747215       8.19602394
H       10.71454620       9.76045322       7.94908237
H       10.22790527       8.82131004       9.09244728
O       19.73809433       5.44179916      19.22539330
H       19.80971336       4.46381664      19.15227318
H       18.76637840       5.61315250      19.25712776
O        4.03748798      26.39048576       4.46019793
H        3.68731546      25.47941208       4.37437725
H        4.90065765      26.35007477       4.93003416
O       18.73077393      21.38726616      19.69794655
H       19.02853966      22.26631165      20.01711273
H       17.77084351      21.47420692      19.55233192
O       19.51143837       8.97128963      13.95087147
H       18.91632843       8.68022633      13.22660160
H       18.96690559       8.95862770      14.77090645
O        6.66434574       6.88092756      18.76582146
H        7.22147226       7.57850647      19.17592049
H        5.78117704       6.91016006      19.16736031
O       18.08084297       6.27087975      22.38992691
H       17.32643127       6.89384937      22.23774719
H       17.75048637       5.47629261      21.90925217
O       11.80502033       0.54001164      11.81614304
H       12.05899525       1.46205735      11.59395981
H       10.82435608       0.42998782      11.75168324
O       18.93297958      23.87033844       1.22029889
H       19.62662315      23.59646416       0.58748609
H       18.87915611      24.85095024       1.18105018
O       23.39836311       6.72266197      20.10876465
H       23.09627724       5.83400297      19.84133530
H       22.68311691       7.04968166      20.69986725
O       24.21556473       9.33370304      15.22448540
H       24.79590225      10.12240124      15.22820663
H       24.10287476       9.13672447      16.18595123
O        8.04741573      13.86006641      18.52715683
H        7.47823000      13.51010704      17.80375481
H        8.86964893      13.32625198      18.48909950
O        7.17259741       1.62005651      15.44636726
H        6.80076408       0.72117913      15.34687805
H        6.95407248       1.88445950      16.36447716
O       17.05520821      11.37027073      11.56122875
H       16.11874580      11.18246746      11.37100220
H       17.04432487      11.92162418      12.37159824
O       10.31986427      14.02424717      14.71813869
H       10.94422531      14.77682304      14.69460297
H       10.74009800      13.41202641      15.35283947
O       19.15258408       6.46615314      25.00908470
H       19.94283676       5.89362049      24.97184563
H       18.63069725       6.18893099      24.21754646
O       14.21210766       2.37668014       8.87728786
H       13.62110615       2.81401324       9.51865482
H       14.61929226       3.06453490       8.30910873
O       15.79418182       6.46910763      15.33245182
H       15.61321735       6.73207140      14.40745735
H       16.32538414       5.64065313      15.27856541
O        5.76292801      18.75258636       4.44460201
H        5.11513662      19.38049316       4.04341507
H        6.22318268      18.30434608       3.70832562
O       12.15704727      15.04189777      16.75682068
H       13.07207394      15.34318352      16.59043312
H       12.14728546      14.78851700      17.70510674
O       18.28267097       5.28808594       8.05161667
H       18.10833740       5.75082350       7.19895411
H       17.53663254       5.54168320       8.64205742
O       15.47420311      15.03484726      21.95699501
H       15.74314404      15.68340397      22.63957787
H       14.48257351      15.00001526      21.93749619
O       10.45511627      10.77855682      17.72157097
H        9.81744766      10.04113388      17.72650528
H       11.18289375      10.46613312      18.28887177
O        7.95939875      19.61857414       5.95356560
H        7.15778446      19.50714493       5.37674570
H        7.89714956      18.84416008       6.54670143
O       20.58942032       9.35736084       8.00859928
H       21.22091484       9.72168732       8.66593742
H       19.73718834       9.82761669       8.18838978
O       20.07786751       6.33391619       1.98801017
H       20.90041161       6.72152615       2.36916566
H       19.66546440       5.82597685       2.71257067
O       26.81618881      27.78213692      24.95588303
H       26.67272949      27.99853134      24.01415062
H       27.43124008      27.02206421      24.97982407
O       21.73464775      10.88844776      22.49020767
H       22.54427528      10.36498451      22.67257309
H       21.46650696      10.67694950      21.55864906
O       12.72834396      25.80910492      16.17930031
H       13.66672897      25.61457443      16.39106750
H       12.61693287      26.76486397      16.36962318
O       20.21440315      12.75530338      12.14226627
H       21.06632614      12.47881603      12.53419590
H       19.50103951      12.47088623      12.74423504
O       25.25201988      21.10962677       3.73720837
H       24.46648979      21.37379837       4.25183487
H       25.42040253      21.93638992       3.22941065
O       24.97801971      19.98514366       9.58457947
H       24.32432747      19.32875443       9.94097328
H       24.45962715      20.67380714       9.13630772
O        9.39788914      20.70560455      27.44570541
H        9.28062820      21.67137146      27.59997940
H        9.23203659      20.25766373      28.30328751
O       21.39337921      21.87795067      27.44875145
H       22.23931122      21.44533539      27.21846008
H       20.83314705      21.14871407      27.80384064
O       24.44999886      13.03581333       0.67805278
H       25.22549057      13.57443428       0.92957443
H       24.34374809      12.38218498       1.40897894
O        4.14086676      20.03786278      18.26533890
H        3.60319519      19.39225960      18.77927589
H        3.63098788      20.86567307      18.21194649
O       11.74215603       9.32663822      14.81647491
H       12.08112144       9.51411724      13.92492867
H       12.55674934       9.21662807      15.36119366
O        0.59509856      13.65608501      10.70542336
H        0.27982593      14.02366257       9.85516453
H        1.55058694      13.49225616      10.55157471
O       19.86445618      20.84989357      10.79958630
H       20.72902679      20.65443802      11.23258686
H       19.49621201      20.01437378      10.44186211
O        6.87882376      16.56808662      16.12595177
H        7.48532724      15.79796219      16.11381340
H        6.30223703      16.44539070      15.34085846
O       21.76836967      16.95289612      16.29909134
H       22.67463493      17.10774422      16.69275475
H       21.86554527      16.17725754      15.71333027
O       14.53363800      17.66889191      23.97408295
H       14.81401157      17.79039192      23.03047752
H       14.42978191      18.55654144      24.37655449
O        4.69651937       9.50517750       2.37215757
H        4.31585979      10.38405228       2.59345746
H        4.99566984       9.59785843       1.44261062
O       11.26604748       3.01284170       9.25832748
H       11.20577621       2.50929880       8.41896725
H       11.50615406       3.91624808       8.95944214
O       17.36710358       1.56725132       4.15706873
H       17.14108467       0.75157249       4.65080070
H       16.93015099       2.29185772       4.64482307
O        0.52969611      10.18328094      13.35933590
H        1.18998814      10.90850353      13.45098782
H        0.65914607       9.83164310      12.45764732
O       24.54347992      13.43398762      25.76846313
H       23.61272430      13.53804970      26.04314995
H       24.64932442      13.92908096      24.93185997
O        2.46789789      28.01679611      10.71999550
H        1.63003421      27.74404716      10.29382801
H        3.01632500      27.20242500      10.80347633
O       14.41129589      27.62117577       6.23476505
H       13.94923973      27.29228592       5.43088627
H       15.35521984      27.39943314       6.13391590
O       18.70322418      12.19938469      27.14641190
H       18.94610977      12.01752663      26.21562195
H       18.52823257      13.16088963      27.20712852
