4208
Lattice="40.709999084472656 0.0 0.0 0.0 40.709999084472656 0.0 0.0 0.0 40.709999084472656" Properties=species:S:1:pos:R:3 pbc="T T T"
Na       8.91387939      33.61663437      34.34860992
Na      19.87062073       0.50472856      16.86545372
Na      29.33575630      32.22261047      22.05196571
Na      13.00990677      27.29921913      18.73942757
Na       3.68241334       9.99790287      21.47391510
Na      29.68714905      41.63345718      16.95775795
Na       6.64703751      28.99373055      40.94232941
Na      22.81520844      12.34125805      27.03777122
Na      29.76857758      27.99995613      19.00018692
Na       6.34471607      16.37643623      11.66408443
Na      25.89192009       3.41696501       2.63154197
Na      40.36734772      16.77914047       6.75630522
Na      39.73758698      22.88360977       8.44229889
Na      36.47489929       6.76903200       6.93912697
Na       6.82005978      28.59148026      21.55952263
Na      27.85262680       2.08630681       5.54684448
Na      22.26447296      32.58463287      33.64494324
Na      27.51666832       7.61114359       2.75066257
Na      33.29394531      30.59869766      19.90151787
Na      -1.47965300      12.24830246      24.91892052
P       20.67026901      36.47396088       1.98769116
F       21.84551620      35.58707428       1.25400221
F       19.50405884      37.37188721       2.72010159
F       20.91497421      35.64704514       3.38562083
F       20.43252754      37.30736542       0.59778678
F       19.54745674      35.37108231       1.52756524
F       21.79695320      37.57117081       2.46311235
P        8.78739548      15.90751266      31.00631714
F        7.26763630      16.18720055      30.48892593
F       10.32564640      15.61985302      31.52727699
F        8.33303165      14.43862534      31.57129669
F        9.25473022      17.37160873      30.44587135
F        8.44324875      16.58103752      32.45159912
F        9.16487217      15.23644829      29.57072258
P       39.09735489      35.41676712       9.00270367
F       40.34071350      36.21766281       9.72334576
F       37.88089371      34.61587524       8.25598526
F       38.12194824      35.83059692      10.23982906
F       40.10062027      35.02648926       7.76513052
F       39.56288910      34.03741837       9.77975845
F       38.68671417      36.79948044       8.20649052
P       37.05865097      18.93316078       7.68894672
F       37.93196869      20.30527115       7.95081806
F       36.23627472      17.54724312       7.45891905
F       38.36109543      18.32107925       6.80510807
F       35.83485794      19.53351402       8.60741520
F       36.40711594      19.56143951       6.31403732
F       37.73495102      18.30897331       9.03423977
P       17.06953621       1.84109271      18.76942062
F       16.32000351       1.29442728      20.14196587
F       17.91104889       2.33396602      17.41185188
F       17.96042824       2.86349010      19.70639038
F       16.23417473       0.77809221      17.84889984
F       15.94027996       2.98730803      18.54331207
F       18.26281548       0.67878723      18.99035263
P       38.59925079      15.39434814      22.47328949
F       39.54967117      14.63784695      23.60697746
F       37.64532471      16.13077354      21.36029053
F       37.60277939      14.08789921      22.47272491
F       39.61803818      16.66221619      22.48046875
F       39.48074722      14.69614887      21.30137253
F       37.73759460      16.05719948      23.67439079
P       26.60364342      25.90752983       5.80687141
F       26.34558105      25.32922173       4.29440784
F       26.87302208      26.45531845       7.34627295
F       24.97770119      26.03641510       6.05768585
F       28.21161842      25.79784012       5.59353542
F       26.61181068      27.44408417       5.23428345
F       26.58734894      24.35011673       6.39355564
P       33.85963821      32.08594894      33.79746246
F       34.61519241      30.70076180      33.39558029
F       33.09155273      33.47654724      34.21402359
F       35.29390335      32.77057648      34.16352081
F       32.41045380      31.40214157      33.43412781
F       33.71675110      31.56163216      35.34801865
F       33.98476410      32.60155869      32.24934387
P        7.91701651      19.51466560      15.82868004
F        7.85614967      18.16984367      16.80525589
F        7.97948742      20.85667229      14.87530327
F        6.49875116      20.05079269      16.47920227
F        9.33854294      18.98470497      15.20816898
F        7.10109615      18.71720314      14.66672993
F        8.73535538      20.30677605      17.00217247
P        2.93985009      23.07127953      32.91146469
F        2.38428545      21.84444427      31.99112892
F        3.49645400      24.31265450      33.84102249
F        1.98426247      24.12729263      32.09591675
F        3.92276382      22.04427528      33.74008560
F        4.13141012      23.32060242      31.83220863
F        1.74791586      22.80927658      34.00481796
P       37.38074112       8.90993404       3.82523537
F       35.81568527       9.19799805       3.45523357
F       38.91415405       8.60993576       4.28020668
F       37.52646637      10.45276356       4.36726379
F       37.23647690       7.37276173       3.34080148
F       37.85903549       9.34839821       2.33649635
F       36.89146423       8.46878815       5.36774588
P       38.46877670       6.36860418      19.47814751
F       36.89276886       6.80871964      19.65811920
F       40.03553391       5.92134619      19.34231377
F       38.90457153       7.94321108      19.55991173
F       38.03614426       4.78762770      19.41955948
F       38.34581757       6.46861506      17.86441994
F       38.62334824       6.27261686      21.10971832
P        8.70239925      32.13494110      37.98965073
F        9.29838181      33.56094742      38.46227646
F        8.10547829      30.70443535      37.49184036
F        7.22556686      32.57054520      38.49805069
F       10.18264866      31.67300606      37.46548080
F        9.04848099      31.51032257      39.46244431
F        8.37476349      32.75345993      36.47274399
P       35.39470291      33.11534500      11.41121864
F       35.42744064      34.71195221      11.09002781
F       35.32558060      31.48978233      11.79939079
F       33.73794174      33.08850479      11.21174908
F       36.99826050      33.07134247      11.63447952
F       35.22146225      33.45538330      13.01737022
F       35.57197189      32.74620819       9.84058285
P       24.18703079       2.72874188      38.90866089
F       25.47667313       3.74437881      39.08898163
F       22.90192986       1.71278727      38.73178101
F       23.41918755       3.85486293      37.99359894
F       24.96617126       1.62113440      39.83569717
F       23.52277756       3.37518382      40.26804352
F       24.86694145       2.09591413      37.56449890
P       27.52158165      24.61050797      25.71576118
F       26.61316490      25.79691124      26.37158585
F       28.43502617      23.41645050      25.06824493
F       28.76844978      25.05440331      26.65713501
F       26.25099945      24.14926720      24.77485466
F       28.02996826      25.64061356      24.51730728
F       27.02702141      23.55948448      26.89048004
P       34.87351227       4.23841667       5.53826189
F       36.23397064       4.43118906       6.51196432
F       33.55271530       4.06479406       4.60266876
F       35.31302261       5.61351442       4.76500273
F       34.51868057       2.89981747       6.39524269
F       34.04812622       5.16024685       6.61012173
F       35.77412796       3.36536813       4.52034140
P       30.47581863       6.18473768      15.98284817
F       28.88244820       6.23578930      16.38183784
F       32.05718994       6.13783836      15.57483864
F       30.88355637       5.86459160      17.53703308
F       30.07019615       6.47644138      14.39778042
F       30.59155464       7.80042028      16.26997757
F       30.35457993       4.58004475      15.69015408
P       21.19519997      12.72668266      33.87063599
F       22.60348320      13.55113029      33.70449066
F       19.78798485      11.93255329      34.02143478
F       21.04408646      12.64784908      32.25072479
F       21.36848450      12.81619835      35.49326324
F       20.38806343      14.18213844      33.88568497
F       22.04228020      11.32271194      33.85653305
P       12.94134235      34.02742767      28.86466789
F       13.71665764      35.36468887      28.28505516
F       12.17759609      32.69683838      29.46054077
F       11.58827305      34.92518616      29.10335159
F       14.30354500      33.13919449      28.66096687
F       13.45626068      34.40697861      30.39242554
F       12.46671486      33.64257812      27.34370422
C       38.81544876      30.29880524      11.73538780
O       37.92404938      30.46105385      10.64412975
C       37.01994705      29.36375809      10.44369698
C       36.22469711      29.71536636       9.19875622
O       35.39846802      28.57574272       8.90779877
C       34.46266174      28.87398720       7.86600637
C       33.98012924      27.52686501       7.34081936
O       33.04689407      27.73011017       6.25066042
C       31.70166588      27.97312546       6.66137934
H       39.45139694      29.40285873      11.60502529
H       39.45288467      31.18961525      11.77005482
H       38.27763748      30.21740532      12.69631290
H       36.35098648      29.23615646      11.31675243
H       37.57529068      28.42770386      10.30454636
H       36.87858582      29.94181824       8.33549690
H       35.62109375      30.61666107       9.38102913
H       34.92430878      29.42607498       7.02757311
H       33.62313461      29.48377228       8.25250530
H       34.81908417      26.92816544       6.94191074
H       33.50737000      26.93739891       8.14971828
H       31.57659531      28.88614655       7.26701260
H       31.28514481      27.11235809       7.22494936
H       31.08084488      28.10137177       5.76099539
C       11.84908104      37.87717819      20.42148399
O       12.40017128      37.05391312      21.44866180
C       11.91340351      35.70912552      21.39281464
C       12.60025787      35.02851486      22.56761169
O       12.26076508      33.64244080      22.48576546
C       13.00063610      32.92645645      23.48741913
C       12.55094910      31.48740959      23.30415535
O       13.00520515      30.67894936      24.39415550
C       14.39746857      30.35809135      24.38478851
H       10.75920677      37.98292923      20.54623032
H       12.33170795      38.85570526      20.52923393
H       12.05398655      37.45883942      19.42004585
H       12.18765163      35.22446060      20.43446541
H       10.80880547      35.67304611      21.47574043
H       12.28776169      35.45886230      23.53798676
H       13.69519997      35.18186569      22.50036430
H       12.77104187      33.29644394      24.50741768
H       14.08748817      33.04282379      23.31705475
H       11.45100117      31.44609642      23.34136391
H       12.83380890      31.06054878      22.32162094
H       15.03069401      31.23428726      24.15758133
H       14.58314610      29.54974174      23.66062355
H       14.64837074      29.98285294      25.38783646
C       18.54886436      25.83971405       3.15175891
O       19.92764664      25.56937981       2.91961288
C       20.66870117      26.77015114       2.60965943
C       22.12369728      26.32241058       2.54298997
O       22.87504005      27.51365280       2.37257290
C       24.27522278      27.19948387       2.27344108
C       25.02989960      28.50188446       2.01049662
O       26.18381691      28.23961258       1.19481337
C       27.40402985      27.89306259       1.86189461
H       17.99375916      25.96996880       2.20873451
H       18.11578751      24.99097633       3.69979334
H       18.41555405      26.74853516       3.76291871
H       20.50245285      27.52692413       3.39841270
H       20.32993698      27.18574142       1.64587259
H       22.27312088      25.61512947       1.69884038
H       22.40003014      25.79965782       3.47886300
H       24.43744087      26.51017189       1.42394030
H       24.63936043      26.71836853       3.19385266
H       24.37529945      29.15132713       1.40895402
H       25.28178787      29.04021263       2.94239473
H       27.26480484      27.02332497       2.52352929
H       27.78256989      28.72250557       2.47444153
H       28.12911224      27.63943481       1.07674825
C       31.62530518      29.57169724       2.62892103
O       31.41823006      30.58523369       3.59590888
C       32.61749268      31.17021561       4.11833811
C       32.10786819      32.11646271       5.20128012
O       33.24846649      32.71318436       5.79687405
C       32.90806961      33.79967880       6.67349386
C       34.25092316      34.41954422       7.05390453
O       34.03910065      35.62380219       7.82619238
C       33.95364761      36.81947327       7.06222200
H       32.24758911      28.75821304       3.03447509
H       30.64092064      29.14661789       2.39917493
H       32.08652496      29.95049095       1.69925630
H       33.18666840      31.71677017       3.34416175
H       33.27264786      30.40407944       4.56710005
H       31.50333977      31.55025101       5.93972874
H       31.43390083      32.86931610       4.74140692
H       32.35163116      33.47145462       7.57083273
H       32.27919388      34.54396820       6.14918041
H       34.82318878      33.74992371       7.71245432
H       34.83419800      34.63921356       6.14326763
H       32.99924088      36.86556625       6.51290131
H       34.80805206      36.90818787       6.37185287
H       33.97199249      37.64633179       7.78299427
C       30.02786255      24.37511444      36.30982590
O       31.23156548      24.83861923      35.71640778
C       31.69165802      24.01301956      34.63750076
C       33.02264786      24.58315086      34.17021561
O       33.51055527      23.66182137      33.18187714
C       34.72477341      24.16169739      32.59485245
C       35.27859497      23.08767700      31.63935089
O       36.54919052      23.56522942      31.15470314
C       36.47851181      24.39089966      29.99113655
H       30.08233261      23.29575539      36.55967712
H       29.82925415      24.94832230      37.22565460
H       29.16785622      24.51098824      35.62795258
H       30.95966148      23.98069763      33.80549240
H       31.83694649      22.97495461      34.98788452
H       33.73607635      24.67288589      35.00688934
H       32.86944580      25.59057045      33.74091339
H       35.44623566      24.39727020      33.39561462
H       34.50819016      25.09318733      32.04060364
H       35.47546768      22.14564514      32.17534637
H       34.57878494      22.87372208      30.81143570
H       35.81275558      25.25422287      30.13985634
H       36.10914993      23.81455421      29.12644577
H       37.49875259      24.74601746      29.78507233
C       21.55911255      13.10747051       4.81035137
O       21.11269188      14.46754169       4.81836033
C       20.14459419      14.78165150       5.84568405
C       19.88652992      16.27540016       5.71535969
O       19.00161934      16.62135315       6.79225206
C       18.26375008      17.84032631       6.58908701
C       17.47916412      18.03449249       7.88821411
O       16.61797333      19.18143082       7.76032114
C       17.23618698      20.40341949       8.17676449
H       20.71472740      12.41497040       4.95920944
H       22.03274536      12.88154411       3.84274340
H       22.29038811      12.93392467       5.61385012
H       20.50468826      14.53442192       6.86013746
H       19.20069313      14.22843456       5.69334316
H       19.41604042      16.46006393       4.73384857
H       20.83124924      16.84521675       5.78494024
H       17.57139397      17.72788811       5.73371935
H       18.92561340      18.70444870       6.42697763
H       16.81617737      17.18207932       8.08303070
H       18.16647911      18.14409828       8.74736595
H       18.04899025      20.71227455       7.49549341
H       17.62820625      20.34738731       9.20577812
H       16.43462753      21.15906906       8.14674950
C       32.21389389       8.77867222      13.46548843
O       32.31131363      10.17543411      13.77741432
C       31.81069946      10.97557068      12.69778919
C       31.85445976      12.40200806      13.21969414
O       31.15690613      13.19643688      12.24421215
C       31.06931686      14.56135082      12.68297577
C       30.85086060      15.37819576      11.40993404
O       30.79955292      16.78538895      11.71967888
C       29.55896378      17.38590813      12.10765457
H       32.72634125       8.53031635      12.51560307
H       32.63871765       8.21604824      14.30695534
H       31.15893745       8.48278427      13.31728935
H       30.77894783      10.67850304      12.42366505
H       32.41444778      10.82691288      11.77919865
H       32.88877487      12.76694679      13.35993671
H       31.35934258      12.47810078      14.20905876
H       32.00674438      14.89251041      13.17443275
H       30.25540733      14.70482063      13.42006397
H       31.73188400      15.24240303      10.75878429
H       29.96801758      15.05308819      10.83238316
H       29.21879005      17.08589363      13.10847664
H       28.75588036      17.11998940      11.39758587
H       29.70184135      18.47410202      12.08250046
C       17.27321815      37.02417374      36.27706146
O       17.24064255      35.64029312      36.01448059
C       16.27109337      35.28271866      35.02515793
C       16.21271896      33.76530457      35.04488754
O       15.20237827      33.37187958      34.11189270
C       15.26009464      31.96314240      33.84613800
C       14.14952278      31.69296265      32.83608246
O       14.03426075      30.29447746      32.54150009
C       15.14600277      29.73146439      31.83993912
H       16.33551407      37.37113571      36.75059891
H       18.10420990      37.23276520      36.96983337
H       17.42961693      37.59550476      35.34568024
H       16.55167770      35.62568665      34.01117706
H       15.28068733      35.71827698      35.25024414
H       15.98343277      33.42364502      36.06951141
H       17.18098640      33.32695389      34.75974274
H       15.07495689      31.38332367      34.76815796
H       16.24533081      31.67861938      33.43410873
H       13.17173386      31.97749329      33.26451111
H       14.26589298      32.26409149      31.89492607
H       16.06001091      29.72119522      32.45123291
H       15.30913258      30.23195839      30.86919403
H       14.86686707      28.67984962      31.65821457
C       17.86692047      19.26767731      26.45166397
O       18.88133812      18.83483505      25.54880333
C       18.78344917      19.40479660      24.21877861
C       20.10532761      19.02603149      23.57336426
O       19.95867538      19.24282837      22.17082214
C       21.18161201      18.86939430      21.51725006
C       20.92383575      18.76747131      20.02161026
O       22.15310097      18.42076111      19.34457397
C       23.09007454      19.51811409      19.29164696
H       16.93054199      18.70364571      26.27880287
H       18.17403793      19.06329346      27.49211121
H       17.62783813      20.34584808      26.34263992
H       18.63311577      20.50185204      24.26733780
H       17.92735863      18.96144676      23.68279648
H       20.32289314      17.95685768      23.77834511
H       20.91919708      19.63569069      24.02035904
H       21.51929855      17.87928581      21.87260818
H       21.96791840      19.61065102      21.75450516
H       20.21202278      17.95191383      19.80269432
H       20.47524643      19.69522285      19.62396240
H       23.61427498      19.66712379      20.24795532
H       22.56648445      20.45262337      19.00435066
H       23.83956528      19.27197647      18.52075958
C       26.77929497      23.00396919      33.41308212
O       25.82685089      21.93130875      33.49699020
C       25.07863426      21.93521118      34.73036194
C       24.49029541      20.53131676      34.75817871
O       23.55475616      20.43234825      35.83823776
C       22.90262222      19.14816284      35.79306030
C       21.91735077      19.17695236      36.96419144
O       21.46504402      17.84965515      37.29407501
C       20.38988876      17.33963013      36.51842880
H       27.41727257      23.05508232      34.30884171
H       27.41242218      22.79566383      32.53602219
H       26.27507210      23.96925354      33.24897003
H       24.27746010      22.69852448      34.72246552
H       25.71177483      22.13600349      35.61380386
H       25.30424500      19.78624916      34.84149170
H       23.99180794      20.31972694      33.78914642
H       23.62922287      18.31329727      35.88359833
H       22.38265800      19.00667953      34.82740784
H       22.40569878      19.57372284      37.86884689
H       21.06526184      19.83812332      36.74636078
H       20.55301285      17.44290352      35.43536377
H       19.43848038      17.83561134      36.76951218
H       20.28506851      16.27190018      36.75068283
C       28.18964195      28.03936958      30.38354301
O       27.11297226      28.85406876      30.85951805
C       27.12011909      30.15563011      30.22117424
C       26.10407257      31.00954437      30.96195412
O       26.11997795      32.26760864      30.26881981
C       25.40414238      33.30127335      30.95609665
C       25.93630791      34.62495041      30.38516998
O       25.44517517      35.75576401      31.12749100
C       24.02071762      35.95332718      31.06741905
H       29.14963722      28.58203316      30.40943909
H       28.23246002      27.15873146      31.03928375
H       28.01322556      27.69449806      29.34971619
H       26.88541794      30.04645538      29.15106964
H       28.11996269      30.61118317      30.31666565
H       26.39612770      31.14230347      32.02060699
H       25.09475899      30.55826950      30.93838692
H       25.56569099      33.28257370      32.05329895
H       24.31390572      33.22393799      30.77961922
H       27.03254128      34.63077927      30.49143600
H       25.67510223      34.71014404      29.31076241
H       23.45832825      35.23921585      31.69444084
H       23.62519073      35.86612320      30.04439545
H       23.80792999      36.96020508      31.43951607
C       10.20909786      29.00370407      17.89737892
O        8.86064529      28.87205887      17.45036507
C        8.38960552      27.52419472      17.63089180
C        6.89748096      27.59533310      17.32632446
O        6.41166878      26.26183510      17.22692680
C        4.98521423      26.22168732      17.17590523
C        4.61039495      24.82950020      16.66631508
O        3.19812894      24.76528931      16.41948700
C        2.37189651      24.58383369      17.55380058
H       10.87777710      28.38992500      17.25607872
H       10.50191593      30.06277084      17.81834984
H       10.32857513      28.67510605      18.94569397
H        8.59094524      27.15755272      18.65552902
H        8.89926529      26.83573341      16.93040085
H        6.72219324      28.13979721      16.37857437
H        6.35526085      28.15571022      18.11568642
H        4.58609009      26.97215843      16.46693611
H        4.54441071      26.43222237      18.16973495
H        5.10582447      24.62651634      15.70249367
H        4.92670536      24.05345345      17.38074303
H        2.42582393      25.41618347      18.27790070
H        2.57436013      23.63499069      18.07541656
H        1.33583713      24.54237175      17.18091011
C       19.57114220       5.86450100       4.42497015
O       20.86206436       5.97146511       3.86419034
C       21.90534973       5.35843801       4.62463284
C       23.20476723       5.97246122       4.09716845
O       24.28293037       5.54881620       4.94855165
C       25.48865891       6.19366693       4.52817059
C       26.65902710       5.87188101       5.47614288
O       27.87194633       6.43894577       4.87301302
C       28.92813110       5.52228403       4.46242952
H       19.51117897       6.37539148       5.40285397
H       18.87175751       6.36606169       3.74237442
H       19.25114250       4.81624699       4.54735756
H       21.90583801       4.26824808       4.47106552
H       21.79566383       5.55984402       5.70565987
H       23.10160446       7.07304955       4.11904716
H       23.39640808       5.67086744       3.05193877
H       25.34412575       7.28870583       4.48743629
H       25.72478485       5.86827707       3.49123144
H       26.50926590       6.32379532       6.46555710
H       26.76387787       4.77904558       5.58689404
H       28.79854774       5.19695473       3.40929580
H       28.98126030       4.62760258       5.10407972
H       29.88635063       6.05115938       4.55124998
C       25.98088074       8.62987232      21.35322762
O       25.69768906       7.34540415      20.77382278
C       24.52554512       6.76481819      21.37070465
C       24.49294090       5.32507038      20.87788582
O       23.47493744       4.64525175      21.63167381
C       23.32008171       3.30330515      21.12537384
C       22.19750404       2.67247319      21.93139839
O       21.86183357       1.39867890      21.35525131
C       20.84504128       1.43892431      20.35875130
H       26.02971077       8.59836388      22.45492744
H       26.95084572       8.97309780      20.95650101
H       25.19026947       9.34958076      21.07665443
H       23.61115837       7.30876970      21.05440331
H       24.56400871       6.81912613      22.47694778
H       25.48089409       4.84860945      21.02014351
H       24.28439140       5.27103567      19.78865051
H       24.25458527       2.72094512      21.21726227
H       23.04418564       3.32850409      20.05297470
H       22.49147415       2.51165676      22.98126221
H       21.30590630       3.32125068      21.97082520
H       21.11198425       2.06128812      19.48701096
H       19.88871574       1.80631471      20.76056290
H       20.67209816       0.40193626      20.03179550
C        8.06249332      23.96059608      11.45888615
O        7.55867290      23.87432289      10.13082123
C        6.14329338      24.14117622      10.07206154
C        5.73711157      23.94771767       8.61772728
O        4.35609818      24.28309441       8.50907612
C        3.92886043      24.15885544       7.15660095
C        2.44007158      24.52384186       7.09582090
O        2.01158643      24.39203262       5.73652458
C        2.08821678      25.61274338       4.99447012
H        7.58665085      23.20984650      12.10744095
H        9.14376831      23.78057671      11.45547867
H        7.87694645      24.94489098      11.91486454
H        5.92271185      25.16460037      10.41902351
H        5.57972193      23.45132828      10.71843624
H        5.91804790      22.90274239       8.30846310
H        6.35365534      24.60615540       7.98071814
H        4.06976795      23.13183022       6.77625322
H        4.49323750      24.84916687       6.50103521
H        1.85326529      23.80167389       7.69950724
H        2.24125957      25.52897453       7.50627375
H        3.11485434      26.00300217       4.95783186
H        1.42211938      26.37237740       5.42939854
H        1.74444175      25.36277771       3.98045516
C        1.61554015       7.55616140      17.64927292
O        1.38460374       8.21539402      18.89058685
C        1.90309203       7.54705954      20.04257011
C        1.16845870       8.20438385      21.22735596
O        2.03847361       8.20356655      22.37357903
C        1.57902217       8.99386501      23.48212242
C        2.60768604       8.86173820      24.61412239
O        2.37421894       9.87833691      25.60122871
C        3.28547812      10.96614361      25.63863564
H        1.03543878       6.62550163      17.59535217
H        1.25613701       8.21554089      16.85622978
H        2.67932010       7.36022902      17.48251152
H        2.98429751       7.73256302      20.13595390
H        1.72063589       6.46346855      19.99906349
H        0.21987636       7.68245602      21.44289970
H        0.89492202       9.23688889      20.95370293
H        0.56626689       8.70384789      23.80558205
H        1.53475201      10.05879307      23.20273018
H        2.48205566       7.89017963      25.11576271
H        3.63058066       8.90167522      24.20757675
H        3.05505157      11.72309494      24.87221718
H        4.33196354      10.64612865      25.50330734
H        3.20611811      11.45242500      26.62434196
C        6.09440231      36.49904633      38.55778885
O        6.41792583      35.89025879      37.32304764
C        5.36505318      35.74528503      36.36912537
C        5.97290468      34.88822174      35.26306152
O        5.02975273      34.84114838      34.19981003
C        5.46908283      34.06675720      33.09221649
C        4.35602140      34.13284683      32.03805161
O        4.79533672      33.59350586      30.78944206
C        5.53960943      34.51274872      29.99740410
H        5.30963469      35.93903732      39.08824921
H        6.99501085      36.46496201      39.18793869
H        5.76601362      37.54759979      38.43894958
H        5.04077721      36.72830582      35.98659515
H        4.49509764      35.23963928      36.81858063
H        6.21581078      33.88410187      35.64847565
H        6.92333460      35.35805511      34.93168640
H        5.66739893      33.01339340      33.36439514
H        6.41796541      34.46652603      32.67740631
H        3.50144362      33.52281189      32.36266327
H        4.01299763      35.17590332      31.92890167
H        6.45305490      34.85153580      30.50793266
H        4.92025423      35.38634109      29.73709106
H        5.83543110      33.98274231      29.08179092
C       38.81239700      17.15709114      27.46342468
O       38.29774475      16.04039383      26.75313568
C       37.24070358      15.35867023      27.41997337
C       37.01175690      14.17076206      26.50132942
O       36.19290543      13.20018291      27.16649818
C       36.03298187      12.05608654      26.31909561
C       35.05168533      11.13774586      27.04078865
O       34.88351822       9.97436428      26.22057915
C       33.60162354       9.79513550      25.62960052
H       39.22842026      16.88393402      28.44932365
H       39.61906433      17.58193779      26.85256767
H       38.04908752      17.93161964      27.63264847
H       36.32215118      15.97064209      27.51616287
H       37.53688431      15.04744625      28.43631744
H       37.99925613      13.72976971      26.26469803
H       36.56204987      14.48478603      25.54294968
H       36.98807526      11.52141666      26.14621162
H       35.61597061      12.32569599      25.32917213
H       35.45027161      10.85608768      28.03190231
H       34.09798050      11.65903091      27.22543144
H       33.38547134      10.59053707      24.89569473
H       32.78781891       9.79168510      26.37261772
H       33.57251358       8.81943226      25.12478828
C       28.85567665       9.57591629       4.77575874
O       29.53381348      10.83098888       4.89222097
C       29.52524567      11.47526073       3.59538531
C       30.33411407      12.74354553       3.77705932
O       30.33505630      13.35803318       2.49288106
C       31.03801155      14.59778118       2.58045435
C       30.98852539      15.23790169       1.19108582
O       31.65489960      16.50279617       1.28711188
C       30.86180305      17.57319260       1.81903803
H       29.35216904       8.95046139       4.00337648
H       28.89079857       9.04860687       5.73740387
H       27.79440689       9.73514748       4.48453093
H       28.49347305      11.71266365       3.28593111
H       29.96580696      10.81924725       2.81957293
H       31.35571289      12.49781990       4.12070894
H       29.86259460      13.39132309       4.54622650
H       32.08635330      14.43560791       2.88622737
H       30.56367302      15.25918674       3.33552027
H       31.52049065      14.61844349       0.44909155
H       29.95026207      15.33890343       0.83993685
H       30.42770386      17.36461639       2.81073499
H       30.02024841      17.80062866       1.14601457
H       31.52536201      18.44415665       1.92518747
C       29.36937332      38.70728302      19.28864098
O       29.26525116      37.43664932      18.64259911
C       29.20131874      37.50908279      17.20271111
C       29.36598969      36.07253647      16.75479126
O       29.31384468      36.02271271      15.31802273
C       29.33153534      34.66462708      14.86183548
C       29.32781219      34.76602554      13.34575081
O       29.13430595      33.51985550      12.65527821
C       30.26133537      32.65357208      12.53651810
H       28.45014000      39.30138397      19.13201332
H       29.48476028      38.55953598      20.37400436
H       30.24433517      39.26908112      18.92032242
H       30.01986694      38.13417435      16.81048203
H       28.23496056      37.93440247      16.87517929
H       28.55304718      35.45459747      17.17137909
H       30.33102417      35.67556763      17.11646461
H       28.43772507      34.12316513      15.22225666
H       30.23841286      34.12928009      15.20774937
H       28.46208763      35.38160706      13.04325390
H       30.25206566      35.25339890      12.99953270
H       30.48049927      32.18732071      13.50972748
H       31.15442848      33.14718246      12.12055588
H       29.96140480      31.83991051      11.85364628
C        2.32705355      30.28164864       2.62916684
O        3.13908219      30.96100807       1.69132686
C        3.92359424      32.02070618       2.25828862
C        5.24671555      31.94305801       1.50640500
O        6.11332178      32.94191742       2.03340554
C        7.35224533      32.99307632       1.29335535
C        8.10201836      34.23317719       1.77583659
O        9.18565845      34.50825119       0.88020569
C       10.40540123      33.79782486       1.12300539
H        1.47491491      30.89199066       2.97686434
H        1.95348728      29.37736893       2.13306332
H        2.90561175      29.98301697       3.51689839
H        4.07095861      31.88976669       3.34222150
H        3.42130852      32.99245453       2.12126517
H        5.08970022      32.05876923       0.41604912
H        5.68071556      30.93333244       1.66514695
H        7.14761448      33.06120682       0.21018277
H        7.94020319      32.07173157       1.44812286
H        7.42295504      35.09815216       1.71593499
H        8.42050934      34.15598679       2.83215618
H       10.30928612      32.73559570       0.84659863
H       10.72783184      33.91036224       2.16996551
H       11.17173100      34.24613953       0.47412622
C       12.87767982       4.01534319      18.70500183
O       11.61400509       3.68012452      18.14894867
C       10.53270054       3.76142788      19.07893372
C        9.38969517       3.04564357      18.36677361
O        8.25411797       3.13713193      19.22535896
C        7.13489008       2.47140193      18.65272331
C        6.00594616       2.71487474      19.65726852
O        4.79770803       2.13095546      19.17376518
C        4.02483511       2.96213222      18.33018303
H       13.20643616       3.27696633      19.45296097
H       13.61519814       4.02347517      17.89741516
H       12.86558628       5.00264788      19.19064331
H       10.25008011       4.80615187      19.29864120
H       10.76742935       3.27714539      20.03968430
H        9.67164040       2.00084019      18.16149330
H        9.19404411       3.52310371      17.39117241
H        7.33045387       1.39441144      18.50038910
H        6.86753988       2.91267705      17.67498016
H        6.23789501       2.23987460      20.62596893
H        5.87780857       3.79532814      19.84873772
H        4.41403008       2.99977207      17.29795647
H        3.93526697       3.97888851      18.73160744
H        3.01811337       2.52874637      18.29321671
C       31.57766914      20.55479050      22.46206284
O       31.12184525      21.46895599      23.45856857
C       32.11289978      21.77418137      24.47282982
C       31.40225220      22.74545097      25.39706421
O       32.32083893      23.11090469      26.42623711
C       31.81612396      24.15938187      27.26206589
C       32.93439484      24.41927719      28.27677536
O       32.49045181      25.25924492      29.36657906
C       32.41046524      26.65678787      29.12015152
H       31.76677322      19.55634499      22.89936256
H       30.77984810      20.45832634      21.70746803
H       32.49416351      20.92951012      21.97538185
H       33.01499176      22.22984123      24.02297974
H       32.41331100      20.85562325      25.00736237
H       30.49463272      22.28350258      25.82458878
H       31.05577850      23.62866402      24.82604027
H       30.88386726      23.86453438      27.77497864
H       31.57543945      25.06229019      26.66678619
H       33.20760727      23.46022987      28.75433540
H       33.83314133      24.84596634      27.78982735
H       31.55742264      26.91804886      28.47656822
H       33.34582138      27.04098511      28.68062019
H       32.24177933      27.13231277      30.09384918
C       30.12103271      29.85948563      15.19659615
O       29.17000580      28.90790367      14.70318794
C       28.29156113      29.55028343      13.75205326
C       27.47897530      28.48724365      13.03679466
O       26.65176582      29.16615486      12.08692360
C       25.75275993      28.24686050      11.44281387
C       24.95754433      29.05004501      10.41807652
O       23.84807396      28.28506470       9.89914513
C       24.08695221      27.65538216       8.63410473
H       29.62918854      30.68263626      15.74738407
H       30.81190109      29.34035873      15.87244415
H       30.69352531      30.28938484      14.35237217
H       28.86995125      30.10762978      12.99352169
H       27.63452721      30.27326393      14.27060127
H       26.86466408      27.89778709      13.74421310
H       28.13311005      27.75325584      12.51674461
H       25.06929207      27.78482819      12.18003845
H       26.30168915      27.43386078      10.92785454
H       24.51242447      29.94301796      10.89899445
H       25.60288048      29.41428375       9.59932613
H       24.92927551      26.95311737       8.65647221
H       24.24940681      28.38283348       7.82135725
H       23.18515968      27.07406235       8.39425468
C       11.27263355      10.81913948      20.20001221
O       11.13290024      10.57099819      21.60252953
C       10.54285336       9.29264355      21.84808731
C       10.32024384       9.31035614      23.36333656
O        9.48923111       8.19361115      23.70553780
C        9.20027733       8.27923107      25.10890961
C        8.22741032       7.14369059      25.41908264
O        7.78749084       7.30749464      26.77045250
C        8.55055714       6.69751501      27.78972626
H       10.29019928      10.77528381      19.70296478
H       11.69867802      11.82532024      20.09345436
H       11.93474960      10.08146381      19.72240257
H       11.19145107       8.45770741      21.52190399
H        9.57632828       9.21263027      21.31895065
H        9.81396961      10.25019646      23.65415192
H       11.27205467       9.27207565      23.91648102
H        8.71447086       9.24153805      25.35978127
H       10.10954475       8.20437527      25.72623062
H        7.34098005       7.25236273      24.77782059
H        8.68639946       6.16097450      25.23051643
H        9.49700165       7.21708298      27.98974609
H        8.74883652       5.63960934      27.55374718
H        7.94986534       6.72265387      28.71286011
C        5.23776197      19.26240349       9.51016140
O        5.61235619      18.26960754       8.55315590
C        4.67589712      18.03275490       7.48722839
C        5.16605663      16.75754356       6.80369139
O        4.40435123      16.61257935       5.60252094
C        4.53487396      15.30396271       5.04526281
C        3.68157458      15.25243282       3.77242589
O        3.78082705      13.98114109       3.13297176
C        4.88266087      13.79141808       2.25180411
H        4.30954504      18.97719193      10.03003311
H        6.05918789      19.33926201      10.23652077
H        5.09042835      20.23909950       9.02027798
H        4.67373657      18.87838173       6.78133917
H        3.64667988      17.89093971       7.86775541
H        5.02755833      15.90094852       7.48847055
H        6.24449635      16.84277916       6.57778645
H        4.21164227      14.53803825       5.76910543
H        5.58495188      15.09939957       4.76642323
H        2.62230945      15.41834831       4.03794527
H        3.98476744      16.06037140       3.08334136
H        5.82508135      14.14919281       2.67991710
H        4.72814846      14.29266167       1.28441250
H        4.98760271      12.71547699       2.05831075
C       31.87522697      28.48846436      36.77086639
O       30.50844765      28.23785400      36.50166321
C       29.67170334      28.44801140      37.64623642
C       28.26567459      28.15849876      37.14006042
O       27.37472153      28.29440308      38.25301743
C       26.00928116      28.28015900      37.81972504
C       25.15576363      28.62219620      39.04663086
O       23.78483582      28.76720428      38.55888748
C       22.92324066      29.60597038      39.32109833
H       32.26742172      27.76739120      37.50480652
H       32.43083572      28.34411049      35.83832932
H       32.03221130      29.51768684      37.13267136
H       29.75099182      29.48954201      38.01077271
H       29.94894409      27.77933121      38.47970200
H       28.21580315      27.14752579      36.69766998
H       28.02100754      28.88320923      36.34010315
H       25.72663116      27.29407120      37.40401459
H       25.83526802      29.03537178      37.03425598
H       25.19544792      27.81259155      39.78868103
H       25.48384476      29.53300095      39.56768417
H       22.94654846      30.64926720      38.95576859
H       23.15117264      29.60263252      40.39555359
H       21.89746284      29.22942162      39.20447159
C       16.35530663      15.92001820      18.28622055
O       16.83717537      14.65352535      17.83640671
C       16.62283707      13.58028889      18.76180267
C       17.04192162      12.35701180      17.96047401
O       16.85927963      11.21103287      18.79156113
C       17.05921173      10.03767872      17.99771690
C       16.86799622       8.85676861      18.93357468
O       17.12159157       7.61708546      18.23164940
C       16.07812309       7.05831623      17.44518089
H       17.03150177      16.37660789      19.01851082
H       16.26882362      16.57058716      17.40140343
H       15.35300350      15.84915161      18.74735641
H       15.55591297      13.53144646      19.06283188
H       17.21688843      13.70977592      19.68650627
H       18.09002876      12.45037270      17.61490059
H       16.42423058      12.28970242      17.04392624
H       18.07414436      10.01349735      17.55276489
H       16.32457924       9.98529530      17.16627693
H       17.57567596       8.91066647      19.78129768
H       15.85661411       8.88029575      19.37915993
H       15.93010330       7.58391380      16.48992538
H       15.11886501       7.05428410      17.98160172
H       16.34887314       6.01181507      17.24924850
C       21.05002403      25.97391701       6.73554420
O       22.18758965      25.10321808       6.73691988
C       21.96507263      23.83030891       6.09467316
C       23.35933304      23.24945831       6.00485277
O       23.25304604      21.99332237       5.30851269
C       24.57078552      21.52549934       4.97624922
C       24.40620041      20.21554184       4.21119595
O       25.69803047      19.64253807       3.93982601
C       26.50034714      20.33786583       2.97131538
H       20.17231941      25.49238396       7.19994307
H       21.29831314      26.88940048       7.28823853
H       20.77319908      26.24577141       5.70157623
H       21.53124237      23.96239090       5.08247948
H       21.25890732      23.21619606       6.68175840
H       23.78848457      23.10990715       7.01476288
H       24.01063538      23.93965912       5.44467258
H       25.15924263      21.36418724       5.89676523
H       25.08829689      22.26310539       4.33658504
H       23.85024261      19.48771667       4.82653809
H       23.83934975      20.36760330       3.27253962
H       26.82497025      21.32546997       3.32003546
H       25.96112061      20.42417526       2.01299596
H       27.38685608      19.70920563       2.80496430
C       38.56613922      20.03476334      30.21443748
O       37.60471725      20.10263634      29.16916275
C       36.33486557      19.59058762      29.58824921
C       35.36801529      19.78674507      28.43122482
O       34.13746643      19.22635078      28.90275764
C       33.07150650      19.43868256      27.96515274
C       31.83490372      18.85106659      28.65481186
O       30.66213226      19.11627579      27.86555099
C       30.00090408      20.32176018      28.24278831
H       38.78403854      18.98733711      30.48664474
H       39.48844910      20.51069641      29.86618805
H       38.21235275      20.55149269      31.12144470
H       35.97599792      20.12247086      30.48890686
H       36.39780426      18.51609612      29.83761406
H       35.71612549      19.26131248      27.51960564
H       35.25564194      20.86045837      28.19761276
H       33.24824142      18.91502380      27.00218010
H       32.91462326      20.51431274      27.76976776
H       31.92201996      17.75419235      28.71724892
H       31.70952415      19.25033569      29.68018341
H       30.62522697      21.20822144      28.04695320
H       29.68669891      20.33343315      29.29960060
H       29.08427238      20.37978745      27.63410568
C       30.89217567      22.31591606      16.05274391
O       32.09384155      21.90600777      15.40140724
C       31.94110489      20.92452431      14.36518574
C       33.28549957      20.22402000      14.30385494
O       33.15610886      19.27657890      13.24011230
C       34.36325836      18.53496361      12.99619579
C       33.92421341      17.36405182      12.13741684
O       34.96741867      16.37141609      12.06386375
C       35.95878983      16.66968155      11.05735683
H       30.33265495      21.45907211      16.45381546
H       31.15673828      22.96307564      16.90111732
H       30.22913170      22.86252975      15.35686016
H       31.72086906      21.39998627      13.39110947
H       31.12708282      20.20533943      14.57791233
H       33.47459030      19.74432945      15.28077602
H       34.09196091      20.95005226      14.10786533
H       34.79619217      18.19417953      13.95570850
H       35.09613419      19.16420746      12.46287060
H       33.06704330      16.89890671      12.64089203
H       33.56072617      17.66968536      11.14030933
H       36.36399460      17.68381882      11.15631580
H       35.53537750      16.57463264      10.04419136
H       36.75651169      15.92535686      11.16355228
C       19.72868347       4.94135761      17.73272133
O       20.38650703       6.18729925      17.50363731
C       20.73616219       6.91804695      18.70127678
C       21.14047813       8.29314899      18.23197365
O       21.54961395       9.03658104      19.38433266
C       21.94832230      10.35918045      18.98760986
C       22.67470169      10.91962814      20.20398521
O       23.04235649      12.29072952      19.97959900
C       24.25913239      12.45401573      19.21483994
H       18.72659492       5.07950258      18.16543198
H       19.61245155       4.43653297      16.76303482
H       20.29846191       4.28623581      18.41212845
H       21.56654739       6.42456627      19.23832512
H       19.88014221       6.97363615      19.39777946
H       20.27658653       8.77195072      17.72708130
H       21.95908737       8.20438957      17.48980331
H       21.05707550      10.95175934      18.69797516
H       22.61477470      10.30507469      18.10715485
H       22.02842903      10.91448593      21.09703636
H       23.56613159      10.30399036      20.42514801
H       24.08332443      12.28385353      18.13561249
H       25.04372025      11.76250839      19.55810356
H       24.58391571      13.48764801      19.38613892
C       31.56852722      39.22352982      31.11312294
O       31.07482338      38.28763199      32.05022812
C       30.51425362      37.13715744      31.40128899
C       30.11621666      36.22982025      32.55167770
O       29.73851967      34.99246597      31.96746445
C       29.46136284      34.04256821      33.01424789
C       29.46045685      32.68247604      32.33153152
O       28.66463852      31.81744957      33.16221619
C       29.31245804      30.59111023      33.46732712
H       30.75041771      39.75163651      30.59514999
H       32.16513824      39.95273972      31.67409515
H       32.20133209      38.72757721      30.35495567
H       31.25010681      36.63774490      30.74892807
H       29.63644981      37.39190674      30.77915955
H       29.28791237      36.67676544      33.13465881
H       30.97555351      36.10483551      33.23093033
H       28.46907616      34.24954987      33.45214462
H       30.22765350      34.10836029      33.80668259
H       28.99588966      32.74105072      31.33048248
H       30.48575401      32.30065155      32.20548630
H       30.26381493      30.75995827      33.98903275
H       29.49248505      29.98068047      32.56212616
H       28.61701775      30.04045677      34.11375809
C        4.57321787      27.90329742       7.83810616
O        5.84385204      27.58307457       7.25454330
C        6.94152117      27.73367882       8.18570518
C        8.15150356      27.18546867       7.44532299
O        9.21916676      27.25104713       8.38672543
C       10.42636108      26.64981461       7.90120506
C       11.29230213      26.51376915       9.14640331
O       12.63099384      26.13176155       8.77135944
C       12.92711830      24.74012566       8.66124249
H        4.57261610      28.87458992       8.35291386
H        3.82619095      27.94143867       7.03044939
H        4.25449419      27.12892723       8.55552769
H        6.74188805      27.16968727       9.11032677
H        7.06247234      28.79117012       8.46743488
H        8.35028839      27.80034637       6.54896975
H        7.95371389      26.15629005       7.09358549
H       10.92337704      27.29630661       7.15573311
H       10.24460602      25.67143440       7.42085218
H       11.35324669      27.48540688       9.65343094
H       10.82880592      25.80006790       9.84383392
H       12.38307095      24.25868416       7.83092880
H       12.68750858      24.21393013       9.60078430
H       14.00439835      24.63068199       8.46844769
C       24.30645180      14.52297878      31.19418716
O       23.14548302      14.13444614      30.45306015
C       21.98279953      14.93341351      30.79106903
C       20.78001785      14.39493942      30.04018784
O       19.63787079      15.14664936      30.49395943
C       18.63048744      15.23005676      29.48032951
C       17.38435173      15.82840252      30.14091301
O       16.32096672      15.82929134      29.16910553
C       16.30889893      17.04098511      28.41979599
H       24.27247620      14.13227844      32.22249222
H       25.18670654      14.11209679      30.68169975
H       24.39859772      15.62247562      31.23599052
H       22.16019249      15.97302818      30.47799683
H       21.80904388      14.95882797      31.87784195
H       20.63335228      13.31322765      30.17735672
H       20.88332939      14.52643394      28.94442368
H       18.35574722      14.23253155      29.08612823
H       18.96291351      15.84030533      28.61523438
H       17.03679276      15.18835735      30.97746468
H       17.54002571      16.84507561      30.56098366
H       17.26335907      17.18125916      27.87920380
H       16.12889671      17.91229630      29.07964897
H       15.48663425      16.96584511      27.68319893
C       27.58726692      14.21790504       9.54454517
O       27.39618492      13.09166431      10.42792511
C       26.64026833      13.43752003      11.60525990
C       25.89143753      12.17346668      12.00090218
O       25.26109695      12.45666313      13.26047039
C       24.37801361      11.40188503      13.67288971
C       24.09994316      11.75147247      15.14280987
O       23.31915092      10.74409389      15.79639053
C       21.91633606      10.88888645      15.54620552
H       27.98306465      15.08303070      10.09887791
H       28.27143478      13.90287304       8.74185371
H       26.62345695      14.48619175       9.08307838
H       25.89594078      14.23343372      11.39374733
H       27.28728104      13.79342079      12.42860699
H       26.57002449      11.30226707      12.08004189
H       25.14250946      11.94054031      11.21793747
H       24.85420418      10.40911007      13.57655525
H       23.46763802      11.38906288      13.04558849
H       25.04893684      11.81375408      15.70049858
H       23.58811188      12.72250938      15.24270248
H       21.67571068      10.97316360      14.47484684
H       21.47732925      11.75513744      16.07044983
H       21.41643524       9.97473717      15.91438198
C       28.76711082       8.54636192      23.99347115
O       28.37389374       7.59106064      24.99490738
C       27.08149529       7.09822369      24.64321518
C       26.56814766       6.22338772      25.77743912
O       25.23406792       5.90210533      25.36385345
C       24.52020645       5.07229137      26.28759003
C       23.19295883       4.82454872      25.55407143
O       22.29266548       4.07830811      26.38739586
C       22.59329414       2.68803525      26.45994949
H       28.08308220       9.41232967      23.99132538
H       29.79216576       8.87398720      24.21038437
H       28.74848175       8.10942459      22.98164177
H       27.10127258       6.52237320      23.69258881
H       26.35415649       7.92428303      24.49722290
H       26.55953598       6.76336765      26.74213028
H       27.17288589       5.30817413      25.89450836
H       24.35040092       5.58910227      27.25008392
H       25.06214905       4.12911463      26.47314453
H       22.67985535       5.78271484      25.36256790
H       23.35905647       4.33183336      24.57990456
H       23.60035133       2.51250839      26.87068939
H       22.50271797       2.20040607      25.47263145
H       21.84750366       2.24109268      27.13344574
C       22.42443848      14.33393383      13.31690025
O       21.54640770      15.15080929      12.52783489
C       22.24946404      16.38064766      12.22123241
C       21.27122879      17.22607613      11.42857552
O       21.97362709      18.44173050      11.15289116
C       21.23450661      19.25702667      10.23856163
C       22.18519783      20.32208443       9.67229939
O       21.46889877      21.02373314       8.63543892
C       21.41410828      20.33294487       7.37738466
H       22.77236557      14.84575272      14.23092842
H       21.83371925      13.44263077      13.59825897
H       23.31504250      14.02615643      12.73743153
H       23.15945435      16.15907478      11.63041401
H       22.58459091      16.87276077      13.15211582
H       20.33514786      17.40940475      11.99238300
H       20.97213936      16.70914459      10.48965454
H       20.35556793      19.71850204      10.73628521
H       20.83310509      18.65020180       9.40279675
H       22.49123383      21.06479645      10.43002319
H       23.09336090      19.84727097       9.26024055
H       21.06900978      19.29176521       7.47906494
H       22.39426422      20.34429169       6.88152647
H       20.68022346      20.85601234       6.74532270
C       13.05390453      38.65982437      31.34080887
O       14.07401085      39.00886536      30.42836571
C       15.14865589      38.06479645      30.31129646
C       16.04701996      38.66112900      29.23915863
O       17.18424416      37.82369995      29.04307365
C       18.03058243      38.43676376      28.05216980
C       19.19619751      37.50133896      27.68063927
O       20.17760086      38.26903915      26.96584511
C       19.76791954      38.71487427      25.66215706
H       13.42278004      38.56431580      32.37899017
H       12.29150677      39.45108414      31.31614685
H       12.56584358      37.71383667      31.05041695
H       14.78743458      37.07595062      29.97743797
H       15.65671253      37.92932510      31.28558540
H       16.34398842      39.68698883      29.52919006
H       15.47371006      38.73907089      28.29147720
H       18.39888763      39.40533447      28.44162750
H       17.42947960      38.64142227      27.14612198
H       19.69623184      37.10452652      28.58184624
H       18.84539413      36.64192200      27.07217979
H       18.86513329      39.34399796      25.67649078
H       19.56835556      37.86378479      24.99110985
H       20.60074615      39.29781723      25.24019814
C       28.88461876      31.10750008      26.28009605
O       27.64645767      30.63679504      26.80816841
C       27.07056999      29.66585159      25.92142487
C       25.79452324      29.17292595      26.57082748
O       25.19843102      28.29253197      25.61210442
C       24.13975906      27.52218246      26.17567253
C       23.79124451      26.51365662      25.08970642
O       22.75677681      25.63055801      25.55600357
C       23.36419296      24.52150726      26.23032379
H       28.73314476      31.57856369      25.29022026
H       29.28028297      31.85750580      26.97803116
H       29.61285210      30.28838158      26.14993286
H       27.74563599      28.80980301      25.73464584
H       26.82533646      30.11867714      24.94153595
H       25.10912704      30.00317574      26.83556747
H       26.01415062      28.64337158      27.51825714
H       23.26309395      28.16473579      26.42378235
H       24.43414688      27.01608849      27.11294937
H       23.37109566      27.01596451      24.20388222
H       24.66786957      25.94368362      24.73259163
H       24.04843712      24.82632256      27.03687668
H       23.91963005      23.91169357      25.49437523
H       22.54387665      23.93093300      26.66692543
C       20.91880989      26.31775856      38.28020096
O       19.65441322      25.98932838      38.87814331
C       18.62494278      25.94025421      37.87767792
C       17.31446838      25.70974541      38.61675644
O       16.27095795      25.56118584      37.63619232
C       15.00036430      25.39486694      38.30288315
C       13.95762825      25.08528900      37.22955322
O       12.73601055      24.70025444      37.90282822
C       12.46477699      23.29065895      37.97308350
H       20.82205963      27.20423508      37.63574982
H       21.65609550      26.49617577      39.07301331
H       21.27981186      25.48618126      37.65404129
H       18.79349327      25.12550163      37.14654922
H       18.55441666      26.88908195      37.31925201
H       17.08039093      26.55617905      39.28999329
H       17.37661743      24.79708481      39.23234177
H       14.73784542      26.31727982      38.85652542
H       15.04553699      24.56903839      39.03454971
H       13.70631599      25.98280907      36.63834000
H       14.29703903      24.30734062      36.52213287
H       12.94492245      22.81350136      38.84353256
H       12.77535057      22.76507568      37.04885864
H       11.37395573      23.17115784      38.06908798
C       20.11492157       9.15711021      31.96416664
O       19.71330643       8.94050694      33.31824112
C       18.30635071       9.16785622      33.50706482
C       18.12255669       9.17260933      35.01528168
O       16.71589279       9.28471375      35.26667786
C       16.47150803       9.35678673      36.67559814
C       14.94562340       9.25224495      36.80742645
O       14.63678646       9.22024059      38.22036743
C       14.69103241       7.98063946      38.88403702
H       19.76016808      10.13045883      31.58928871
H       21.21192741       9.13817406      31.92959976
H       19.73152924       8.37947845      31.28334808
H       17.71424484       8.37925625      33.01328278
H       17.97719383      10.14030933      33.10169601
H       18.65923882      10.02199841      35.47292709
H       18.51350594       8.24261951      35.46240234
H       16.81759644      10.32200336      37.09100723
H       16.97462273       8.54808331      37.22747040
H       14.45253086      10.15156269      36.39106750
H       14.55858994       8.37279987      36.26756668
H       15.72209930       7.60384989      38.99855042
H       14.07463074       7.22101259      38.37208557
H       14.26098633       8.11671829      39.88858032
C       15.40448380       6.48143005      27.41415596
O       16.60517693       7.14094734      27.03459930
C       17.64665985       7.20599318      28.04543495
C       18.86083984       7.75787020      27.31056213
O       19.90654373       7.95093346      28.27072906
C       21.07078362       8.46697330      27.60495567
C       21.99141693       8.95726204      28.72822952
O       23.19801140       9.52036476      28.17501640
C       24.16706467       8.59946346      27.66366577
H       15.04027557       6.80353975      28.40050125
H       14.64277649       6.73248625      26.66469193
H       15.54188728       5.38763952      27.43836212
H       17.84336090       6.20646954      28.46044159
H       17.30570984       7.85899687      28.87366104
H       18.57404518       8.72231102      26.85191917
H       19.15917969       7.06557846      26.50116920
H       20.80678368       9.28341866      26.90677071
H       21.54211998       7.67782259      26.99019051
H       21.50715637       9.76407909      29.30173683
H       22.20886230       8.13769436      29.43369675
H       23.82985687       8.09043121      26.74598312
H       24.39984131       7.82808590      28.41783524
H       25.07380676       9.17829704      27.43643951
C       30.98046112      25.23612785       4.46043301
O       32.07723999      25.23191261       3.55452251
C       33.27628708      24.75508881       4.18118382
C       34.29619217      24.54993439       3.06737566
O       35.41582489      23.97629166       3.74012804
C       36.48262787      23.61725807       2.87156868
C       37.57056427      23.09946251       3.81939960
O       38.81160736      22.91190147       3.10998225
C       39.05135345      21.65291023       2.49499273
H       31.22769356      25.70490837       5.42489100
H       30.15190887      25.80925941       4.03314447
H       30.61213875      24.21755409       4.65137339
H       33.10218430      23.78653145       4.67484760
H       33.62714386      25.47323036       4.94320393
H       34.55600357      25.50439644       2.58113074
H       33.89245224      23.86956787       2.29770255
H       36.86551285      24.48391342       2.30445457
H       36.17734909      22.84231567       2.14468098
H       37.74773026      23.85270500       4.60231352
H       37.22623062      22.18727493       4.33569145
H       38.26548004      21.37669182       1.77397013
H       39.13043976      20.85150719       3.24945712
H       40.01466370      21.71733475       1.96484220
C       29.17486572      10.25430202      19.28886414
O       29.09773254       9.08410645      20.09754372
C       28.86799049       7.94486666      19.24408150
C       28.87270164       6.72890854      20.14293098
O       28.32237244       5.64394999      19.38059807
C       28.52682114       4.40027237      20.05102921
C       28.09177208       3.33971310      19.03727722
O       27.96395683       2.05264616      19.67700577
C       29.19036865       1.58761966      20.25727654
H       28.18549728      10.46802330      18.83081055
H       29.47921562      11.09251213      19.92381477
H       29.90421486      10.12962818      18.46258736
H       29.65657425       7.86686134      18.47594833
H       27.90043449       8.03009415      18.70940208
H       28.28378105       6.90265751      21.06142044
H       29.90783119       6.51458740      20.46473694
H       27.92598152       4.33072376      20.98036766
H       29.59439278       4.27674484      20.30795670
H       27.10121536       3.56101704      18.60742378
H       28.79115677       3.29512024      18.17389488
H       29.47405434       2.12410545      21.17993927
H       30.03052330       1.67392755      19.54131317
H       29.04323387       0.52422214      20.49169159
C       19.70960999      39.39772797      33.15249252
O       20.41145134      39.93426132      32.04838943
C       21.00569916      38.93652725      31.20740891
C       21.73825073      39.67476273      30.09714127
O       22.29735374      38.68624496      29.24336624
C       22.93275070      39.28177261      28.11180496
C       23.40200233      38.14464951      27.18490410
O       24.21066475      38.69469070      26.12318993
C       23.51910973      39.07711792      24.93270874
H       20.37756157      38.85383224      33.84598160
H       19.24212456      40.22636414      33.70100403
H       18.90426064      38.71683121      32.83654785
H       20.23347282      38.29343033      30.75390816
H       21.69933128      38.29360580      31.77622223
H       22.50901031      40.34066772      30.52135658
H       21.00634193      40.29373932      29.54476929
H       23.77749443      39.90998077      28.44509315
H       22.21055794      39.91727448      27.56728554
H       24.02055740      37.41800690      27.73689270
H       22.52438736      37.61132812      26.77835464
H       22.71837425      39.80949020      25.12237549
H       23.04730034      38.20939636      24.43704796
H       24.25732231      39.51108932      24.24299240
C       12.49714565      21.77294731       6.41658640
O       13.92426586      21.76431847       6.42647219
C       14.51043320      21.93805313       5.10698605
C       15.97649002      21.60405922       5.31478453
O       16.52616310      21.41845131       4.00643349
C       17.90616989      21.04265785       4.11378670
C       18.34334564      20.70365143       2.68291259
O       19.71972656      20.29310036       2.65648580
C       20.61211014      21.41498756       2.64109206
H       12.08741283      21.07586861       5.66702747
H       12.13504219      21.46125412       7.40762377
H       12.09409618      22.77250671       6.17644691
H       14.33498573      22.96500206       4.74644184
H       14.04618931      21.24806023       4.38775301
H       16.04766273      20.67523575       5.90739346
H       16.49882698      22.40106010       5.87666273
H       17.99823761      20.14640999       4.75615311
H       18.50305939      21.85610771       4.56702518
H       17.74315453      19.85768509       2.31207585
H       18.15612030      21.55494690       2.00719023
H       20.51235580      22.04876709       3.53414106
H       20.44596863      22.02466583       1.73741031
H       21.63494110      21.01703644       2.62718511
C       17.89580345      30.83969116      26.27814102
O       18.95884705      30.64628220      25.34597206
C       19.10128403      31.73834801      24.41087341
C       20.20960426      31.31475830      23.45628357
O       20.21335983      32.23540878      22.36562729
C       21.20067978      31.82416916      21.40861320
C       21.28250504      32.86926651      20.29317474
O       22.25121117      32.45824814      19.30841637
C       23.60016441      32.34122086      19.79006767
H       16.98505211      31.23668671      25.78673553
H       17.62582970      29.86175537      26.70994568
H       18.14814186      31.52098274      27.09951019
H       19.31397057      32.66902161      24.97116280
H       18.14673996      31.90825844      23.87204170
H       20.00805664      30.29549980      23.07173538
H       21.19660187      31.28271866      23.96853828
H       20.93665695      30.84725761      20.95992470
H       22.18404961      31.72927284      21.90577698
H       20.31804848      32.95366287      19.76126099
H       21.50975037      33.86489868      20.71314240
H       23.73555946      31.49122238      20.47813225
H       23.92572975      33.27193069      20.28706169
H       24.22761726      32.14623642      18.90165710
C       30.76431656      15.51961231      19.57142067
O       29.68920517      14.69825172      19.11154556
C       30.00480270      13.95002174      17.92666245
C       28.71788788      13.33315563      17.41887474
O       29.03467751      12.79521561      16.12638283
C       28.12997437      11.80446243      15.62355137
C       28.88790894      11.13178444      14.47440052
O       28.05644226      10.27354336      13.63759232
C       27.68113136       9.05502129      14.28815460
H       31.36686325      15.88705826      18.71571922
H       30.29640198      16.35026932      20.11905861
H       31.43095207      14.97703838      20.26595306
H       30.75720596      13.15634632      18.10730743
H       30.37465286      14.62801647      17.13474274
H       27.92938805      14.09931660      17.33442879
H       28.34786224      12.54892063      18.10223389
H       27.20778847      12.27617741      15.23344612
H       27.82795906      11.08622837      16.40973663
H       29.21407318      11.91640759      13.76885128
H       29.77175903      10.57359123      14.82924366
H       27.33928490       9.20624161      15.32560349
H       28.50032616       8.31382942      14.29051590
H       26.82329559       8.63370705      13.73871803
C       14.24834538      34.62992096      18.26330948
O       15.54929352      34.45738602      18.81948853
C       15.65235519      34.78190613      20.22642326
C       17.14266396      34.75131226      20.52000427
O       17.34236908      35.03543472      21.91010475
C       18.75546455      35.13799286      22.13714790
C       18.98779678      35.46757889      23.61401558
O       20.35167122      35.93434906      23.78435898
C       21.38991356      34.96540833      23.97605133
H       13.96090317      35.69363403      18.26378250
H       14.24324608      34.23635864      17.23460579
H       13.48371601      34.06151199      18.81563568
H       15.09152508      34.04939651      20.83670998
H       15.20777988      35.77478790      20.43319702
H       17.62493324      35.51273346      19.87630272
H       17.55680847      33.76327515      20.24007416
H       19.19354820      35.92892838      21.49549294
H       19.24400139      34.18581772      21.87525368
H       18.34058189      36.29120636      23.95515251
H       18.76686287      34.59774399      24.25743675
H       21.80918503      34.62989807      23.00849152
H       21.00639153      34.07473373      24.50472641
H       22.18524742      35.41934586      24.58692169
C       10.50415802      17.71626282      12.73706722
O       10.97234440      16.51452637      12.11569214
C       11.14614677      15.37242603      12.97559166
C       12.11607838      14.48732471      12.19202900
O       12.36783504      13.31748676      12.97483349
C       13.36937714      12.52175331      12.33150005
C       13.54443645      11.27275562      13.17483044
O       14.55089474      10.44670391      12.55894566
C       14.15664005       9.31964016      11.79013920
H       11.15423107      18.04883385      13.56301880
H       10.46966648      18.49460602      11.96433830
H        9.48991299      17.60779381      13.14892769
H       10.17637825      14.86431980      13.13325119
H       11.54122448      15.66039848      13.96412945
H       13.05648613      15.04233170      12.01716328
H       11.70015049      14.20720673      11.20152760
H       14.32721710      13.06856537      12.26614189
H       13.05138493      12.23645210      11.30937099
H       13.87091923      11.53499699      14.19595051
H       12.57866192      10.75396252      13.26648045
H       13.87668324       9.59998417      10.75996685
H       13.28594398       8.81884193      12.24518204
H       14.99602890       8.61279488      11.75888157
C       11.79342937      13.97118187      24.20685768
O       11.68482590      15.37656689      24.02560043
C       12.90139103      16.04109383      24.38793373
C       12.57954311      17.52596283      24.29154396
O       13.73414993      18.21232033      24.76792908
C       13.49046803      19.62275887      24.92261505
C       14.80197525      20.16041946      25.48938370
O       14.79387760      21.59379768      25.62334824
C       15.18498230      22.21631622      24.39022255
H       11.93880463      13.72398567      25.27248383
H       10.85113811      13.51875114      23.87040710
H       12.61641884      13.52429581      23.62619591
H       13.72241783      15.73902893      23.70825577
H       13.21519566      15.79937840      25.42166138
H       11.67973804      17.76697731      24.88913345
H       12.35509014      17.78131866      23.24067307
H       12.64218616      19.79844475      25.60935211
H       13.22657490      20.05805206      23.93950081
H       14.95857811      19.74945068      26.50317001
H       15.63195229      19.81090736      24.84426308
H       14.46921062      22.00872803      23.57065964
H       16.17750931      21.86105919      24.05886269
H       15.20222759      23.29597092      24.59098053
C       24.22064209       8.62734890       6.88386345
O       23.16280365       9.35994339       7.51728773
C       22.02797127       9.50848484       6.64804220
C       21.02389908      10.34128094       7.43657446
O       19.90705681      10.54423237       6.57044601
C       18.80581284      11.14997292       7.25463390
C       17.66147232      11.15040874       6.24346352
O       16.49985886      11.72430897       6.87438774
C       15.53191948      10.83791447       7.42189026
H       24.49270058       9.09560490       5.91735792
H       25.09074974       8.63130188       7.55530643
H       23.91737938       7.58704901       6.69040918
H       21.62138176       8.52013874       6.37200785
H       22.31352043      10.02266312       5.71245861
H       21.46955872      11.29905701       7.74984646
H       20.72156906       9.80980587       8.35537148
H       19.02841187      12.18199921       7.58724403
H       18.50483894      10.57616425       8.14890671
H       17.91954994      11.77356815       5.36997652
H       17.47136116      10.12651253       5.88223267
H       15.74189281      10.59606457       8.47661304
H       15.46155262       9.90591049       6.84187126
H       14.54260063      11.31166744       7.38028717
C       15.53877258      24.85366631      11.48025703
O       16.10746574      24.58782387      12.76817608
C       16.67937279      23.26180649      12.77515125
C       17.12312698      23.00649452      14.20304108
O       17.74450684      21.70383644      14.20677757
C       18.27482414      21.38219452      15.50122070
C       18.79719353      19.96244431      15.31172752
O       19.38927841      19.48034286      16.52974701
C       20.80976486      19.68526268      16.63829803
H       14.73909283      24.13507652      11.23972988
H       15.09770012      25.85837746      11.50242138
H       16.28788948      24.78570938      10.67655563
H       17.53969765      23.20338440      12.08345795
H       15.93891239      22.51160049      12.43811226
H       16.26498604      23.02482796      14.89259148
H       17.82013893      23.78472328      14.56076241
H       17.48583412      21.42037392      16.27919388
H       19.07317162      22.08940887      15.79873562
H       17.94518852      19.30327034      15.08387852
H       19.46973801      19.87933350      14.43723202
H       21.03072929      20.69884109      17.01104164
H       21.30607605      19.53803635      15.65963173
H       21.20533371      18.92587662      17.33023453
C       28.22155952      23.53047943      30.14328575
O       27.17171097      24.38056564      30.62372208
C       26.21857643      24.67706871      29.58240891
C       25.15122604      25.55355453      30.21284294
O       24.06794167      25.61682701      29.26768112
C       22.94978714      26.32912064      29.82495308
C       21.82558441      26.25866890      28.79714584
O       20.68827438      27.04244423      29.25920868
C       19.89972115      26.44159698      30.29101372
H       28.71784210      23.97564316      29.26664543
H       28.94581604      23.36660767      30.95110512
H       27.82144737      22.54438210      29.83901215
H       25.76767921      23.75086594      29.17439270
H       26.70890427      25.19709778      28.74143982
H       25.52843475      26.57989693      30.41140556
H       24.78665161      25.13524246      31.17428589
H       23.21596336      27.38085938      30.04379845
H       22.61868858      25.84660721      30.76494980
H       22.10922241      26.70865250      27.83197403
H       21.52741623      25.21778297      28.57703590
H       20.44758797      26.26054001      31.23273277
H       19.45785713      25.48843575      29.94843102
H       19.06305313      27.12385750      30.50441742
C       37.57740784       7.60063410      24.00218010
O       37.00626373       6.29317284      24.06236839
C       35.84158707       6.12789869      23.25978661
C       35.67203903       4.63873720      23.00512123
O       34.54365540       4.54076099      22.13809013
C       34.33569336       3.23514771      21.60932541
C       33.28440094       3.36726952      20.51722145
O       33.14681625       2.08898139      19.86970329
C       33.34849167       2.07099247      18.46196556
H       36.86862946       8.36908245      24.36101532
H       38.45692444       7.62692404      24.66324043
H       37.87697601       7.85919380      22.97098160
H       35.94020844       6.61768579      22.27161026
H       34.94947815       6.55313873      23.76545715
H       35.49824524       4.08031321      23.94169807
H       36.57090759       4.22344923      22.51280403
H       34.01585388       2.54474115      22.41136360
H       35.25997925       2.84042287      21.14985657
H       32.30396652       3.67343664      20.92840195
H       33.59138107       4.15735579      19.81579590
H       34.36584473       2.38878536      18.18016815
H       32.62474823       2.71816421      17.93767738
H       33.18544006       1.03767884      18.11694908
C       16.91415215      13.94866276      39.55194092
O       15.59066868      14.32503796      39.17882156
C       15.36822701      14.20294094      37.74748230
C       14.01989841      14.84915161      37.52406311
O       13.65325069      14.70494461      36.15050125
C       12.28589630      15.16231632      36.04659271
C       11.83880329      15.23227692      34.59164047
O       10.48825455      15.74877739      34.63234329
C        9.49173450      14.73250675      34.65381241
H       17.66863441      14.56765366      39.03733063
H       17.03093147      14.07179642      40.63748550
H       17.10692978      12.89318275      39.29677200
H       15.38037395      13.14265633      37.43974304
H       16.16302109      14.71378231      37.17381668
H       14.03826523      15.92104435      37.80030823
H       13.24742603      14.41403866      38.17527008
H       12.17398548      16.15892792      36.52030945
H       11.60693932      14.49723434      36.60918427
H       12.43671131      15.96260166      34.01156235
H       11.90072346      14.27519703      34.03750610
H        9.67037296      13.95967484      35.42236710
H        9.41660213      14.22562408      33.67614365
H        8.52972507      15.22080421      34.86198044
C       26.68717766      32.64336395      17.19210052
O       27.16755104      33.79983902      17.87869453
C       26.44581795      34.16285324      19.07728767
C       26.99957466      35.49279404      19.57333565
O       26.30974579      35.83957672      20.77850914
C       26.70934296      37.15647888      21.18504333
C       25.95853996      37.55020905      22.45811272
O       26.14704895      38.95419312      22.71018219
C       27.33996773      39.32952118      23.39181900
H       25.65130424      32.80490875      16.84856606
H       27.31314468      32.47247314      16.30057144
H       26.71149826      31.74745560      17.83772659
H       26.55189896      33.39286804      19.86097908
H       25.37193489      34.27159500      18.85355186
H       26.84048462      36.25550461      18.78841972
H       28.08619881      35.42870712      19.76075745
H       26.45065308      37.87142181      20.38126755
H       27.79839706      37.19834137      21.35584641
H       24.87416267      37.42686081      22.30647278
H       26.24696159      36.94506454      23.33392334
H       28.23785210      39.18055344      22.77064323
H       27.46435547      38.78307724      24.34138298
H       27.23034096      40.40352631      23.62004471
C       11.08242416       4.14359951      31.95618820
O       11.19918346       4.66154957      33.26524353
C       10.38164330       5.79421043      33.56944656
C       10.78236675       6.21209669      34.98153305
O       10.01121330       7.36877441      35.26072693
C       10.28409004       8.02204418      36.50480270
C        9.20635223       9.12512779      36.57877350
O        9.37203217       9.87667274      37.78664780
C        8.76319218       9.40686607      38.97827911
H       11.47964954       4.84021807      31.20150375
H       11.66219425       3.21140623      31.90427780
H       10.03811073       3.90885425      31.69593620
H        9.30906105       5.54026556      33.53791046
H       10.55123711       6.62802219      32.86973572
H       11.86241341       6.45061636      35.00994873
H       10.58281898       5.40501308      35.70952225
H       11.28295231       8.49532890      36.50840378
H       10.21537018       7.35428715      37.37363815
H        9.34590149       9.81926727      35.73533249
H        8.18976116       8.70601940      36.50473022
H        8.99896336       8.34751129      39.17547989
H        7.66909933       9.52555370      38.92069626
H        9.13399982      10.01371670      39.81619644
C       11.56324291      19.79181671      39.45203018
O       11.49552536      18.56704903      40.18941498
C       11.48585033      17.46718788      39.26237106
C       11.52517796      16.18164062      40.08068085
O       11.17446518      15.09168243      39.19297791
C       11.08228970      13.86691856      39.93619537
C       11.04359913      12.69289112      38.94251633
O       11.01339722      11.50637913      39.75391006
C       12.27371216      10.95670700      40.12737274
H       10.70156002      19.88995743      38.76427460
H       11.52554512      20.62688065      40.16217041
H       12.47889996      19.84870911      38.84097290
H       12.36688423      17.50696182      38.59329605
H       10.57705975      17.48295403      38.62781906
H       10.81498337      16.24254799      40.93001938
H       12.53365993      16.02679443      40.50936508
H       10.15882397      13.86579227      40.53705215
H       11.94392681      13.75866222      40.62480545
H       10.13267899      12.69750404      38.31595612
H       11.90658092      12.68039799      38.25361633
H       12.87503529      11.64726543      40.73846817
H       12.86909199      10.64413834      39.25517273
H       12.04260731      10.06240559      40.72738266
C       11.87431145      27.69726181       1.38506138
O       11.31125832      28.08832550       2.64089370
C       10.45348072      29.24380875       2.56311893
C        9.91288948      29.44010925       3.97343135
O        8.97438145      30.51935959       3.90455294
C        8.38408184      30.81491470       5.18260050
C        7.09413576      31.56716919       4.88542414
O        6.34238529      31.71590996       6.11014557
C        5.35157824      30.71449852       6.33527422
H       12.38467503      28.54343033       0.89914465
H       12.57629681      26.87322044       1.57100856
H       11.08847237      27.32926559       0.70386332
H        9.61444950      29.03869820       1.87215889
H       10.99657726      30.13607025       2.20953584
H       10.70956326      29.67016029       4.70600176
H        9.39950275      28.51555061       4.28191090
H        9.04719830      31.41454887       5.83217096
H        8.11225510      29.89233589       5.72975063
H        7.29290390      32.58404922       4.51812506
H        6.52180290      31.03082657       4.11367941
H        5.77628708      29.69584084       6.32599306
H        4.55181837      30.76297569       5.57239151
H        4.88566875      30.90297508       7.31478357
C       15.65417004      34.73329163      25.89570808
O       16.56468582      35.07789993      26.93908119
C       17.13287926      33.97175598      27.68322754
C       17.08272552      34.30549622      29.16971588
O       17.69387627      33.21131516      29.87667084
C       17.74954414      33.50050354      31.27776718
C       18.56102562      32.36037064      31.88482094
O       18.81517220      32.56351852      33.30036926
C       19.55855179      33.71990967      33.69586182
H       15.00485897      33.88179398      26.16419411
H       15.00736713      35.60233307      25.70858955
H       16.17223358      34.48034668      24.95160866
H       18.17321205      33.79916000      27.33663177
H       16.56332970      33.05133057      27.47098351
H       16.03799438      34.42274475      29.50607491
H       17.58268929      35.25946426      29.40989685
H       16.73583031      33.55233765      31.71789742
H       18.22056961      34.47736740      31.47552681
H       18.00278473      31.41169548      31.81913185
H       19.50486755      32.20666122      31.33645248
H       18.93523598      34.62663269      33.77882004
H       20.36778259      33.93849564      32.97032928
H       19.98304558      33.51095963      34.69744492
C       33.99801636      28.92828751      14.23428822
O       33.30688858      28.29044533      13.14824200
C       32.82158279      29.25385284      12.18852997
C       31.69872665      28.57103539      11.41899014
O       31.05456924      29.60714912      10.67400837
C       29.89633942      29.09297752      10.00467873
C       29.32708549      30.26604080       9.21129990
O       28.15578270      29.85519028       8.50791073
C       28.43179703      29.22084999       7.25791597
H       33.27597427      29.38492393      14.93737507
H       34.56959152      28.17159653      14.79391670
H       34.67776489      29.71835327      13.86769104
H       33.63006210      29.59448814      11.51697063
H       32.41556168      30.15718269      12.68728447
H       30.98408508      28.11703300      12.13495255
H       32.04792404      27.75478745      10.74627018
H       29.12776756      28.74741173      10.72022629
H       30.15438461      28.25594902       9.32894707
H       29.02024651      31.07874680       9.89510155
H       30.08460617      30.67366219       8.51492405
H       28.95915794      28.26280594       7.36433172
H       28.99030113      29.89219093       6.58798838
H       27.45762253      28.97302818       6.80919838
C       33.62577438      14.00733376      36.00967026
O       32.30088043      13.72834206      36.46288681
C       31.34130859      14.10397243      35.47014236
C       30.00263214      14.25071621      36.18312836
O       29.03579140      14.40963936      35.13631058
C       27.71519852      14.60030937      35.67653275
C       26.77498817      14.66242313      34.47671890
O       25.45053291      15.05068398      34.91268158
C       24.71251297      14.07242298      35.65745163
H       33.75753784      15.08220863      35.81674957
H       34.32451248      13.67356968      36.79189682
H       33.83548355      13.45611191      35.07378387
H       31.28570175      13.35567570      34.65264511
H       31.57472610      15.08328438      35.02515411
H       30.01512527      15.14302826      36.83834457
H       29.76184273      13.37799263      36.80973434
H       27.65474129      15.54154682      36.25486374
H       27.42850304      13.77615261      36.35175705
H       27.09421158      15.45875359      33.78688812
H       26.74021339      13.71299648      33.91822815
H       25.18161011      13.83037758      36.62284470
H       24.55141258      13.15347290      35.07360840
H       23.71445274      14.49299622      35.84032059
C       33.10123825      19.40943527       4.13614511
O       33.38599777      18.03378868       4.38200188
C       32.97530365      17.62558174       5.70447826
C       33.43101120      16.18243217       5.78926039
O       32.95025635      15.65035152       7.03891611
C       33.06256485      14.21436310       7.02139616
C       32.49064636      13.79773426       8.36928272
O       32.46371460      12.35660076       8.43405056
C       31.21588516      11.76436615       8.07986259
H       33.61477280      20.05207634       4.86400604
H       33.43388367      19.63704872       3.11429477
H       32.01654053      19.61028481       4.20556831
H       31.87715149      17.71191978       5.81467867
H       33.43776703      18.25769806       6.48668623
H       34.52926636      16.11180305       5.74421597
H       33.03179169      15.62005329       4.92597580
H       34.10820770      13.88133430       6.89619255
H       32.47807312      13.78041840       6.18948555
H       33.11493301      14.16521454       9.20146656
H       31.47966385      14.21891022       8.50959969
H       30.82321548      12.13049316       7.11741352
H       30.44340324      11.93217468       8.85134029
H       31.38577080      10.67906284       8.00198269
C       18.13454056      29.05122185      35.65596771
O       19.43273926      29.16253281      36.23369217
C       20.29600143      29.86472702      35.31929779
C       21.65494537      29.87993813      35.98894119
O       22.51833534      30.70827484      35.19235611
C       23.87299156      30.60778427      35.67305374
C       24.71841812      31.45762253      34.71106720
O       26.10277939      31.32551003      35.05364990
C       26.56246948      32.21564484      36.08139038
H       18.14751244      28.56969833      34.66228485
H       17.51132202      28.42668724      36.30967712
H       17.63818932      30.02814484      35.53350067
H       19.91241837      30.87503242      35.11248016
H       20.32786942      29.33673477      34.34643936
H       22.05705070      28.85311317      36.02961349
H       21.62253380      30.24944496      37.02692032
H       24.21228790      29.56247520      35.60023880
H       23.94425011      30.93088722      36.72372055
H       24.58300400      31.07112122      33.68210983
H       24.42379379      32.52704620      34.74927902
H       26.07874680      32.01440430      37.05286026
H       26.38021088      33.26478195      35.78615952
H       27.64739990      32.05577850      36.17078018
C       20.70795059      14.27087975       1.19990325
O       19.61906815      15.19125080       1.15747857
C       18.59166908      14.90064049       2.12103868
C       17.64500809      16.09786224       2.07833695
O       16.59429932      15.77652168       2.98307633
C       15.54802704      16.75670815       2.96360397
C       14.57353878      16.28953934       4.04272270
O       13.57468796      17.30038261       4.31983089
C       14.00801086      18.27473259       5.26957655
H       20.43948936      13.31487942       0.71963859
H       21.55624390      14.70711803       0.65652883
H       21.00347519      14.07611465       2.24551511
H       19.01638794      14.77712822       3.12963247
H       18.05458832      13.97846794       1.85179842
H       17.27592850      16.23072624       1.04512715
H       18.16283989      17.02053070       2.39584160
H       15.04696274      16.78604317       1.97664583
H       15.91074848      17.76749229       3.21355581
H       14.02364254      15.40148067       3.69830155
H       15.13162422      16.02923775       4.95553064
H       14.84940338      18.88136292       4.90908718
H       14.28717041      17.83718300       6.24205399
H       13.13961411      18.93186951       5.45003176
C       19.43421364      11.72426224      27.70902634
O       18.13363647      11.22878647      27.32746124
C       17.12982178      11.13090324      28.37812233
C       15.92151260      10.60372734      27.61577034
O       14.86590290      10.47415638      28.57231140
C       13.64495277      10.11047745      27.89970207
C       12.56790924      10.18484116      28.98554993
O       11.30152893       9.72721672      28.47282600
C       10.39879990      10.70974827      27.98544121
H       19.82240677      11.19190884      28.59591675
H       20.09008217      11.54748440      26.83275795
H       19.40096664      12.80035877      27.93726158
H       16.90976524      12.12373447      28.81463051
H       17.43054581      10.45477962      29.20076370
H       16.15200615       9.63482666      27.13567352
H       15.64480495      11.31717491      26.81611633
H       13.72218513       9.09504986      27.46632385
H       13.40775204      10.80639172      27.07609558
H       12.83302689       9.51971436      29.82263374
H       12.48209381      11.21108150      29.38539696
H       10.40544128      10.78464508      26.88679123
H       10.59837818      11.69159412      28.42161369
H        9.37473679      10.41391945      28.26206398
C        8.70849037      23.96307564      15.60198975
O        9.92391109      23.83721352      16.33378601
C       11.04007912      24.40567780      15.62464237
C       12.22599411      24.24971771      16.55697441
O       13.23521996      25.09275246      16.00558090
C       14.49509525      24.96626472      16.66049194
C       15.39948940      25.99402618      15.95757103
O       16.76395035      25.89555740      16.41197014
C       17.11547470      26.77134705      17.48922539
H        8.71646786      23.34718704      14.69074821
H        7.89685774      23.60592651      16.24456215
H        8.50002575      25.00671959      15.32872200
H       10.86009598      25.47113991      15.41561222
H       11.21202946      23.90291977      14.65506363
H       12.57555866      23.20789528      16.63315010
H       11.94931126      24.56530762      17.58437538
H       14.91123962      23.95108414      16.55563736
H       14.40486813      25.17168808      17.74752617
H       15.38479233      25.78920174      14.87457943
H       14.98540497      27.00745201      16.11299133
H       16.69653130      26.43592834      18.45829010
H       16.76202583      27.80315399      17.29740334
H       18.21556664      26.77336502      17.58175468
C       23.56077003      38.43327332       8.23005962
O       23.19747543      37.44726562       9.18449783
C       24.01025200      37.51887512      10.36280537
C       23.52387428      36.40942764      11.29057407
O       24.23941994      36.55641937      12.52755356
C       23.87559891      35.53802872      13.47663403
C       24.85057068      35.70932388      14.64234829
O       24.58249092      34.73540497      15.67698288
C       23.53288460      35.07508850      16.58993530
H       24.47467041      38.15426636       7.68198156
H       22.74493790      38.52510452       7.50136328
H       23.71194649      39.41151810       8.71238613
H       23.89144325      38.50077438      10.86054707
H       25.07875633      37.38209152      10.12516022
H       23.67881203      35.41412735      10.83598328
H       22.43434715      36.51090622      11.45549107
H       23.95857430      34.54150772      13.01273918
H       22.83058929      35.66779709      13.81088161
H       25.87218666      35.50549316      14.27652359
H       24.80199242      36.73033524      15.05277157
H       22.73787880      35.66637421      16.10592842
H       23.88569832      35.63933182      17.46891212
H       23.05889320      34.14849854      16.95506096
C       39.34089661      12.15561962      33.99849701
O       37.98347855      12.21533680      34.39909363
C       37.39036179      10.92817688      34.58080292
C       35.98078156      11.29187870      35.06030655
O       35.35979462      10.12862778      35.59536743
C       34.10388565      10.47617435      36.18155289
C       33.69580841       9.31564617      37.08797455
O       32.36185455       9.57283688      37.54067993
C       32.15086746       9.93834019      38.88779831
H       39.45890427      11.55147362      33.08123779
H       39.65494156      13.18783092      33.78680420
H       39.99152756      11.73539352      34.78526688
H       37.93779373      10.34305096      35.33861160
H       37.37645340      10.35012245      33.63471222
H       35.39256668      11.69475842      34.21659851
H       36.03725815      12.09113979      35.82090378
H       33.33765793      10.62036324      35.39858627
H       34.15791321      11.41027260      36.76506805
H       33.68555450       8.38779449      36.49676895
H       34.39534760       9.19651031      37.93062973
H       32.58123016      10.92141342      39.14196777
H       32.50710678       9.17229557      39.59619904
H       31.06049538      10.02085209      39.01530457
C        9.54953575      21.60382080      27.79171181
O       10.52263260      22.47268295      28.36882782
C       11.08946037      23.31848145      27.33027077
C       12.16646099      24.10161400      28.06675911
O       12.74444771      25.03607750      27.14678383
C       13.89863014      25.65495872      27.75102806
C       14.55633259      26.50083733      26.65308762
O       15.77910900      27.05803299      27.15199471
C       15.59732819      28.18014145      28.03417397
H        9.98397827      20.99741364      26.98097038
H        9.18767643      20.92835808      28.57686043
H        8.70197201      22.17796898      27.37955475
H       10.30605221      23.96217155      26.89195824
H       11.50133991      22.70066643      26.50747871
H       12.92876720      23.38942528      28.43742371
H       11.75405121      24.62099075      28.95682335
H       14.61514091      24.89191437      28.10207939
H       13.60147190      26.27172852      28.62170410
H       14.80881310      25.84448814      25.79954529
H       13.85339546      27.27476883      26.28171921
H       14.92787170      27.96183777      28.88410378
H       15.11436939      29.01778603      27.49821281
H       16.57731628      28.48574638      28.42483330
C       32.74373245      38.12559128      10.70174980
O       32.99925232      37.49292374      11.95406532
C       32.65761566      36.09960938      11.95555592
C       32.97182846      35.71955872      13.40991592
O       32.60141754      34.36350250      13.66058636
C       33.08428574      33.88348007      14.92955589
C       33.03003693      32.35602570      14.79169941
O       32.84967041      31.72925568      16.08085060
C       34.07735062      31.60830307      16.80757904
H       31.81805229      37.74473190      10.24025726
H       32.60020447      39.19633102      10.89881516
H       33.56412125      37.95459366       9.98963070
H       33.24041748      35.50888443      11.22730637
H       31.60088158      35.94216537      11.66628838
H       32.43410492      36.37964630      14.12620449
H       34.05541229      35.86838150      13.59601784
H       32.43818283      34.23178101      15.75748348
H       34.11346436      34.23766708      15.12158203
H       32.15268707      32.07655334      14.19103909
H       33.89820480      31.93814087      14.25260830
H       34.30610275      32.50727081      17.40723801
H       34.92593002      31.39906120      16.13169670
H       33.96873856      30.71749878      17.46377563
C        5.01894474      36.05264282      12.69359589
O        5.38684607      34.71725082      12.33576775
C        4.76567984      33.69337845      13.13536644
C        5.33243847      32.41736984      12.51819324
O        4.98530149      31.30823898      13.36073303
C        5.17924452      30.08236313      12.63499832
C        4.99213219      28.96037674      13.63749218
O        5.18682480      27.68713951      12.97756195
C        4.01006651      26.97797203      12.61829281
H        5.32108307      36.30896378      13.72181034
H        5.50485563      36.71999359      11.97112846
H        3.92610168      36.17259598      12.59532452
H        3.66451693      33.74499893      13.04396057
H        5.03198433      33.82238007      14.20097923
H        6.43343735      32.49621964      12.42338371
H        4.92813015      32.28363037      11.49686909
H        6.19637537      30.02557755      12.21344662
H        4.46448898      30.00392723      11.79310226
H        5.74555731      29.05958748      14.43355751
H        4.00751162      29.00900269      14.13290119
H        3.55395269      27.34842300      11.68565369
H        3.25052285      27.03461647      13.41504955
H        4.28414154      25.92371368      12.48155594
C       11.46519566      39.53514481      15.93459225
O       11.97695065      38.51082993      15.08284092
C       11.03010178      38.09214783      14.08898163
C       11.60053825      36.83123779      13.44869995
O       10.66949368      36.42716599      12.44830513
C       11.15937996      35.31323242      11.70245743
C       10.05992222      34.86366653      10.75468826
O       10.53232098      33.68224335      10.07362175
C       10.95353317      33.81177902       8.71457195
H       10.56940937      39.19265366      16.47593689
H       12.22684669      39.79706573      16.67574310
H       11.18625164      40.42642593      15.35062122
H       10.89003372      38.86808777      13.31966496
H       10.04379559      37.88000107      14.53609276
H       11.72357941      36.04062653      14.21412563
H       12.59172726      37.05018616      13.00999832
H       11.43528843      34.47091293      12.36185932
H       12.03186131      35.58945465      11.08910656
H        9.14388180      34.58990479      11.30601025
H        9.76004410      35.65830994      10.05164146
H       11.82479668      34.47706985       8.61645508
H       10.11990547      34.14035416       8.07901764
H       11.22732067      32.80349350       8.36608696
C        9.05850601      12.32922363       5.25962400
O        9.56742191      11.16076374       5.88616323
C       10.13929367      10.20541477       4.97291279
C       10.70296860       9.14150524       5.90178633
O       11.05539894       8.01471996       5.09466887
C       11.53103733       6.96370316       5.93707657
C       12.03555298       5.87943363       4.95808077
O       12.29184341       4.64561319       5.63944530
C       13.35556793       4.69303894       6.57095146
H        8.27053261      12.07663536       4.52584839
H        8.59587574      12.94981098       6.04359007
H        9.86262226      12.88572216       4.75048018
H       10.93141174      10.64442444       4.34266281
H        9.36221981       9.79043961       4.30296755
H        9.94573021       8.88924789       6.66330147
H       11.57385731       9.54030800       6.45341015
H       10.70954895       6.57664061       6.56646538
H       12.32452488       7.32031441       6.61727905
H       11.22565365       5.66563177       4.24531746
H       12.91562843       6.20837879       4.37251568
H       13.21727848       5.45370007       7.36203527
H       14.33292866       4.85312271       6.07896042
H       13.37980938       3.71197891       7.07270527
C       15.44985294      27.67738152       8.53109455
O       16.19417381      28.88020515       8.34532070
C       17.44110298      28.62734413       7.65700197
C       18.07545090      29.97888565       7.41173744
O       19.35993767      29.68993950       6.85804558
C       20.06225967      30.91735268       6.64876699
C       21.43572426      30.56366348       6.05089951
O       22.12793541      31.79403496       5.81051636
C       21.88567924      32.37452316       4.52652359
H       15.96704102      26.97022820       9.20251846
H       14.47180176      27.92876625       8.96300316
H       15.27780437      27.16901588       7.56455374
H       17.25409508      28.08261299       6.71102953
H       18.10889244      28.00404739       8.27860832
H       18.15248489      30.56394958       8.34767437
H       17.44969559      30.56642532       6.71310711
H       20.16085815      31.46277428       7.60848856
H       19.49259567      31.56512070       5.95449209
H       22.04798889      29.99541092       6.77456045
H       21.34939766      29.95054054       5.13572979
H       20.82711029      32.63521194       4.37980890
H       22.21838379      31.70500946       3.71521688
H       22.47034645      33.30019760       4.51292992
C       22.94351578      25.24373436      20.46287155
O       21.75552559      25.86936951      19.97711372
C       22.10592842      27.00982666      19.17597961
C       20.84387016      27.52982521      18.51449013
O       21.22125435      28.83970833      18.09704208
C       20.39206886      29.36376381      17.04899216
C       21.02913284      30.71036911      16.70430374
O       20.19356918      31.44399452      15.80630016
C       20.15334320      30.89214516      14.48430729
H       23.31863213      25.69533730      21.39796448
H       22.67661095      24.19952393      20.70107841
H       23.75045586      25.24141693      19.69890213
H       22.84326935      26.71501160      18.40755081
H       22.58212662      27.78343010      19.79751587
H       19.98290062      27.56184196      19.20936775
H       20.54214287      26.89939499      17.65288353
H       19.35147858      29.51018906      17.39571953
H       20.35541916      28.68150520      16.17660713
H       21.15341568      31.32503700      17.60887527
H       22.03233910      30.54922485      16.26918793
H       19.72894478      29.87293625      14.47064781
H       21.15510178      30.86779594      14.02091408
H       19.48414803      31.54250145      13.90564442
C       34.84418106       8.19044971      16.58751488
O       33.98063278       9.30797577      16.80898094
C       34.54156876      10.54689503      16.30643463
C       33.50274277      11.61125088      16.65219688
O       34.01166153      12.84032631      16.10255623
C       33.19780731      13.97672272      16.41786194
C       33.89202118      15.19779778      15.79088020
O       33.26206970      16.41769791      16.23643684
C       31.98598862      16.71304703      15.64453125
H       35.75080872       8.25284958      17.20792580
H       34.24731827       7.31241608      16.86186218
H       35.14041901       8.10851192      15.52813244
H       34.70954514      10.45768547      15.21726036
H       35.49543762      10.75422478      16.81426811
H       33.35789490      11.70159245      17.74497223
H       32.51577759      11.37031364      16.20258141
H       33.08356094      14.13145828      17.51140404
H       32.18133545      13.85179043      15.98863220
H       34.94255829      15.24494076      16.12457085
H       33.88807297      15.12600708      14.68281460
H       31.25053024      15.89749813      15.77383995
H       32.07291031      16.90101051      14.55982399
H       31.58837509      17.61617279      16.12778854
C       31.60634613      12.80842686      21.74355888
O       32.79560089      13.55466366      21.49832535
C       33.59260559      13.00673771      20.43277359
C       34.82417297      13.88435745      20.27495956
O       35.57685471      13.19657135      19.26971436
C       36.72288132      13.92568016      18.81361961
C       37.35257339      13.05546188      17.70813751
O       38.50724792      13.72176170      17.15271378
C       38.23862457      14.53596878      16.01312447
H       31.80943489      11.73894596      21.94630623
H       31.09764481      13.23681068      22.61961365
H       30.91947937      12.85745907      20.87540245
H       33.01252365      12.99622059      19.48735619
H       33.89340973      11.96274471      20.63671112
H       35.39287949      13.99771595      21.21682549
H       34.51089478      14.89209366      19.93578339
H       37.41352844      14.13129139      19.64937401
H       36.39545059      14.89479923      18.38699913
H       37.69494247      12.08482647      18.10937881
H       36.59907532      12.85847950      16.92633247
H       37.51144028      15.32904530      16.24016571
H       37.84065628      13.93816280      15.17701054
H       39.19056702      14.99716949      15.71740055
C       27.19468117      37.48967743      26.92589188
O       27.89457130      36.68618011      25.97952080
C       28.70860100      35.68047714      26.60054207
C       29.72753716      35.24394608      25.54609871
O       30.53659630      34.25190735      26.18012810
C       31.64638710      33.88019180      25.37500191
C       32.38112640      32.73960495      26.09072113
O       33.32554245      32.21442413      25.15749359
C       33.07703018      30.93052101      24.60421181
H       27.87093353      37.98850250      27.63890648
H       26.60580063      38.23335648      26.37384987
H       26.47030830      36.89592743      27.50341225
H       28.08570099      34.81904984      26.89225197
H       29.20436096      36.07260895      27.50536537
H       30.32265282      36.11447525      25.21588326
H       29.20846367      34.83112717      24.65911293
H       32.33811569      34.72380829      25.20034027
H       31.31748581      33.50571060      24.38596535
H       32.89347076      33.09959030      27.00260353
H       31.64024162      31.98588562      26.39113426
H       32.09511566      30.85814476      24.10888863
H       33.14049149      30.14261055      25.37656021
H       33.84997559      30.74961090      23.83613014
C       27.74636078      15.77539730      14.73976612
O       26.86215973      15.83927155      15.86544609
C       25.63839149      15.13350773      15.60902214
C       24.71784210      15.55255508      16.74897766
O       23.48003960      14.84286404      16.57561111
C       22.52801514      15.34544659      17.53948212
C       21.26760292      14.51951027      17.33844376
O       20.19066811      15.17456436      18.02689362
C       20.02747154      14.82482052      19.39415359
H       27.25278664      16.19689560      13.84014797
H       28.64855003      16.35508347      14.98906994
H       28.03367233      14.73069668      14.51693344
H       25.80169678      14.04273605      15.58809280
H       25.18912888      15.40477371      14.63053131
H       24.53096008      16.64235497      16.72795868
H       25.14836693      15.31519032      17.73949242
H       22.30319214      16.41044998      17.35671616
H       22.89130211      15.24468231      18.58009529
H       20.99073219      14.45486355      16.26874352
H       21.41786575      13.48175240      17.69075394
H       20.88214684      15.10985184      20.03281784
H       19.81958580      13.74495029      19.52667999
H       19.13104820      15.35053349      19.76774979
C       37.66230392      13.52341175       9.34747601
O       37.66084671      13.33914089       7.93424702
C       37.20410919      14.52103329       7.27157450
C       37.44232941      14.31847477       5.78983402
O       36.88001633      15.49358654       5.20385695
C       37.10596848      15.55747509       3.78836846
C       36.80430603      16.99427605       3.39565587
O       36.96053696      17.13609695       1.97654653
C       38.27412033      17.51063728       1.56214118
H       36.63981247      13.64404964       9.74359703
H       38.08124924      12.62565231       9.81960869
H       38.23060608      14.41731358       9.65108299
H       37.74181747      15.41143036       7.64870071
H       36.13516998      14.69625473       7.48595762
H       36.97630692      13.40457058       5.38200045
H       38.52768707      14.26291943       5.57053661
H       36.45899200      14.85812664       3.23308134
H       38.15116501      15.29698277       3.54469585
H       35.75883102      17.23611259       3.64170361
H       37.42728806      17.69569969       3.97420669
H       39.00799561      16.70349503       1.71475434
H       38.60808563      18.40588379       2.10787010
H       38.22646332      17.73520660       0.48864520
C        8.11051559      18.46059418      39.80240250
O        8.05445957      17.52203178      38.72670746
C        7.57639694      16.21993828      39.13185120
C        7.79172850      15.29661560      37.93171310
O        7.18813848      14.04006481      38.28231430
C        7.00936222      13.18134975      37.15346146
C        6.12369394      12.03909016      37.63808441
O        6.13785410      10.99821281      36.65038300
C        5.00264025      10.71714878      35.87285614
H        8.70979404      18.08581352      40.64668655
H        8.54502773      19.38761139      39.40765381
H        7.10217190      18.67964363      40.19771957
H        6.50849628      16.26955605      39.41418839
H        8.13500690      15.88536072      40.02483368
H        8.86783504      15.18662739      37.70785522
H        7.31063175      15.71676350      37.03048325
H        7.97095537      12.78593540      36.77915573
H        6.50907898      13.69890022      36.31514359
H        6.53345108      11.63393593      38.57593536
H        5.09986877      12.38728333      37.84559250
H        4.85884047      11.44536114      35.05873871
H        4.08829355      10.66158772      36.48999786
H        5.16832590       9.73114586      35.41858673
C       25.54352760       2.73541546       8.73846531
O       26.64450836       3.34678316       9.40393829
C       27.06840897       2.63727069      10.59528828
C       28.23920059       3.45032620      11.13324356
O       28.93478012       2.68138266      12.12042332
C       30.01591492       3.44254375      12.66343403
C       30.98748970       2.47478604      13.32731628
O       32.17737961       3.24703836      13.58042431
C       33.38536453       2.50909185      13.76802444
H       24.64331245       2.72811294       9.37700748
H       25.32052422       3.31131005       7.83186245
H       25.77546120       1.69338560       8.46096897
H       27.35813713       1.60561728      10.32925892
H       26.24304199       2.58476424      11.32726479
H       27.87681198       4.41689205      11.53483677
H       28.91391563       3.67246795      10.28629303
H       29.65095901       4.23665142      13.34573841
H       30.56503487       3.95434928      11.85461044
H       30.56434059       2.08212113      14.27100468
H       31.17782593       1.60146689      12.67765522
H       33.61111832       1.89503646      12.87741375
H       33.33530045       1.83253038      14.63987732
H       34.18838501       3.24538159      13.91686153
C       14.41403294      10.68477249      21.41609383
O       14.23940659       9.31136799      21.05538177
C       14.43818855       8.46411991      22.19447136
C       14.41375256       7.05357170      21.62578201
O       14.66921711       6.17784691      22.73046112
C       14.80485058       4.83536291      22.26051331
C       14.83061123       3.96252704      23.50135040
O       15.08931160       2.60791135      23.08164978
C       13.95796776       1.80908477      22.75959778
H       15.38466167      10.85088921      21.91140366
H       14.35921574      11.26370716      20.48347664
H       13.60787964      11.01167011      22.09433365
H       13.64198589       8.62129784      22.95072937
H       15.41137314       8.68441963      22.67297363
H       15.18197346       6.94625664      20.83413696
H       13.44298840       6.82405043      21.14249992
H       15.72970867       4.69095325      21.66473198
H       13.96095276       4.54747486      21.60490990
H       15.65003014       4.26662064      24.17373276
H       13.88591957       4.03905535      24.06614494
H       13.52060223       2.04503179      21.77845192
H       13.16180229       1.92525566      23.51788521
H       14.27960873       0.76004565      22.75624466
C       26.32651138      21.19803047      19.12440491
O       26.81099510      21.99340057      18.03235245
C       25.79817200      22.31796646      17.05849648
C       26.47190285      22.63580894      15.73071575
O       25.38826752      22.80709267      14.79948711
C       25.87196732      23.05109406      13.46183586
C       24.63157082      23.05476952      12.55281162
O       24.95380402      23.22724724      11.15534782
C       25.16852188      24.61135292      10.83681965
H       26.06118011      20.18111610      18.78784180
H       27.07883072      21.15401077      19.92093277
H       25.42383766      21.64926910      19.57333755
H       25.17761040      23.15586090      17.42518806
H       25.10786057      21.47213936      16.90521240
H       27.11780548      21.79725456      15.41180038
H       27.08057213      23.55608749      15.81434250
H       26.55531311      22.25292778      13.11881161
H       26.39203644      24.02949333      13.43602371
H       24.11528206      22.08582115      12.61811066
H       23.90428734      23.81298637      12.89808369
H       25.91817665      25.08568573      11.49251842
H       24.22422218      25.17844963      10.92881966
H       25.51146698      24.66074753       9.79103851
C       29.21508408      20.45832634      39.16792679
O       28.69843864      19.46637726      38.27796936
C       28.58016396      19.95509720      36.92808533
C       28.06130600      18.80893326      36.06259537
O       27.78350067      19.42330742      34.79558182
C       27.67501640      18.49306107      33.71196365
C       27.55417252      19.36079407      32.46481323
O       27.37421417      18.60335159      31.26214790
C       28.55607033      18.12723160      30.61216736
H       28.48486900      21.27630806      39.29806519
H       29.39063454      19.99536514      40.15033722
H       30.15119362      20.88765907      38.77489853
H       29.55326080      20.28909302      36.53197861
H       27.87634087      20.81055260      36.90275574
H       27.15329933      18.34655762      36.48975754
H       28.82139969      18.01003456      35.94511795
H       26.77939987      17.85057640      33.82119751
H       28.56291771      17.83651733      33.63270569
H       26.65699005      19.99388313      32.56204987
H       28.40934563      20.05476570      32.38418961
H       28.93793488      17.20953751      31.07999039
H       29.34338951      18.89762878      30.61751175
H       28.28773308      17.88162231      29.57046127
C       33.82128906      24.35309792      10.99616432
O       35.10907364      23.73154449      10.99764729
C       35.12278748      22.46497536      11.68426514
C       36.55135727      21.91997147      11.53526878
O       36.83824539      21.08154106      12.66112709
C       38.18740845      20.59649658      12.63995171
C       38.24414062      19.41598129      13.60403919
O       39.51480865      18.77671814      13.47668171
C       39.55524063      17.51023483      12.81980038
H       33.45904541      24.59654617      12.00820637
H       33.88996506      25.26826477      10.39464092
H       33.06582260      23.68751907      10.53841305
H       34.37772751      21.78792191      11.22243023
H       34.82997131      22.59063530      12.74255657
H       37.27145004      22.75549316      11.47625828
H       36.64710236      21.33737755      10.59360600
H       38.90498352      21.38283348      12.92835426
H       38.44804382      20.24474907      11.62602043
H       38.10680389      19.74433517      14.64941311
H       37.41333389      18.73819160      13.35991192
H       39.52527618      17.60947800      11.72119617
H       38.69091034      16.89138985      13.11220646
H       40.47790146      17.00079536      13.13385963
C       37.55591202      37.85464096      13.15351486
O       37.77470779      36.46837234      13.35509491
C       37.46500778      36.01160049      14.67597389
C       38.05415344      34.61106110      14.67915440
O       37.71191025      33.99111176      15.92941570
C       38.14896393      32.62738037      15.88481712
C       38.04029083      32.09601593      17.31451988
O       38.57965469      30.76925468      17.37563705
C       37.80227280      29.74063301      16.77758408
H       38.11000824      38.45240784      13.90006733
H       37.91203690      38.09575272      12.14640903
H       36.48041916      38.09103012      13.20346546
H       36.36809158      35.97623062      14.83145142
H       37.90347672      36.67313004      15.45040607
H       39.15327454      34.64255905      14.54852200
H       37.66138458      34.04059982      13.81722260
H       39.20524979      32.54689407      15.56800652
H       37.54219437      32.04745865      15.16294670
H       38.66444016      32.70943069      17.99116516
H       36.99829865      32.14157486      17.67880058
H       37.68755341      29.86570930      15.68677330
H       36.79268646      29.68996811      17.21811104
H       38.32389069      28.79347420      16.97982788
C        5.31214380       6.87918854      21.83969307
O        5.39442587       8.28389263      22.07950401
C        6.68854618       8.82739639      21.73003387
C        6.77042675      10.15974426      22.47084618
O        7.42518282      11.09243011      21.61565208
C        7.46002579      12.41240597      22.19635963
C        8.56068325      13.17324352      21.45891953
O        8.69111252      14.47474480      22.03454208
C        7.61482620      15.37371635      21.75821304
H        6.09787846       6.36470890      22.41434669
H        4.32007837       6.56519747      22.18386459
H        5.40934896       6.64277267      20.76910400
H        6.75749826       8.97036171      20.63874817
H        7.48743391       8.13851738      22.03927612
H        7.30260849      10.06236744      23.43428040
H        5.75032854      10.52031708      22.71684837
H        7.68033743      12.36626720      23.27917480
H        6.48059225      12.90447998      22.06750679
H        9.51730728      12.65018272      21.61240387
H        8.34053040      13.21001339      20.37562370
H        6.65213442      15.03026199      22.16322136
H        7.47449160      15.52366543      20.67642975
H        7.87189054      16.33457565      22.22045898
C       16.46969032       5.97062254      31.90246773
O       15.17007446       6.52177668      31.81069565
C       14.99578476       7.90159321      32.19651413
C       13.48246765       8.04708195      32.37302399
O       13.26541138       9.40838814      32.74415970
C       11.86772633       9.68518162      32.98482895
C       11.78365231      11.15487194      33.41652679
O       10.47495651      11.47765541      33.91653061
C        9.36055756      11.39046860      33.02345276
H       16.93600273       6.14375305      32.88641357
H       16.37524223       4.88814974      31.74951553
H       17.15001678       6.37064123      31.13383102
H       15.35999393       8.58289528      31.40636253
H       15.51731110       8.14395046      33.13723373
H       13.12789440       7.36980677      33.16803360
H       12.92877674       7.78887320      31.44593620
H       11.45177650       9.04965591      33.78539658
H       11.27889442       9.50296974      32.06335831
H       12.47246075      11.36776924      34.25448227
H       12.05814457      11.80368519      32.56607056
H        9.24946594      10.40073013      32.55604553
H        9.40681076      12.16560841      32.24089813
H        8.47385979      11.55097961      33.65126801
C        9.61652851      11.74943829      13.14451504
O        8.94756794      10.50577068      12.83641815
C        7.53492737      10.43416977      13.07029343
C        6.90098047       9.73226070      11.86875725
O        5.48910236       9.77447033      12.14696121
C        4.74544096       8.95570469      11.25212383
C        3.30869460       8.98910618      11.76653481
O        2.52898550       8.05223560      11.00625801
C        1.67212176       8.54332638      10.00386143
H       10.25819206      11.66021061      14.03455162
H       10.22324753      12.03283119      12.27580643
H        8.88118935      12.54374790      13.35393620
H        7.08732510      11.43820572      13.17210293
H        7.31107378       9.86868000      13.99301147
H        7.25635004       8.69480133      11.74903488
H        7.14081717      10.26380634      10.93131065
H        5.12869644       7.92188120      11.24767780
H        4.80348825       9.33735466      10.21818638
H        3.28539586       8.67990398      12.82396984
H        2.88243961      10.00435543      11.71682167
H        2.21214676       8.81911755       9.08181763
H        1.09612560       9.40892792      10.37333012
H        0.96268904       7.73933697       9.75968361
C       25.93826294      15.71002960      38.81013107
O       26.11840057      17.12029839      38.70949173
C       24.93615150      17.90969276      38.96575165
C       25.43134308      19.34557152      38.85847473
O       24.37410927      20.23903084      39.20415878
C       24.78538132      21.58111382      38.90707016
C       23.56221962      22.48472786      39.08633041
O       23.84107590      23.77201271      38.50543976
C       24.61827087      24.63546181      39.35243607
H       25.22594833      15.35639858      38.04548264
H       26.90907288      15.22282887      38.64330673
H       25.56715393      15.42120075      39.80652618
H       24.50679970      17.71489716      39.96343994
H       24.15841866      17.69217873      38.21386719
H       25.74491882      19.50717735      37.80720901
H       26.31809807      19.50148582      39.49794769
H       25.11085701      21.64219093      37.84968567
H       25.62429619      21.89951324      39.55619431
H       22.73296928      22.07379532      38.49345779
H       23.23522758      22.59290695      40.13990021
H       25.69895554      24.44091988      39.27224731
H       24.31988525      24.56263542      40.41115952
H       24.40351868      25.65975571      39.01805878
C       13.09322643      31.48911285      19.38596344
O       13.46602631      31.65042114      18.01713943
C       14.24549675      30.54893112      17.50724792
C       14.97907162      30.99531937      16.25278664
O       15.58719254      29.79494667      15.75330734
C       16.19204903      29.97625160      14.46114635
C       16.54556656      28.56002045      13.99373245
O       17.06270409      28.54203987      12.65276432
C       16.06834030      28.83991051      11.65234470
H       13.96523952      31.46172523      20.06501579
H       12.43930817      32.32179260      19.68599510
H       12.50401592      30.56579018      19.54414749
H       13.57049084      29.72069359      17.23525429
H       14.96788406      30.20307159      18.26601982
H       15.72179890      31.76646996      16.51814651
H       14.26813602      31.39951134      15.50522423
H       17.08680153      30.61481857      14.53287506
H       15.46261787      30.41442490      13.75944996
H       17.27808189      28.09281921      14.67049217
H       15.61802006      27.96724129      14.03417969
H       15.69558716      29.87150574      11.69956493
H       15.20517159      28.15573692      11.71356392
H       16.51783943      28.69091034      10.66016769
C        5.69692039       7.15247583      16.47057915
O        5.16217756       8.06728268      17.41993713
C        5.53004265       9.42889690      17.17542076
C        4.79225397      10.22722244      18.24600601
O        5.24957180      11.57172203      18.14417267
C        4.66185951      12.44893074      19.11072731
C        5.25394583      13.83997250      18.87119102
O        4.79268694      14.77649689      19.85020828
C        3.41922140      15.14320087      19.76030159
H        6.72136593       6.87194109      16.73636436
H        5.05390263       6.26130342      16.48611069
H        5.67961121       7.58673477      15.45806789
H        5.22773600       9.73445511      16.15752602
H        6.61277628       9.58655739      17.29219437
H        5.03234911       9.81083965      19.24209976
H        3.70024490      10.15267467      18.09749031
H        4.91509771      12.15388393      20.14676857
H        3.56289005      12.47148418      19.01141930
H        6.34856796      13.78253555      18.98506927
H        5.01492405      14.16529465      17.84424019
H        2.74151158      14.28320694      19.74282837
H        3.23363662      15.76597691      18.86865807
H        3.17582130      15.72709942      20.65404320
C       10.58803844       7.53015280       9.94061947
O       10.14612484       8.66396809       9.20990467
C       10.40205956       9.90322971       9.90908146
C        9.73826122      10.97890282       9.06929684
O        9.48601627      12.04988098       9.97867298
C        8.54042816      12.95780754       9.42896748
C        8.29383183      14.01516819      10.50271511
O        7.34315968      14.95644093       9.97994423
C        7.96976137      15.87921429       9.04985046
H        9.90677834       7.29579353      10.77374554
H       10.60396576       6.67580891       9.24753284
H       11.59437847       7.69587135      10.35648727
H       11.48801613      10.06320095      10.03000450
H        9.94349957       9.90974903      10.91154099
H        8.80578423      10.58494759       8.62099552
H       10.38208008      11.30247498       8.23334789
H        7.58854008      12.45368004       9.20112133
H        8.90208054      13.40815067       8.48824501
H        7.83602285      13.55939007      11.39624310
H        9.21693420      14.53130913      10.81405544
H        8.12159443      15.44780159       8.04691124
H        8.92443657      16.24671936       9.45075607
H        7.26197100      16.71690178       8.95495701
C        5.04190969      16.07982635      34.37478256
O        4.96443939      16.64802361      35.66618347
C        5.45644760      17.99432755      35.76280975
C        4.74547052      18.61457443      36.95684052
O        5.34274387      19.90600777      37.03108215
C        4.92447615      20.72463417      38.11786652
C        5.74678802      22.00442314      37.90442657
O        5.63245726      22.93577766      38.98244858
C        4.42465639      23.64627838      39.16474152
H        6.07358980      15.99159908      34.01898193
H        4.60524321      15.07688141      34.43679810
H        4.46969271      16.67662239      33.64766312
H        5.25192308      18.57520485      34.85503387
H        6.54256678      18.01108932      35.95255280
H        4.93774080      18.04603577      37.88710785
H        3.65636253      18.67075348      36.78058624
H        5.18356323      20.27996063      39.09442902
H        3.83958673      20.92532349      38.09540558
H        6.81275511      21.71286201      37.86772156
H        5.49271727      22.44611549      36.92246628
H        3.54854155      23.05073357      38.87191010
H        4.41478872      24.57337570      38.57339859
H        4.33682442      23.90388680      40.23062515
C       15.88063526      22.33788300      29.39814949
O       17.04686165      22.21663094      30.21692085
C       17.53632355      20.87548447      30.25705147
C       18.75051498      20.91571617      31.17015839
O       19.22723770      19.56185150      31.21426010
C       20.36236382      19.44644737      32.08888626
C       20.76486778      17.98211670      31.90549088
O       21.77476120      17.58473778      32.84988403
C       23.10255051      17.96318245      32.44996262
H       15.08462811      21.64199257      29.71733284
H       15.51167202      23.36866951      29.50540543
H       16.10775375      22.11970520      28.33640099
H       17.79753876      20.52286720      29.23216248
H       16.75997353      20.17139053      30.62511253
H       18.48798180      21.28567505      32.17888641
H       19.52811241      21.59063339      30.76173973
H       20.08240509      19.70153236      33.13316727
H       21.16393852      20.13699722      31.75557518
H       19.88774872      17.33935165      32.08302307
H       21.05487251      17.77916908      30.85555077
H       23.16859055      19.04814720      32.26192856
H       23.36622620      17.44130707      31.50707817
H       23.81362343      17.64174843      33.22467041
C       15.72282982      38.39934540      18.77978325
O       17.10246277      38.07999039      18.93139648
C       17.89876175      38.39863586      17.76165581
C       19.32385063      38.30410385      18.27722168
O       20.21089363      38.44986343      17.15289688
C       21.57366371      38.43320465      17.62653923
C       22.49234581      38.53676224      16.40146637
O       23.85521698      38.25077057      16.79662895
C       24.62022209      39.33580399      17.35980225
H       15.29971409      37.93725967      17.87001801
H       15.16525078      37.99815369      19.63820076
H       15.57410240      39.48373413      18.72627640
H       17.64792824      39.41115189      17.40507126
H       17.67852974      37.68768311      16.94521713
H       19.47477150      37.33380890      18.78680992
H       19.51102829      39.08650208      19.03029823
H       21.77682686      37.47606277      18.13806343
H       21.72303009      39.24267578      18.36374092
H       22.20777702      37.76503754      15.66701126
H       22.39613914      39.51358795      15.89219666
H       24.18043709      39.70053864      18.30328369
H       24.70101166      40.17015457      16.64162636
H       25.61745644      38.92798233      17.57812119
C       17.57573318      14.33197021      26.36314964
O       17.07610321      14.43665791      25.02776146
C       16.93527412      15.83665371      24.69835281
C       16.86025620      15.88658047      23.18464279
O       16.55911446      17.24404144      22.83551025
C       16.63203430      17.35988045      21.40646935
C       16.22086334      18.77853775      21.03276825
O       16.01148415      18.84729195      19.61476326
C       17.19930458      19.11506462      18.83859253
H       16.90724945      14.80235386      27.11107445
H       17.63119507      13.25406551      26.58396912
H       18.57454681      14.80342197      26.46603394
H       17.79121971      16.43513489      25.06923866
H       16.04446030      16.25583458      25.20126724
H       16.09477806      15.19533348      22.77470970
H       17.82543182      15.55914783      22.75136948
H       15.94837761      16.65052032      20.90808487
H       17.65502548      17.13927841      21.03870583
H       15.26018524      19.02209854      21.52723122
H       16.95257759      19.52648735      21.39013481
H       17.94555092      18.31179619      18.92735481
H       17.64978790      20.07875633      19.11738968
H       16.89370155      19.13072205      17.78096581
C       10.16372490      11.69468594      16.98162842
O       10.85974884      10.47804546      16.68094826
C       10.01155472       9.38334274      16.30639648
C       10.93449974       8.18413448      16.13058281
O       10.17142963       7.17732763      15.46188545
C       10.94049740       5.99513769      15.25598717
C       10.01829052       5.02604055      14.50427341
O       10.63146019       3.74143314      14.40277004
C       11.52502251       3.54787207      13.32166004
H        9.39966965      11.56934261      17.76379204
H       10.91352463      12.42386818      17.31762886
H        9.64971638      12.08034897      16.08689117
H        9.51637554       9.58947372      15.34174919
H        9.22958183       9.19803429      17.06585503
H       11.30328560       7.84244871      17.11203766
H       11.80685329       8.47492504      15.51859474
H       11.26494980       5.56003237      16.21686745
H       11.83739471       6.21057987      14.64870644
H        9.09240723       4.90309620      15.08911324
H        9.72899437       5.41698837      13.51257133
H       12.33544922       4.28905773      13.31522083
H       10.99899864       3.57061720      12.35180664
H       11.96609497       2.54710817      13.44290161
C       30.01911736      10.14205551      34.72203445
O       29.37809372       9.80329895      33.50057602
C       28.87624168      10.94406986      32.78582382
C       28.26180077      10.36397457      31.51825142
O       27.58217430      11.43295479      30.85547638
C       26.78685760      10.86824894      29.80444145
C       26.06579208      12.00749397      29.07938004
O       25.53723717      11.58670139      27.81519318
C       26.48974800      11.34189987      26.76652718
H       29.30903435      10.57104206      35.45111465
H       30.45095253       9.23299789      35.15829849
H       30.82477379      10.87462711      34.57336426
H       29.68630600      11.64814663      32.54319000
H       28.12215805      11.47734451      33.39083862
H       27.54677582       9.56240749      31.77424431
H       29.03605461       9.92405510      30.86035919
H       26.01916885      10.17865181      30.20338249
H       27.40964508      10.29232407      29.09590721
H       25.19218445      12.32728386      29.66858292
H       26.72916031      12.88193321      28.96034813
H       27.14605904      10.48274708      26.97272682
H       27.11146736      12.23139095      26.58046150
H       25.90396690      11.10808945      25.86507034
C       33.07606506      10.86338329      31.44019318
O       31.85280991      11.48331356      31.04363441
C       31.93229103      12.24677277      29.81314278
C       30.50193977      12.69396114      29.49678421
O       30.59951401      13.90402889      28.73419762
C       29.28088760      14.33012009      28.35010529
C       29.42917252      15.57526398      27.46582031
O       28.15732002      16.01744461      26.97692490
C       27.52563858      15.18032360      26.00826454
H       33.61634064      11.47614479      32.17664337
H       32.83591843       9.88503456      31.88645935
H       33.74569321      10.69512463      30.57711983
H       32.34152603      11.61342907      28.99858475
H       32.59444427      13.12038898      29.94941139
H       29.92402649      12.86437798      30.42370224
H       29.94241714      11.93429852      28.91831398
H       28.65142822      14.55437279      29.23550797
H       28.76807404      13.53584290      27.76977730
H       29.85853004      16.42001534      28.03067589
H       30.08906555      15.33232975      26.60869598
H       26.99735451      14.32969761      26.47707748
H       28.23027229      14.78805542      25.24733543
H       26.76820374      15.79833126      25.49927902
C       26.51025009       0.92119324      13.75730801
O       26.09370422       2.28233242      13.86430550
C       26.67569923       2.95312285      14.99650860
C       26.36853027       4.43042040      14.85825062
O       26.02912712       4.92689800      16.14933014
C       25.72054863       6.32386780      16.08782005
C       25.06097984       6.66651917      17.41778564
O       24.44617653       7.97065735      17.34807014
C       25.33905220       9.00211334      17.76775551
H       26.22237778       0.33476454      14.64645004
H       26.02719116       0.46072027      12.88424206
H       27.60122681       0.85460943      13.60727406
H       27.77092934       2.78754354      15.03802299
H       26.25555992       2.57852268      15.94641113
H       25.52223587       4.54890490      14.15039921
H       27.23932076       4.96559906      14.43078041
H       25.01639366       6.51047564      15.25357056
H       26.63757515       6.91746521      15.93024731
H       24.23213005       5.96355295      17.61907387
H       25.76056862       6.60082293      18.27643394
H       26.24713516       9.02925301      17.13396835
H       25.64475060       8.89019966      18.82583618
H       24.77439880       9.94172859      17.63747978
C       35.82837677      10.84412003      11.83092594
O       35.90737534      10.37551498      10.48743534
C       34.64420319       9.93737125       9.94818592
C       34.89203644       9.61150932       8.48060608
O       33.69620895       8.98289776       8.01068306
C       33.73184204       8.73599339       6.60018492
C       32.33681488       8.24667645       6.23817348
O       32.26164246       7.69045830       4.92204046
C       32.48854446       8.62954998       3.85974240
H       35.34908295      10.09490299      12.49063492
H       36.83634949      11.06376743      12.21023846
H       35.20327377      11.75508404      11.89886570
H       33.87156677      10.72566223      10.04071522
H       34.27299881       9.04620361      10.48760509
H       35.75764847       8.92885780       8.37361240
H       35.10230637      10.53375053       7.91114902
H       34.45647812       7.94337082       6.33982706
H       33.99115753       9.65557384       6.04429007
H       32.04597473       7.43320227       6.92469788
H       31.60398865       9.06254482       6.36742592
H       33.50618362       9.03794861       3.88000965
H       31.75349808       9.44475937       3.89154434
H       32.35941315       8.07318115       2.92649531
C       16.07181549      14.67997837       7.82866955
O       16.98154640      14.74977589       8.94083023
C       16.49801064      14.09491539      10.13862133
C       17.73484612      13.90262604      11.01065063
O       17.27727318      13.25121307      12.20549679
C       18.36198807      12.65980434      12.94384003
C       17.69075012      12.09148312      14.19012833
O       18.66843224      11.42036343      15.02308655
C       18.72545815      10.00373650      14.82734394
H       15.26258945      15.42265892       7.93504858
H       16.63498306      14.86203575       6.90473270
H       15.60682678      13.68682766       7.75093603
H       16.02616119      13.13181305       9.87781048
H       15.71776104      14.70219326      10.63820457
H       18.22941399      14.85857582      11.26201534
H       18.46035767      13.27693939      10.46150970
H       19.12726784      13.41473866      13.21375751
H       18.84230423      11.86585903      12.34377193
H       17.23183441      12.89004993      14.79842186
H       16.87251472      11.41444397      13.89443588
H       19.26436615       9.73035240      13.90783405
H       17.70576477       9.57697296      14.79825020
H       19.24511719       9.56631279      15.69561863
C       34.59576035      17.10782433      24.10876083
O       34.16912079      16.10293961      25.03689957
C       33.73509979      14.89462566      24.37930107
C       32.91445541      14.18878269      25.44134331
O       32.23226547      13.06782913      24.83107376
C       31.35726929      12.48809147      25.81544495
C       30.44833374      11.50673008      25.08639526
O       29.58083534      10.92462730      26.10383224
C       30.12061882       9.82061195      26.84626961
H       33.72980881      17.51502609      23.56200600
H       35.05587387      17.90269089      24.70836449
H       35.32533264      16.71842194      23.38205338
H       34.59133530      14.29495621      24.00731087
H       33.09517288      15.10318947      23.50451851
H       32.17138290      14.89406013      25.86073875
H       33.53096771      13.85720444      26.29936409
H       30.74064445      13.26610374      26.29759216
H       31.91753006      11.97661304      26.61934280
H       29.76425552      12.01177692      24.38380814
H       30.98999023      10.73403454      24.51557350
H       30.83291435      10.12837219      27.63083839
H       30.58333206       9.07075596      26.18406105
H       29.25536537       9.33700943      27.32847023
C       27.34979630      30.92074394       4.47369719
O       26.97873497      31.48705673       5.73778343
C       25.62032318      31.18321419       6.13625956
C       25.53120422      31.89497566       7.47816372
O       24.20844078      31.69952393       8.01596928
C       24.05317307      32.50740051       9.18792343
C       22.59106636      32.42862701       9.61681461
O       22.47236824      33.12428665      10.90176964
C       22.53878403      32.35602188      12.10363674
H       26.69613075      31.30695534       3.67192245
H       28.39706421      31.17570877       4.27241087
H       27.23902321      29.82306480       4.49087334
H       25.46234322      30.09222794       6.22625542
H       24.87783241      31.57348442       5.41831160
H       25.71869469      32.97868729       7.34884977
H       26.28781319      31.49767876       8.18122005
H       24.28565598      33.57183838       8.98656368
H       24.69540024      32.14424133      10.01477242
H       21.93161392      32.96019745       8.90756321
H       22.21481323      31.39497566       9.66858959
H       23.53557968      32.40949631      12.57464409
H       22.29057121      31.29729652      11.90465164
H       21.78839302      32.72950745      12.82374001
C       39.18668747      25.96518135       6.76034975
O       39.43405151      25.58205795       8.11272526
C       38.63366699      26.36135101       9.02814865
C       38.78852844      25.76350212      10.42343998
O       37.75109863      26.35651016      11.20990276
C       37.71888733      25.90033150      12.57298183
C       36.55397034      26.67202187      13.21438694
O       36.38041306      26.26263428      14.58433628
C       35.53781509      25.13525581      14.78022480
H       39.30913544      27.05584526       6.64695549
H       39.88898468      25.42835808       6.10600376
H       38.15741730      25.69134903       6.47186565
H       37.56855392      26.33167267       8.73619270
H       38.96479034      27.41361809       9.02122498
H       39.77518845      25.97101593      10.86873055
H       38.63716888      24.67274094      10.35771084
H       38.66913223      26.11822891      13.09287834
H       37.51322174      24.81826210      12.59187508
H       36.75708771      27.75343132      13.25552273
H       35.63034058      26.52718544      12.62518311
H       35.95499420      24.20631790      14.35933113
H       34.54593658      25.30080986      14.31539536
H       35.38965988      25.00142670      15.86335945
C        8.30025864      28.15250969      38.90598679
O        9.20759869      27.89885139      37.85391235
C       10.53274250      28.44926453      38.02541351
C       11.13928509      28.48533630      36.63505554
O       12.50806999      28.82192421      36.83317947
C       13.23090267      28.65753937      35.60609436
C       14.71848392      28.78400993      35.94168854
O       15.46596813      28.51596451      34.73321915
C       15.57735538      27.13097382      34.38255310
H        8.27453613      29.23246384      39.14738464
H        7.29974937      27.84108543      38.55838776
H        8.54490185      27.60105896      39.83454132
H       11.10613060      27.79478645      38.70279312
H       10.46263123      29.45542526      38.47978973
H       10.60899544      29.22514725      35.99941635
H       11.01461792      27.52060509      36.11165237
H       12.92618370      29.40782738      34.85009384
H       13.02897644      27.67005348      35.15223694
H       14.96125126      29.79767036      36.29311371
H       14.99345970      28.06735039      36.73879242
H       14.59649277      26.69377136      34.11591339
H       16.00305748      26.52864838      35.20714951
H       16.21171188      27.05770302      33.48769379
C        9.02158642      14.02184010       2.12294531
O        8.48830700      15.28524399       2.50048542
C        9.21955967      15.98901081       3.52539802
C        8.48626137      17.30538368       3.71509886
O        9.00418186      17.83558083       4.93283939
C        8.41336441      19.07741356       5.29011631
C        9.05047989      19.39869881       6.64869881
O        8.42330933      20.48494530       7.34651518
C        8.60533905      21.75346184       6.71764851
H        8.81826782      13.24442291       2.87444210
H        8.53972435      13.72614574       1.17827177
H       10.11308098      14.08437443       1.97133040
H       10.26486588      16.16165543       3.21067739
H        9.22932816      15.42886162       4.47444153
H        7.39545870      17.13589478       3.78115320
H        8.68492985      17.97369957       2.85895944
H        7.31710625      18.98364449       5.39683151
H        8.63791180      19.85162926       4.53368807
H        8.93696976      18.52413750       7.31079531
H       10.12804127      19.59888077       6.50673866
H        8.06176567      21.81674004       5.75962734
H        9.66994572      21.97445869       6.55677176
H        8.18246746      22.50391388       7.39483500
C       32.58057404      16.42204666      38.51672363
O       32.54114914      16.66865349      37.11740494
C       31.78810883      17.85860825      36.80723953
C       31.73363113      17.93517876      35.28103256
O       31.26012421      19.24690628      34.93584061
C       31.25429344      19.35976982      33.49723434
C       30.92771339      20.81264496      33.20327377
O       30.66483116      20.98695374      31.79248238
C       31.76827621      21.63155937      31.10919380
H       31.56985092      16.29275322      38.93603134
H       33.12310410      15.47970104      38.67537689
H       33.05884933      17.23743057      39.08071899
H       32.27653503      18.74006081      37.26146317
H       30.77254677      17.80336761      37.23490524
H       31.06046677      17.17160988      34.84440613
H       32.73542023      17.76067734      34.84389114
H       30.51195335      18.68509674      33.03469086
H       32.23701096      19.07702637      33.06970978
H       30.01910591      21.10939789      33.76366425
H       31.74807358      21.46987343      33.53639984
H       32.68392563      21.02043343      31.17966843
H       31.97820091      22.62602234      31.52565765
H       31.46972847      21.71914291      30.05133629
C       38.63485336       7.13166618      34.32219315
O       37.23438644       7.00130987      34.38601303
C       36.66513062       6.44081354      33.20225143
C       35.17906952       6.27981329      33.52138138
O       34.68421555       5.36742401      32.55102539
C       33.30329132       5.06674910      32.76423264
C       32.95500565       4.04890203      31.66602135
O       31.52949715       3.93108892      31.53953171
C       30.87333870       3.23430085      32.58465576
H       38.94526672       7.75295162      33.46144867
H       38.96719742       7.61316538      35.25205231
H       39.13470459       6.15220928      34.22531891
H       37.12712479       5.47091484      32.95382309
H       36.78446198       7.11355972      32.33417511
H       34.65484619       7.25121355      33.46149063
H       35.05472565       5.91391945      34.55419159
H       32.67992401       5.96845198      32.61591339
H       33.12914276       4.68794680      33.78700638
H       33.29608536       4.46708059      30.70484734
H       33.44274521       3.07226062      31.81014061
H       31.08745575       3.63934827      33.58930588
H       31.09977341       2.15423012      32.55657959
H       29.79540825       3.35389566      32.40321350
C        4.70867729      27.68042755      36.84368515
O        5.98257542      27.85559273      36.24671173
C        6.00187683      28.85288811      35.20566177
C        7.46265888      28.90250778      34.77173233
O        7.48620176      29.78320312      33.63643265
C        8.84022045      30.03376579      33.23141861
C        8.75444603      30.78994179      31.90105438
O       10.07840633      31.12948990      31.45446205
C       10.62907696      32.29077148      32.06866074
H        3.94691634      27.42577744      36.08703995
H        4.78695917      26.84016228      37.54706573
H        4.36353493      28.58053780      37.38159561
H        5.64758444      29.82460785      35.59144974
H        5.33413076      28.57101250      34.37246704
H        7.82345772      27.89729309      34.49008179
H        8.07754040      29.27016258      35.61082077
H        9.40853786      29.10321045      33.05985641
H        9.37145519      30.60740471      34.01612473
H        8.31444073      30.14632988      31.11903000
H        8.10154629      31.68003654      31.97803116
H       10.73621178      32.17656708      33.16247940
H       10.02024555      33.18531418      31.82049561
H       11.63600922      32.44234467      31.65654755
C       37.00870132      23.34341240       7.68762827
O       35.80955505      22.90678978       7.06359434
C       34.74469376      22.67290115       7.99735212
C       33.76770782      21.80043411       7.25856066
O       32.66304398      21.62661552       8.15232944
C       31.59568596      20.95399094       7.47634792
C       30.44540405      20.95947456       8.47877693
O       29.27079964      20.40567017       7.86774731
C       28.56968498      21.28826523       7.00916862
H       37.23477173      22.72403336       8.57769871
H       37.81890488      23.25024033       6.93699121
H       36.94928741      24.39155769       8.02588272
H       34.28202820      23.61066628       8.35180187
H       35.09701920      22.15167809       8.90357494
H       34.21959686      20.82927132       6.99037552
H       33.44133759      22.26626396       6.31372356
H       31.88180351      19.92984772       7.17548180
H       31.29645729      21.49436378       6.55741882
H       30.67066383      20.34317780       9.36591434
H       30.24414253      21.98581505       8.83530426
H       28.99777222      21.34205818       5.99652433
H       28.47539520      22.29985428       7.42867422
H       27.54874802      20.88473320       6.90759182
C       18.96651268      11.62978745      21.34325027
O       19.18616867      12.86123943      22.03288841
C       20.48061180      12.85921764      22.67327881
C       20.63242722      14.21466064      23.33518600
O       22.02375031      14.36819839      23.65460205
C       22.35581589      15.75082684      23.84477615
C       23.88814354      15.77429485      23.97645760
O       24.36995888      16.96306229      24.61978912
C       23.97913742      18.15275574      23.90615845
H       19.22764015      10.75537777      21.96017647
H       17.89402008      11.55214500      21.10977936
H       19.52230453      11.58620262      20.38997269
H       21.25914764      12.72759819      21.90144348
H       20.55956841      12.02230644      23.39626503
H       19.98949051      14.33525658      24.22300720
H       20.30645180      14.97275639      22.59774208
H       21.83379364      16.17953491      24.71951675
H       22.01660347      16.30628967      22.95237923
H       24.22584343      14.92813492      24.60067558
H       24.33778191      15.65028095      22.96894073
H       22.88146973      18.29298973      23.96586990
H       24.26288414      18.08233261      22.83507538
H       24.47512436      19.00638199      24.39579773
C       20.40929604      39.34575272      11.46624184
O       20.14247513      37.98827744      11.78980446
C       20.45668793      37.73854065      13.16250706
C       20.07454872      36.28076553      13.40479755
O       20.38173676      36.04560089      14.78473186
C       19.98102188      34.77476883      15.31520271
C       19.67114067      35.09651184      16.78915977
O       19.42295647      33.93686295      17.60061073
C       18.18057823      33.29936981      17.28300667
H       21.45721054      39.59666824      11.71265888
H       20.24028206      39.47070312      10.38680267
H       19.74487114      40.02949142      12.02782726
H       19.89372253      38.40762711      13.84482193
H       21.53248787      37.90060806      13.36669922
H       20.61854553      35.58269119      12.73500061
H       18.99678040      36.14607620      13.19920063
H       20.78883553      34.03030014      15.20045757
H       19.09256744      34.39015961      14.78250217
H       20.51844406      35.61711502      17.25732803
H       18.79937744      35.76944351      16.85385132
H       18.22395134      32.76855850      16.31536674
H       17.33975410      34.01708603      17.29457855
H       17.96877861      32.54679108      18.06165695
C       18.19646072      13.01560688      36.17507935
O       17.14083099      12.66372776      35.28636932
C       16.88377380      13.57296658      34.20444489
C       16.11766624      12.77926254      33.14980316
O       15.44866943      13.73937798      32.30823517
C       14.73410130      13.06087589      31.26010323
C       13.74246216      14.06993675      30.68704224
O       13.07859612      13.57736588      29.50854111
C       13.84657574      13.80901146      28.32662964
H       17.82150269      13.43849277      37.12001038
H       18.75296593      12.10233974      36.43500900
H       18.87328720      13.75440884      35.71979904
H       17.81647682      13.98437977      33.77315903
H       16.28292274      14.43372250      34.55807114
H       15.38548565      12.08660316      33.60715485
H       16.79111290      12.13377380      32.54273224
H       14.18312454      12.17282486      31.62900162
H       15.43465519      12.68512154      30.48851967
H       12.94970131      14.28661442      31.42899323
H       14.24498558      15.02797031      30.46878815
H       14.81726170      13.28621101      28.34971619
H       14.01836586      14.88450050      28.16753960
H       13.27083302      13.39733124      27.48090935
C       35.24002075      18.90083504      32.78931046
O       34.78457260      19.15542221      34.12435150
C       34.84406281      20.54714966      34.53140640
C       34.18250275      20.58805466      35.90452576
O       34.34798431      21.89872169      36.44178772
C       33.63752365      22.08253670      37.68547440
C       33.91798782      23.52579117      38.12719345
O       33.38492203      23.81796455      39.42713547
C       31.97406006      23.96751976      39.52701187
H       36.20858765      19.38475800      32.58603668
H       35.33840561      17.81247520      32.67648315
H       34.49814606      19.24913216      32.04890823
H       34.25188828      21.17173386      33.84158325
H       35.88337708      20.91259003      34.57175827
H       34.60015869      19.81821632      36.58254242
H       33.11493683      20.35875130      35.76385117
H       33.96989059      21.36744499      38.45594025
H       32.55508804      21.93881416      37.52286530
H       35.00804901      23.67720032      38.19923782
H       33.50263596      24.20102692      37.36362457
H       31.42737961      23.31885147      38.82358932
H       31.66998291      25.01000786      39.32753372
H       31.65319443      23.70552635      40.54672623
C       10.87636662      27.23544693      25.05112267
O       10.16829395      28.30051231      25.69557571
C        9.45764446      29.04817963      24.68970871
C        8.90083885      30.27139473      25.39561653
O        7.96101665      30.86720848      24.49842262
C        7.12858725      31.77298355      25.23948097
C        6.48838234      32.75152969      24.26228333
O        5.72075701      33.72382736      25.00181580
C        4.53898764      33.27963257      25.66866112
H       11.63006878      27.62034798      24.33813477
H       11.35705662      26.63457298      25.84143639
H       10.18244648      26.58271027      24.48994064
H        8.65259266      28.43038368      24.24621391
H       10.14693928      29.31411552      23.87095451
H        9.69583225      30.98993111      25.66503334
H        8.40496445      29.99981689      26.34647942
H        7.72979498      32.33088303      25.97743607
H        6.33896589      31.23919106      25.78996086
H        7.28187180      33.31365967      23.73807144
H        5.85710049      32.24520874      23.51193428
H        4.75371742      32.72428894      26.59795189
H        3.92220068      32.66271210      24.99514389
H        3.96421003      34.17720413      25.92878342
C       22.97071838       1.83950233      16.97570419
O       22.27144623       2.29925823      15.80450535
C       22.57198334       3.70666337      15.65300179
C       21.96635628       4.21210766      14.35003185
O       22.44706726       5.55382013      14.29635239
C       21.69177055       6.42843580      13.44329262
C       22.41768265       7.77943802      13.59773827
O       21.65298271       8.82644176      12.99951649
C       21.74361229       8.85129452      11.56357956
H       22.71170616       2.42904806      17.87211800
H       22.65897369       0.79532337      17.14237213
H       24.06597900       1.88716710      16.83110428
H       23.66631699       3.85235214      15.64702511
H       22.16790390       4.27763557      16.50831985
H       20.86013412       4.17401218      14.37543392
H       22.30335236       3.62054873      13.47569084
H       20.64602280       6.52458811      13.79041100
H       21.68583870       6.05856180      12.39582443
H       22.53530884       8.02048016      14.66892147
H       23.43271065       7.71483517      13.15722561
H       21.46614456       7.89070463      11.10355568
H       22.76212692       9.10006332      11.22786903
H       21.02610779       9.61155701      11.22724533
C       28.76086998      35.70976257       4.52090311
O       29.08429337      35.40888977       5.86820555
C       27.99506187      35.53812408       6.80092001
C       28.51627159      34.93323898       8.09586811
O       27.41309166      34.99253845       9.01967525
C       27.77724266      34.36235046      10.26407909
C       26.44981384      34.43232727      11.03628349
O       26.48410034      33.91590500      12.38221264
C       26.58180809      32.49852371      12.49442577
H       28.27481461      36.69898224       4.43411112
H       29.69769096      35.69736099       3.94399571
H       28.09760857      34.93531418       4.10198498
H       27.11552620      34.97964478       6.44992208
H       27.69961548      36.59244537       6.93846273
H       29.41025352      35.44945908       8.49122047
H       28.80078506      33.88621902       7.88654947
H       28.56232834      34.93172073      10.78286839
H       28.13085938      33.33384323      10.08830929
H       26.15634155      35.48154068      11.18087292
H       25.64978790      33.94599152      10.46581745
H       27.09991264      32.01560593      11.64708042
H       25.58283997      32.03120422      12.55318260
H       27.13953590      32.25800705      13.41283989
C        2.89809203      35.80882645      19.05317497
O        3.47764158      34.77118683      19.81560135
C        4.89716578      34.63287354      19.68290901
C        5.25882816      33.42075729      20.54599571
O        6.60912228      33.05411148      20.24866295
C        7.00510883      31.78755760      20.78482246
C        8.12878799      31.25037575      19.88869858
O        8.61890602      29.99211502      20.39343834
C        9.71454430      30.13008881      21.32349777
H        2.74844503      35.51356506      18.00266647
H        1.91369283      35.99512863      19.50350189
H        3.52043056      36.71738815      19.09957695
H        5.40772343      35.55068588      20.02647018
H        5.16635704      34.42778397      18.63518524
H        4.55692720      32.60554886      20.29589081
H        5.12776804      33.63589096      21.62380028
H        6.14762449      31.08494186      20.74957466
H        7.33721781      31.87419891      21.82766533
H        7.72278500      31.02222633      18.89210701
H        8.94125557      31.98482513      19.78059769
H        9.39433861      30.65225983      22.23886299
H       10.53793335      30.69652748      20.85303879
H       10.04737759      29.11364937      21.57917595
C        8.64841843      29.57475662      10.95770645
O        7.66062212      30.43939018      10.36787891
C        8.33483696      31.32871056       9.44495392
C        7.34131384      32.43407440       9.12514591
O        7.99532652      33.30375671       8.18969727
C        7.12493134      34.38809967       7.84677172
C        7.80060720      35.20924759       6.73451948
O        6.93703127      36.28435898       6.34661961
C        5.85830307      35.95165253       5.47702742
H        9.44816399      30.16704941      11.43499660
H        8.12545967      28.97134590      11.71132565
H        9.08648014      28.90198517      10.20388889
H        8.65463924      30.77647591       8.53624630
H        9.23832130      31.75637817       9.90889072
H        7.03372431      32.98773956      10.03672981
H        6.41173697      32.03220367       8.68102932
H        6.91909885      35.00021362       8.74952221
H        6.15599728      33.99848175       7.48372126
H        8.73537827      35.66093063       7.10548019
H        8.04051876      34.56165314       5.86893225
H        5.21198225      35.15530396       5.88039017
H        6.22284985      35.62985992       4.49037981
H        5.24017906      36.85335541       5.37775373
C       16.78326797      21.02962494      39.47124481
O       16.87816811      21.66019058      38.19398880
C       15.64735889      21.67633820      37.43024826
C       15.98577118      22.02883148      35.98202133
O       14.75632000      21.94266129      35.25096512
C       14.94860077      22.20097351      33.84577179
C       13.66639042      21.73488235      33.13047791
O       13.75618076      22.02900696      31.72180748
C       13.33787251      23.38385582      31.48267174
H       16.27605438      20.05327225      39.39318085
H       17.79261398      20.88541603      39.88312912
H       16.19371986      21.63508224      40.18312454
H       14.94138718      22.39515495      37.87828064
H       15.14160156      20.69988823      37.45193100
H       16.71865082      21.30980873      35.56134796
H       16.40038300      23.05571938      35.92726898
H       15.79439259      21.61462212      33.42940521
H       15.12926960      23.27947998      33.67924118
H       13.52698040      20.64622307      33.21543884
H       12.75441837      22.19111633      33.56485748
H       13.91943550      24.12225914      32.05836105
H       12.26908875      23.49286079      31.74836540
H       13.45913124      23.57323647      30.40760040
C       12.29568100      20.19120789       2.28597951
O       11.75845909      21.29954910       3.01397347
C       11.09979820      22.23040009       2.13621354
C       10.62217045      23.35690880       3.04393959
O        9.71044636      24.15605354       2.28444457
C        9.16917419      25.16927910       3.14549875
C        8.13132286      25.97493744       2.37473559
O        7.67250061      26.99046326       3.29442310
C        6.32134247      26.92789268       3.75557470
H       13.04827785      20.51498604       1.54529238
H       12.74848843      19.50458336       3.01542759
H       11.50520420      19.65453529       1.73706949
H       10.24122906      21.76086807       1.62602186
H       11.78378201      22.60215187       1.35261071
H       11.46997738      23.96463966       3.40917563
H       10.11945724      22.93478012       3.93262625
H        9.95239353      25.85517311       3.51163292
H        8.66094017      24.73843765       4.02693939
H        8.60210609      26.45724487       1.50080824
H        7.30835056      25.33917999       2.00860500
H        6.22436523      26.26432419       4.63311958
H        5.64626122      26.55729103       2.96414781
H        5.99573803      27.93165970       4.06811857
C       29.81214142      30.94558144      19.51853561
O       30.62993431      32.08594513      19.87487984
C       30.80695915      32.95549393      18.71969223
C       31.81662750      33.97975159      19.21119308
O       32.19517517      34.76588440      18.08521843
C       33.18312073      35.71815872      18.53600502
C       33.50899506      36.64660645      17.36064720
O       34.32592773      37.70910263      17.86410522
C       33.67295074      38.63563156      18.74324608
H       30.17359543      30.47896957      18.58177757
H       29.86359596      30.22825432      20.37203598
H       28.75568390      31.25022888      19.36964989
H       29.83677673      33.39417267      18.42600441
H       31.18654060      32.38015747      17.85348320
H       32.70907593      33.46307755      19.61713219
H       31.40905380      34.60520554      20.03004265
H       34.09944534      35.19598389      18.86215401
H       32.77654266      36.29436111      19.38325310
H       34.06632233      36.11765671      16.56512833
H       32.57213593      37.02173996      16.89863777
H       33.33472061      38.18688583      19.69078636
H       32.78516388      39.07065964      18.25403214
H       34.38363647      39.43724060      18.97984314
C       20.59946251      28.90920067      10.11723709
O       20.15748787      30.27269363      10.05814075
C       19.19097137      30.56385612      11.09504032
C       18.81668472      32.03870010      11.03912354
O       17.92830276      32.18035507      12.17211246
C       17.46704292      33.51739883      12.43587208
C       16.49857140      33.37334442      13.61874962
O       15.76677227      34.58260727      13.87642574
C       16.30510521      35.52605820      14.79908657
H       19.73063660      28.22609711      10.05637169
H       21.26599693      28.70963669       9.26696014
H       21.14179039      28.69956779      11.05035973
H       19.57902145      30.33119202      12.09671593
H       18.28358841      29.96395874      10.94385529
H       18.28487396      32.27130508      10.09624672
H       19.70186043      32.68997955      11.13838196
H       16.92777061      33.90671921      11.55933857
H       18.30246353      34.18637466      12.69563961
H       15.73143291      32.63037491      13.34460831
H       17.03676414      33.01755905      14.51579189
H       17.19096565      36.05781555      14.41180134
H       16.55198097      35.07508850      15.77887630
H       15.50335693      36.26041412      14.98557758
C        9.69382286      24.83445740      39.48900986
O        9.09385109      24.07238579      38.44336700
C        8.90404415      24.88917923      37.26493073
C        8.50137615      23.99787712      36.09740448
O        8.19234085      24.90074921      35.03637695
C        7.61570692      24.21666145      33.90365982
C        7.30331087      25.31643295      32.89136124
O        6.48532820      24.88470459      31.81052399
C        7.01403904      23.88290787      30.94662476
H        9.03287506      25.65564156      39.80912018
H        9.84751606      24.20076752      40.37012863
H       10.65719414      25.26578903      39.17297745
H        9.83769608      25.42457962      37.01472473
H        8.14082432      25.66021347      37.46402740
H        7.62214994      23.37488174      36.33098221
H        9.32130814      23.30509758      35.81311417
H        6.67470217      23.70096588      34.18099594
H        8.30204296      23.45256424      33.49028015
H        6.71851540      26.10193253      33.40571976
H        8.21875954      25.80423546      32.51579285
H        7.41782093      23.02411652      31.49478531
H        7.77848530      24.28203583      30.26469994
H        6.18289709      23.50538445      30.34357452
C       17.16100693      36.65185547       6.37854195
O       15.73958492      36.67104721       6.29332924
C       15.10623455      37.66148376       7.11667585
C       13.61721134      37.36833954       7.02074575
O       13.02617359      38.10702515       8.09077072
C       11.61358643      37.93282318       8.20074177
C       11.26599312      38.74020386       9.46202850
O        9.89281940      38.55059052       9.82201672
C        8.95661449      39.47782898       9.29820538
H       17.48716927      35.78877258       6.97429132
H       17.63701057      36.57522202       5.39088678
H       17.53968811      37.55993652       6.86851645
H       15.32244205      38.68542480       6.76082850
H       15.43462944      37.60416412       8.16877937
H       13.45370388      36.28274918       7.13503170
H       13.20382595      37.65407562       6.03405237
H       11.33288002      36.87323380       8.32539749
H       11.08256721      38.31304169       7.30762434
H       11.85949993      38.35504532      10.30777168
H       11.49452782      39.81096268       9.33750439
H        9.11095524      39.65972900       8.22232914
H        8.98453140      40.43048477       9.85992336
H        7.96695232      39.02158356       9.42305946
C       24.31966209      21.23731804      26.58580399
O       25.31798172      20.89356995      25.62753296
C       26.31256104      19.98838043      26.16621780
C       27.47793961      19.98033714      25.19041824
O       28.34775352      18.91780472      25.56672859
C       29.49015045      18.87112427      24.70757866
C       30.25390434      17.56911659      24.94533920
O       31.30055428      17.46686363      23.95211029
C       30.94459724      16.83379555      22.72089386
H       24.70706749      21.87750435      27.40107346
H       23.50698662      21.77854347      26.07617378
H       23.83584404      20.35355759      27.03347015
H       25.88509560      18.96899796      26.27240562
H       26.61233521      20.30614853      27.18749046
H       27.97213554      20.96871376      25.22376251
H       27.09748650      19.81548691      24.15620613
H       30.13633537      19.74341202      24.90440559
H       29.18005562      18.88929749      23.64604568
H       30.71785927      17.56408310      25.94485283
H       29.56248093      16.71043777      24.87327766
H       30.06057739      17.29301643      22.24871254
H       30.71780014      15.75864410      22.87285423
H       31.80091858      16.89932823      22.02801895
C       15.35797215      18.07911110      37.31993484
O       14.00537968      18.55274391      37.24630356
C       13.59475613      18.69728470      35.86850739
C       12.16027355      19.21590996      35.85295486
O       11.77872086      19.23159218      34.47763824
C       10.42939472      19.73007011      34.30983353
C       10.15395164      19.83290482      32.80730820
O        8.98603344      20.65667152      32.59297180
C        7.76421118      19.94373703      32.38244247
H       16.06031227      18.80563354      36.87480927
H       15.58375549      17.88146591      38.37686920
H       15.46209335      17.14770126      36.73521423
H       13.65580654      17.72324371      35.34782028
H       14.26011086      19.38997269      35.32840729
H       12.08210754      20.23201942      36.29381561
H       11.47648621      18.56660271      36.43275833
H       10.32309341      20.71647072      34.80083847
H        9.69478703      19.05410385      34.77836609
H       10.99687862      20.35131836      32.30839920
H       10.04935169      18.84286499      32.32377243
H        7.49027920      19.30876732      33.23389053
H        7.80588865      19.31639671      31.47788620
H        6.96461058      20.68027496      32.25866699
C       27.11486244      18.68499756      16.77149010
O       28.25506401      18.36551666      17.57036018
C       29.30358696      19.33526993      17.39133644
C       30.42479324      18.98093987      18.36279678
O       31.46341896      19.92327690      18.10651207
C       32.72249222      19.56809807      18.69139481
C       33.64185715      20.77785110      18.48120499
O       34.98690033      20.45360756      18.84737206
C       35.42124939      20.90575981      20.11348534
H       27.22896576      18.37928581      15.71663761
H       26.25092125      18.13871765      17.17241478
H       26.89686584      19.76343536      16.80208397
H       28.90575409      20.34779739      17.58503151
H       29.65786743      19.30119514      16.34035301
H       30.75894928      17.94261551      18.18604660
H       30.07352448      19.03483200      19.41246414
H       33.14501190      18.67545319      18.19460297
H       32.61127090      19.34281349      19.76638412
H       33.61936188      21.01848412      17.40753937
H       33.25920105      21.65744781      19.03197861
H       34.80909729      20.49872780      20.93645859
H       35.40051270      22.01192284      20.17969894
H       36.45246887      20.55690002      20.27312660
C       20.66690063      34.86117172      30.18511772
O       21.52792931      35.11516571      29.07339096
C       21.51984787      34.11779404      28.02955055
C       22.91304016      34.22993088      27.46736526
O       23.05332756      33.28121948      26.39643478
C       24.36772156      33.42152405      25.83347893
C       24.38401985      32.44497299      24.65962029
O       25.68261719      32.31904602      24.06153297
C       26.00805855      33.43050766      23.20319748
H       20.79581070      33.82894516      30.55803680
H       20.87463379      35.57448196      30.99479866
H       19.61206627      34.96494293      29.87980270
H       20.73734093      34.34513855      27.27992249
H       21.31930351      33.10260391      28.41637993
H       23.64203644      34.04589844      28.27456284
H       23.05967522      35.25386810      27.08783150
H       25.12960815      33.17901993      26.59251213
H       24.51461029      34.46269226      25.49129868
H       24.09885025      31.43760490      25.01422501
H       23.62306404      32.74245071      23.91117859
H       25.79950142      34.39392853      23.68786812
H       25.43712807      33.37128067      22.26038933
H       27.08769035      33.36092758      22.98703003
C       23.69884682      10.27056313      23.69508553
O       24.90649986      11.04053402      23.76666832
C       24.99342537      11.96469784      22.64931679
C       26.13599586      12.92370224      22.97337341
O       26.18003464      13.82237530      21.85445786
C       27.06830788      14.92970848      22.10373306
C       27.00245094      15.79075527      20.83683968
O       27.86242485      16.91787148      21.01622581
C       27.25743484      18.01461601      21.70454979
H       23.68934059       9.58731365      22.82507896
H       23.61073875       9.67344570      24.61499786
H       22.81663513      10.92905235      23.59269905
H       24.04315376      12.51337528      22.53446388
H       25.15474510      11.40410805      21.71451187
H       27.09886742      12.39630699      23.10023689
H       25.92861748      13.45410347      23.92554092
H       28.10281563      14.58541584      22.28385162
H       26.74417686      15.50413609      22.99288750
H       27.35033607      15.22111607      19.95628929
H       25.95964241      16.09375000      20.61178207
H       26.94050407      17.77510834      22.73715019
H       26.34592247      18.34282112      21.16259003
H       27.98140526      18.84541702      21.72067642
C       35.01042175      40.05923843      15.81746006
O       33.59402847      40.11296463      15.68357182
C       33.14149475      39.49644470      14.46292400
C       31.62685966      39.36435318      14.58301163
O       31.01176834      39.50994873      13.30477524
C       29.66929054      38.99517441      13.31597233
C       29.16489029      39.03415298      11.87205791
O       27.73416519      39.23711777      11.79442406
C       26.97082710      38.30163574      12.57665348
H       35.50781631      40.46348190      14.91884136
H       35.30139923      40.63785172      16.70302010
H       35.34265900      39.01784515      15.96930790
H       33.59621429      38.50500488      14.30415821
H       33.39363098      40.12381363      13.59003544
H       31.20699883      40.13177490      15.27606487
H       31.36138916      38.38038635      15.02010345
H       29.02154541      39.62404633      13.96099854
H       29.62234306      37.96936417      13.72105980
H       29.61131096      39.90420914      11.36570644
H       29.44528580      38.11631775      11.32107162
H       27.19422340      38.31585312      13.65460205
H       27.05567169      37.26846313      12.20536518
H       25.91274834      38.57651901      12.46514320
C       16.40445137      25.97360802      31.00371933
O       16.54726410      25.07765579      32.11484146
C       17.93959808      24.93676376      32.47580338
C       17.97009087      24.03212357      33.69654465
O       19.32737350      23.86855125      34.13625717
C       19.37061691      22.89654350      35.19577026
C       20.74419022      23.04876137      35.84445190
O       20.84500122      22.19904327      37.00535583
C       20.13545990      22.56715775      38.19575119
H       16.85254669      25.55264664      30.08607483
H       15.32166290      26.10236740      30.83367157
H       16.87635803      26.94841766      31.20922089
H       18.38701057      25.92162514      32.70731735
H       18.48209953      24.47108459      31.62812996
H       17.51994896      23.06335831      33.41132736
H       17.33718681      24.44649506      34.50901031
H       19.18872643      21.88366890      34.79001999
H       18.58211708      23.09634590      35.94115829
H       21.53343391      22.70146561      35.15247345
H       20.91661072      24.10807037      36.09561157
H       19.05311012      22.67693520      38.01769638
H       20.50979424      23.49599266      38.65391159
H       20.24559784      21.74021149      38.91607285
C       22.29979897      38.88924026      21.15049553
O       20.89100075      39.00120926      20.88970184
C       20.12241364      38.96670914      22.11619759
C       18.66253662      38.93011475      21.70054054
O       17.92696953      38.91838837      22.93590546
C       16.56410789      38.54356003      22.72719383
C       15.99882603      38.51509476      24.15164375
O       14.69577789      37.90150452      24.18992424
C       13.65632725      38.79595184      23.79077721
H       22.51967239      37.89687729      21.58375168
H       22.83386803      39.01362991      20.19652939
H       22.62042046      39.67091370      21.85514641
H       20.34551430      39.85772324      22.73304558
H       20.37436104      38.06665421      22.70444107
H       18.45297432      38.02854538      21.09874725
H       18.36592484      39.79642487      21.07753563
H       16.49567032      37.54675674      22.25285721
H       16.02755165      39.25824738      22.07112122
H       16.64925385      37.89255524      24.78836632
H       15.95602036      39.52809525      24.59810829
H       13.66133404      38.99692535      22.70871162
H       13.71358013      39.75278091      24.33371544
H       12.69239426      38.32149887      24.01135254
C       22.09908867      21.93489075      14.58994007
O       21.85518265      23.06422615      13.75029469
C       20.71308899      22.84287262      12.91318321
C       20.75062943      23.84985352      11.77397346
O       19.72862816      23.39700699      10.89121056
C       19.68771744      24.11673927       9.65315056
C       18.80467224      23.23313904       8.76651382
O       18.70020676      23.75004005       7.42356968
C       17.68703270      24.76761055       7.30034113
H       22.17926979      21.00288773      13.99047089
H       23.02650070      22.10227585      15.15286160
H       21.24851990      21.80105591      15.28167915
H       19.77215004      22.92706490      13.48401165
H       20.71523285      21.82731819      12.47278881
H       21.74208641      23.82482910      11.27956009
H       20.56193542      24.88223648      12.12692738
H       20.68778229      24.19489098       9.18943119
H       19.28244591      25.13386154       9.81081390
H       19.27898979      22.24429321       8.66287231
H       17.80348015      23.08138657       9.20958233
H       17.80770493      25.57475281       8.03678417
H       16.67551613      24.34131432       7.43679094
H       17.75037384      25.18619728       6.28540230
C       25.79733086       9.50337601      34.08498383
O       25.09607506       8.95766640      32.96127319
C       25.06127548       7.51496553      32.87823486
C       24.10630798       7.24102545      31.73351669
O       23.92550468       5.83003521      31.67578888
C       22.87526131       5.47268105      30.79678154
C       22.81077385       3.94515634      30.79330444
O       22.05763054       3.47322273      29.67142868
C       20.64610100       3.57570410      29.73746872
H       26.82278633       9.10312748      34.17110825
H       25.84909630      10.59165192      33.92825699
H       25.27305794       9.31568718      35.03522491
H       24.70437050       7.06924343      33.82143784
H       26.06945992       7.12447166      32.66034698
H       24.51622391       7.63097763      30.78147697
H       23.15541840       7.77030563      31.91220856
H       23.06168938       5.80791235      29.75715446
H       21.90867996       5.91003180      31.12456512
H       23.82425499       3.52654982      30.68449593
H       22.38703156       3.56738973      31.73872375
H       20.29367447       4.61606312      29.78023720
H       20.23272896       3.01428151      30.59087181
H       20.24572563       3.12238503      28.81807518
C       30.82191658       7.21290016      30.05678749
O       32.12171173       7.76880407      30.17766953
C       32.96926880       7.63704395      29.01590729
C       34.39273453       7.75169182      29.55578423
O       35.21574402       7.56065178      28.41102600
C       36.60366058       7.65298748      28.73841667
C       37.31624222       7.62183905      27.38431168
O       38.73886108       7.67652321      27.52668953
C       39.22396851       8.94644833      27.95748711
H       30.84904289       6.24456120      29.53239059
H       30.43237114       7.05196619      31.06979752
H       30.13438034       7.87574148      29.51029587
H       32.75270462       8.44053555      28.29386139
H       32.81591415       6.67524099      28.50207329
H       34.56657028       6.98834133      30.33268356
H       34.55080414       8.73654938      30.02934837
H       36.90611649       6.81304598      29.38443756
H       36.81254578       8.58886909      29.28931999
H       37.09398270       6.69621611      26.83368492
H       36.93013382       8.45299721      26.77520943
H       38.99481583       9.17037010      29.01132393
H       38.78765106       9.74828148      27.32788658
H       40.31712723       8.95720673      27.81793785
C       17.12178230      10.76565075      23.98030663
O       17.61069298       9.65743923      23.19517136
C       18.09453964       8.58663750      24.03058815
C       18.47400093       7.45106697      23.09305191
O       18.71310616       6.32777691      23.95421028
C       19.05454254       5.15295506      23.21374321
C       19.23073196       4.06692934      24.26203346
O       19.54004860       2.82718635      23.58659744
C       18.52538872       1.82971227      23.59039688
H       17.81973839      11.10030365      24.76293373
H       16.91520691      11.59211731      23.28543663
H       16.17356682      10.50112057      24.47497749
H       17.30924606       8.27057171      24.74047279
H       18.95876312       8.94356155      24.62290382
H       19.37090111       7.68011713      22.48613930
H       17.65409660       7.23019266      22.38282776
H       19.99517250       5.28576946      22.64721870
H       18.26912117       4.86842394      22.48844910
H       20.05626488       4.32487965      24.94586372
H       18.31487465       3.98194170      24.86656761
H       17.66379166       2.08876896      22.95261574
H       18.15118217       1.62320328      24.60836792
H       18.94294739       0.88999915      23.20516968
C       10.68944168      36.11547089       4.40701103
O       11.39979172      34.90952301       4.12009573
C       11.43681049      33.96487808       5.20176888
C       12.44155216      32.93190002       4.69932652
O       12.63751698      31.90521431       5.67759228
C       13.57988262      30.96768379       5.12639952
C       13.77723122      29.83911705       6.12571621
O       14.62041855      28.83903694       5.52842999
C       14.00473404      27.66949844       4.99503613
H       10.98664093      36.56033707       5.36790657
H       10.91449928      36.82751465       3.60257721
H        9.60231876      35.94137192       4.43745327
H       10.43892384      33.51898193       5.36567402
H       11.73780441      34.44632339       6.14851141
H       13.39970779      33.43220901       4.48017883
H       12.07144356      32.49318695       3.75329375
H       14.55618668      31.44388962       4.93092155
H       13.20837116      30.54726791       4.17389297
H       14.27041340      30.20516014       7.04176283
H       12.79800987      29.42814255       6.42526913
H       13.48975277      27.86348724       4.04040527
H       13.25931549      27.27431870       5.70374441
H       14.77934551      26.89971352       4.86445665
C       20.34756851      16.85699844      14.96195030
O       19.04306602      16.94033432      14.34474182
C       18.15443230      16.01088142      14.99526310
C       16.78834915      16.23424149      14.36068344
O       15.91431332      15.34588528      15.07256317
C       14.53282642      15.67138577      14.95473671
C       13.88439751      14.77235889      16.00864792
O       12.45677567      14.89565849      15.94825172
C       11.82289696      15.45054817      17.09209442
H       20.79936409      15.87590790      14.74015808
H       20.96511269      17.66534233      14.54320717
H       20.26370049      16.97045517      16.05552673
H       18.11053276      16.17353821      16.08967590
H       18.48674965      14.96882820      14.83987713
H       16.76715088      16.01586151      13.27344799
H       16.45768166      17.28190231      14.47783375
H       14.13651085      15.43269634      13.94936943
H       14.32596302      16.73868370      15.17212772
H       14.15051460      13.72484303      15.79322910
H       14.26495171      15.01911640      17.01411438
H       12.16265106      16.47668839      17.29726219
H       11.96899223      14.84376144      18.00296974
H       10.74344921      15.47304821      16.89299774
C       37.79857254      12.10082436      30.09370422
O       36.90751266      12.64948082      31.06590271
C       35.80030060      13.36380577      30.49418640
C       35.16895676      14.10659504      31.66020393
O       34.08308792      14.85997391      31.09440041
C       33.09571075      15.20847225      32.08607483
C       32.12216568      16.12030220      31.35665703
O       31.00147820      16.41051674      32.22014999
C       30.01806068      15.38198566      32.31584549
H       38.13585663      12.87290859      29.38346481
H       38.65301514      11.67573166      30.63883209
H       37.31487274      11.30218124      29.50927162
H       35.07522583      12.67572689      30.02748108
H       36.11466217      14.07273483      29.71713448
H       35.88608932      14.77704716      32.16238022
H       34.77215195      13.40425682      32.41464996
H       33.52489853      15.72579765      32.96451187
H       32.55573273      14.31642914      32.44561386
H       32.59714890      17.08998108      31.14675713
H       31.78552055      15.66320705      30.40790558
H       30.40335464      14.41041565      32.66980743
H       29.51070023      15.21472931      31.34543037
H       29.26272774      15.71074772      33.04592896
C       12.06240368      24.41097069      23.57166481
O       12.57335567      25.39021492      22.66459846
C       13.80340672      25.96681595      23.13001442
C       14.28415585      26.86618996      22.00187492
O       15.43188477      27.55656242      22.49825859
C       15.87440586      28.45812035      21.46123123
C       16.99962616      29.29439926      22.06809235
O       17.26610756      30.39459991      21.16935539
C       18.03458977      29.98606300      20.02161980
H       11.93374443      24.81992340      24.58500290
H       11.08508778      24.10336494      23.18200493
H       12.72193432      23.52905273      23.62999344
H       14.55179119      25.18271637      23.34231377
H       13.63420486      26.54558563      24.05209923
H       13.46827793      27.56883430      21.72967339
H       14.52114582      26.26674271      21.09508133
H       15.04231453      29.11202240      21.13763618
H       16.19341087      27.88224030      20.56814384
H       16.68103981      29.73693848      23.02379036
H       17.89820099      28.68414879      22.26947784
H       17.48464966      29.28155327      19.37168312
H       18.99538231      29.52296829      20.31656456
H       18.22668266      30.89747429      19.43712807
C       14.82299805      30.23407364      39.89123535
O       14.55178547      30.83749771      38.64219284
C       13.52558613      31.85465622      38.72409821
C       13.27876949      32.29875183      37.29801178
O       12.55525970      33.53002167      37.33309555
C       12.12407207      33.86688232      36.01496124
C       11.32159138      35.15407562      36.11300278
O       10.59940434      35.31340408      34.87507248
C       11.12864685      36.24541855      33.91894913
H       13.96637440      29.62019157      40.22000885
H       15.68983650      29.56639862      39.77809525
H       15.02738094      30.97401047      40.68989944
H       13.84708500      32.66365051      39.40592957
H       12.59022999      31.43363953      39.13281250
H       12.73114014      31.51559830      36.73485947
H       14.24053574      32.43293762      36.77210617
H       11.48537064      33.06322861      35.59350967
H       12.97514153      33.97727966      35.31798172
H       10.58484936      35.07714081      36.92695999
H       11.96071529      36.03413010      36.29738998
H       11.99344254      35.82610321      33.38782883
H       11.40620518      37.18298721      34.42434692
H       10.32928371      36.43162918      33.19405746
C       22.71335793      26.43325233      13.91705227
O       24.01176643      26.80927277      14.39711857
C       24.29479408      26.19681740      15.68017483
C       25.72533035      26.55566406      16.05656624
O       25.98098373      25.95224571      17.34065056
C       27.36780930      26.08962250      17.67607117
C       27.57086754      25.58557510      19.09975243
O       28.96269417      25.78116226      19.45903778
C       29.76216698      24.59014893      19.63918114
H       21.90937614      26.88750458      14.52339554
H       22.60613632      26.77668571      12.87726974
H       22.57016754      25.33724403      13.95903587
H       24.18147278      25.10343170      15.59928513
H       23.56753731      26.54417419      16.43449783
H       25.87659454      27.64982414      16.10593796
H       26.39891243      26.13953972      15.27784920
H       27.68957901      27.14796066      17.58895683
H       27.98405075      25.49631500      16.97254944
H       26.95475960      26.15092278      19.81599617
H       27.27444077      24.52639580      19.17381859
H       30.08465195      24.19224930      18.66450882
H       29.16555595      23.82395744      20.15665245
H       30.62699509      24.84853363      20.26244545
C       17.46821404      19.03434944      11.96904469
O       16.20274544      18.36879921      12.07461739
C       15.23353195      18.82621002      11.10514164
C       14.27580738      17.67851067      10.84365463
O       13.53256226      17.98027992       9.65379047
C       12.65873909      16.87208557       9.40004063
C       11.86938858      17.16648865       8.12866497
O       10.90065956      16.12571716       7.87499285
C       11.43928146      14.87156296       7.46666718
H       17.39552689      20.09728241      12.24552441
H       18.16259575      18.52308273      12.65630627
H       17.85459900      18.95756912      10.93402004
H       15.71943188      19.07856560      10.14886093
H       14.71457958      19.72967720      11.47833347
H       13.59334660      17.49110985      11.69609642
H       14.86329174      16.75602913      10.69307804
H       11.96274471      16.73645782      10.24476528
H       13.23855686      15.94016266       9.26646233
H       11.26450634      18.07964706       8.25178528
H       12.51174736      17.29153061       7.24285841
H       12.03870392      14.39730167       8.25961685
H       12.02243519      14.95848656       6.53377485
H       10.56752300      14.22346783       7.27923346
C       39.83731461      11.32112598      22.33019638
O       38.51715088      11.06313705      22.83377266
C       37.57873535      10.92120266      21.75161934
C       36.21195984      10.80573273      22.39429665
O       35.37567520      10.07877922      21.47673416
C       34.20228577       9.63676453      22.17049980
C       33.39007187       8.80985737      21.17455101
O       32.13933182       8.44067764      21.83591843
C       32.14907074       7.20051193      22.54889870
H       39.91587448      12.34492016      21.93717957
H       40.52745438      11.18350792      23.17601013
H       40.07937241      10.60311508      21.53277588
H       37.81195068      10.00781918      21.17321014
H       37.62451553      11.78998661      21.07405090
H       35.75509262      11.78441620      22.64019775
H       36.29567719      10.25989437      23.35010529
H       33.60705948      10.49614143      22.53943253
H       34.46268082       9.03186035      23.05563545
H       33.10239029       9.40695190      20.29100227
H       33.93076706       7.92432499      20.79902077
H       32.35737610       7.32637978      23.62560463
H       32.84825897       6.46515417      22.11772346
H       31.12858200       6.78984118      22.47484589
C       22.87417221       5.84844828       9.48213768
O       23.82552147       6.83709574       9.82261944
C       25.06536102       6.31184959      10.34728813
C       25.83499527       7.53824472      10.80963516
O       27.12995148       7.12317991      11.22122574
C       28.17992973       7.97809839      10.74561119
C       29.47013283       7.14348888      10.82854366
O       30.61779213       7.99736547      10.92020702
C       30.67027473       8.86871910       9.78174877
H       22.72847939       5.13299131      10.31220150
H       21.92131233       6.35402012       9.28648281
H       23.16349983       5.27904129       8.58630466
H       25.60972404       5.77100897       9.55187511
H       24.87641144       5.60019159      11.17413235
H       25.30736923       8.06889915      11.62494564
H       25.86195564       8.22503662       9.94634151
H       28.24698257       8.88910103      11.36707211
H       27.97562027       8.27999020       9.70069695
H       29.45805168       6.53526211      11.75010777
H       29.55344391       6.44844055       9.96156979
H       29.79927635       9.54770851       9.73844433
H       30.71380806       8.30308533       8.83281898
H       31.58336258       9.47007942       9.89299107
C       18.05834198      27.01948357      25.02941895
O       18.96960258      26.95488739      23.93070030
C       20.20534515      27.63031769      24.25671005
C       21.00452042      27.74354172      22.96725082
O       22.02407455      28.69659615      23.27344894
C       22.99542046      28.76297379      22.21681595
C       24.09546471      29.69177055      22.71278763
O       24.99643707      29.92369270      21.60784340
C       26.11383438      29.01533890      21.50520515
H       17.90167046      28.05432701      25.37996674
H       17.08412552      26.64213181      24.68879509
H       18.35681534      26.39169884      25.88690376
H       20.76442909      27.06370544      25.02339745
H       19.95971298      28.62196922      24.67720413
H       20.36331749      28.08527756      22.12508583
H       21.42846489      26.76582718      22.65721893
H       22.52588654      29.16109657      21.29681587
H       23.40574074      27.76286888      21.98039246
H       23.64762115      30.66099548      22.98248482
H       24.60043907      29.28754425      23.60977554
H       25.78819466      27.98746109      21.26168442
H       26.68119621      28.98497772      22.44820213
H       26.74976158      29.38719177      20.68642807
C       25.88484192      11.28767776       8.16630936
O       26.18687248      12.54578209       7.55599928
C       26.16629601      12.42987919       6.12518358
C       26.47558975      13.80958271       5.58151770
O       26.49857521      13.64382458       4.16556454
C       26.75544739      14.91095543       3.56234217
C       26.82377434      14.66847420       2.04738951
O       27.22182274      15.87155914       1.38200951
C       26.24205971      16.93027306       1.45538545
H       26.43276787      10.46170139       7.67449379
H       26.19085312      11.33680058       9.21815872
H       24.80321312      11.07680130       8.10187721
H       25.18296432      12.08151531       5.75820160
H       26.91909790      11.70161057       5.77271271
H       27.44303513      14.17143536       5.98321199
H       25.69732285      14.53026867       5.90418673
H       27.72167206      15.30878448       3.92677093
H       25.95677567      15.62673855       3.83177090
H       27.59860802      13.91631889       1.82275033
H       25.86065483      14.30375481       1.64686751
H       26.04718590      17.29372406       2.47339320
H       25.28994370      16.59223175       1.01078022
H       26.63278580      17.75808525       0.84800386
C       37.71455002      17.02766228      36.37498093
O       37.79757690      18.32271767      36.95589066
C       38.35111618      19.28088760      36.05017090
C       38.04643631      20.63683319      36.68074799
O       38.36303329      21.60210991      35.68124771
C       37.93635559      22.91296387      36.08666992
C       38.54655457      23.86652946      35.05368805
O       38.38804245      25.21787071      35.50919342
C       37.09875488      25.80458832      35.35248184
H       38.70097351      16.66997528      36.02973175
H       37.31644058      16.35942078      37.15076828
H       37.02241135      17.01823807      35.51669693
H       37.86299515      19.22013855      35.05911636
H       39.43067551      19.11186981      35.90270233
H       38.61272430      20.81528282      37.61540604
H       36.97120667      20.68017006      36.93624878
H       38.30642319      23.15666389      37.10066605
H       36.83364487      22.97970009      36.08610916
H       39.62866974      23.69753647      34.96866989
H       38.10018539      23.71403313      34.05556488
H       36.28708649      25.17753601      35.74844360
H       36.88612747      25.99760818      34.28939056
H       37.09779739      26.75534630      35.89822388
C       22.05051231      23.33491707      17.68628311
O       20.62684822      23.52823448      17.65167046
C       19.95027542      22.92266273      18.78266716
C       18.55954170      23.53419113      18.73925781
O       17.67525482      22.76585960      19.57633781
C       16.33478355      23.17770004      19.25383759
C       15.36129570      22.39154053      20.12269211
O       14.04455566      22.57439041      19.56126595
C       12.99505329      23.00184631      20.42701530
H       22.30374336      22.26607132      17.56386757
H       22.44985199      23.89282036      16.82331467
H       22.48546982      23.70339584      18.62609100
H       20.46847343      23.13278389      19.73834419
H       19.89182663      21.82837677      18.64472389
H       18.19667435      23.53596878      17.69554901
H       18.56315613      24.58803749      19.06872368
H       16.12202454      22.95382500      18.18975449
H       16.16980171      24.26120758      19.41277504
H       15.61433220      21.32099915      20.06530762
H       15.37939167      22.70216942      21.18104362
H       12.69588184      24.03957748      20.20587540
H       13.26381969      22.97721672      21.49398041
H       12.11595821      22.35488510      20.30957031
C       32.49718475      26.94695091      17.36050034
O       31.46109200      27.03180313      16.37380409
C       31.30175591      25.79129219      15.64958954
C       30.35780144      26.03104973      14.48221970
O       30.29334068      24.77479744      13.79731274
C       29.60285568      24.77785683      12.54255962
C       29.70586205      23.34090996      12.04735756
O       29.13298607      23.24086761      10.71933937
C       28.04916573      22.31534195      10.57580185
H       33.48730469      26.84690285      16.88149071
H       32.48284531      27.88993263      17.93842888
H       32.32099152      26.10107422      18.04981422
H       30.88600731      25.02359009      16.32041550
H       32.27286148      25.43983841      15.25966072
H       30.75441360      26.82521629      13.83085346
H       29.35295486      26.35556984      14.81444359
H       30.07196236      25.46026993      11.81020641
H       28.53801346      25.06834793      12.65286541
H       30.76604462      23.03605843      12.00239468
H       29.18559456      22.68286514      12.76534748
H       27.11333466      22.72608566      10.97756195
H       28.25851631      21.34031105      11.05487728
H       27.85756683      22.12844658       9.51018429
C       25.51692390      16.20514870      28.57912827
O       25.77444649      17.58888435      28.76023293
C       24.58952141      18.36590576      28.98950577
C       24.96593475      19.54470825      29.88348198
O       23.85595322      20.45909309      29.86174011
C       24.05198669      21.51798058      30.81917572
C       22.95357323      22.52959633      30.52041245
O       22.99441147      23.58172035      31.49657631
C       22.23637390      23.39187431      32.69341660
H       25.39882278      15.94931030      27.50549698
H       26.35821152      15.61351204      28.97726440
H       24.58650017      15.90158939      29.09730721
H       23.78362083      17.76894188      29.46576309
H       24.17895126      18.69125938      28.01588440
H       25.89166069      20.03887558      29.52688599
H       25.16595840      19.19506264      30.91009140
H       25.05168915      21.99153137      30.72224998
H       23.95620537      21.16999054      31.86401939
H       23.10858536      22.98018074      29.51821518
H       21.95737648      22.04704094      30.49457359
H       22.40954018      22.38704491      33.13539505
H       21.14927483      23.49282837      32.51382446
H       22.53030968      24.16416550      33.42290878
C       12.41040039      30.27198601      27.27607346
O       12.64002800      29.61096573      28.52479744
C       11.55571270      28.76487160      28.93502235
C       12.02798080      28.43138885      30.33578110
O       11.16259480      27.49721909      30.99894905
C       11.81268787      27.24028587      32.25926208
C       10.89013386      26.35303116      33.08054352
O       11.63241196      25.99593353      34.26491165
C       11.85014153      24.60873795      34.49729156
H       11.51547527      30.91596031      27.32016945
H       13.28888607      30.89332008      27.06736755
H       12.23112869      29.55140686      26.46327209
H       11.42970657      27.89419365      28.25799179
H       10.58305073      29.30013847      28.92595673
H       12.11868954      29.35716248      30.93992424
H       13.05253124      28.00848770      30.27221870
H       12.03885746      28.18708611      32.79801941
H       12.77625561      26.71543694      32.09374237
H        9.97051716      26.87934494      33.40050888
H       10.57093620      25.47108459      32.49656296
H       12.91080379      24.35474586      34.31492233
H       11.23249531      23.98480225      33.81671143
H       11.58146286      24.35351944      35.53651428
C       22.35418701      15.69516373      27.39009857
O       21.85913849      16.85850525      28.05303192
C       21.66115189      17.94119072      27.12311935
C       21.19058037      19.11372948      27.97445869
O       21.19137764      20.23744011      27.08486366
C       20.64379883      21.40070152      27.71624756
C       20.31914520      22.34286499      26.55927849
O       19.97730064      23.64484215      27.03742790
C       18.64148140      23.78779411      27.55434227
H       23.13874817      15.94232273      26.65266228
H       22.78953362      15.04346466      28.16603279
H       21.52547455      15.16879463      26.86540222
H       20.90650749      17.66128540      26.36165619
H       22.60368729      18.16453552      26.57520866
H       21.84294319      19.29899788      28.85074806
H       20.17416763      18.93098068      28.38059235
H       21.37381935      21.85663414      28.40773010
H       19.71015167      21.18144226      28.27453613
H       21.21640968      22.46105194      25.92415047
H       19.53923988      21.92867279      25.89676285
H       18.48357391      23.32530212      28.54645538
H       17.90859413      23.32897377      26.86031914
H       18.41860008      24.86317444      27.61714172
C        3.65017295      38.69796371       9.17936420
O        4.01500845      37.34624100       8.97639847
C        2.97354198      36.41348648       9.33537674
C        3.60139322      35.05418396       9.06748390
O        2.66542554      34.08435059       9.52854633
C        2.93844557      32.79476929       8.97813797
C        1.97128749      31.88197517       9.70007896
O        2.19873023      30.53844452       9.21308804
C        1.26186287      29.99163437       8.28989124
H        3.43284273      38.91535187      10.24244308
H        4.50129271      39.31217575       8.85530472
H        2.76231098      38.96281052       8.58163261
H        2.05735826      36.55503845       8.74140930
H        2.71034479      36.53812027      10.40168381
H        4.54892159      34.95873260       9.62858486
H        3.82460046      34.93320847       7.98845530
H        3.98401690      32.48357391       9.17548466
H        2.76136684      32.76594543       7.88294935
H        2.16381550      31.91319466      10.78699398
H        0.93085897      32.21411514       9.54518318
H        1.45640957      30.30629730       7.25023556
H        0.23087928      30.27989960       8.54586601
H        1.31967068      28.89691925       8.36474895
C       18.77705765      23.75888824      23.50313950
O       19.85452843      22.83486557      23.35789299
C       21.09006119      23.56651688      23.26949692
C       22.21255684      22.55975914      23.04345894
O       23.37614250      23.37117195      22.91102219
C       24.59990311      22.65815926      22.63638496
C       25.51472473      23.69203949      21.96680260
O       26.65301704      23.11007309      21.30364227
C       27.69247627      22.65010452      22.17248917
H       18.69770241      24.42868042      22.62603188
H       17.84445190      23.18589592      23.59625435
H       18.88496208      24.39173317      24.39905930
H       21.25405693      24.19470978      24.16727448
H       21.02854156      24.25247574      22.40159607
H       22.03385735      21.96185112      22.12384987
H       22.29076385      21.85062599      23.89548492
H       24.41740990      21.84235954      21.91580391
H       25.02314377      22.23033142      23.56230927
H       24.93025017      24.12710762      21.14304543
H       25.78598404      24.51341820      22.65190125
H       27.30780411      21.92128563      22.90368843
H       28.14526939      23.47569847      22.74053764
H       28.45249176      22.13924217      21.55804825
C        3.07692552      14.14158058       8.98808479
O        3.94717050      13.43708897       8.10115528
C        4.66099453      12.31736183       8.65656567
C        5.35650778      11.65510082       7.46473551
O        5.88736391      10.40651703       7.93382835
C        6.33348656       9.56725597       6.85354710
C        6.76939678       8.25358295       7.50208426
O        7.42741680       7.40989637       6.54281092
C        6.67085791       6.50502396       5.76939535
H        3.60667610      14.60934734       9.83697796
H        2.58350778      14.93941307       8.40752029
H        2.28687048      13.48768711       9.39016438
H        3.96770310      11.61911964       9.14889336
H        5.38152122      12.66076088       9.41965199
H        6.15218115      12.30556870       7.07071066
H        4.63145638      11.47401047       6.65307570
H        7.19287825      10.01574898       6.33110237
H        5.52358580       9.38701248       6.12418604
H        7.49195051       8.47258282       8.30635929
H        5.90179253       7.75814629       7.95910215
H        6.12248516       6.99847698       4.94840288
H        5.95930624       5.93674421       6.39322996
H        7.38374472       5.78954458       5.33394718
C       21.36326790      12.33719635      10.35299492
O       21.72192955      13.15885735       9.22836685
C       22.95661545      13.86166096       9.50409412
C       23.06547737      14.93811607       8.43369579
O       24.17279053      15.73778343       8.85130978
C       24.34493256      16.85746384       7.95866156
C       25.51079559      17.65728378       8.53885078
O       25.96104813      18.56885529       7.52120113
C       27.05742645      18.03572083       6.74321604
H       21.23910522      12.94255352      11.26507092
H       20.39698219      11.86537170      10.11743259
H       22.10348320      11.54154968      10.53728867
H       23.81552124      13.16546631       9.48239803
H       22.92218018      14.32284355      10.50903893
H       22.12478256      15.52434158       8.40019512
H       23.20981216      14.50658607       7.42184353
H       23.41058922      17.44982147       7.88760662
H       24.57156372      16.51120186       6.93437815
H       25.19901657      18.22473907       9.43107510
H       26.30702972      16.96882439       8.85519600
H       26.76547432      17.10449409       6.23137522
H       27.92765236      17.83905411       7.38528156
H       27.29924774      18.78502083       5.97821283
C        2.36744714      20.00375175      15.37741184
O        2.48165107      18.60410309      15.21878529
C        3.83219934      18.17537689      15.11655331
C        3.76573586      16.67751503      14.87022114
O        5.12965059      16.25860596      14.94041252
C        5.37626076      14.87852287      14.70107651
C        6.84698868      14.74545288      15.09828568
O        7.34368658      13.42518139      14.81558323
C        6.81377316      12.43885326      15.71365261
H        2.84581375      20.53666878      14.54026413
H        1.29200649      20.23532677      15.38559818
H        2.80233312      20.34403801      16.32765388
H        4.41529608      18.40275002      16.02513885
H        4.34751701      18.64192200      14.25837612
H        3.32984114      16.43811226      13.88292408
H        3.14441967      16.19045448      15.64039707
H        5.20903349      14.61007595      13.63909245
H        4.71951723      14.23904991      15.31483555
H        7.44423962      15.43316936      14.48215294
H        6.97585011      15.01961803      16.16058731
H        5.73980761      12.25869560      15.54069138
H        6.93595314      12.71264076      16.77013206
H        7.34248257      11.49583149      15.51513672
C        9.42950916      34.75661087      17.31341362
O        8.82640362      33.59286880      16.73773575
C        7.45620489      33.51898193      17.16210556
C        6.87792158      32.23124313      16.60018539
O        5.68391705      31.98457527      17.36976433
C        4.87917423      31.00876999      16.69666862
C        3.70576262      30.71918678      17.63274956
O        2.91124916      29.68511963      17.05587578
C        1.87984514      30.06779861      16.15972900
H        9.48710346      34.68928146      18.41029549
H       10.43826103      34.85044861      16.89259911
H        8.83549976      35.65092468      17.05568886
H        6.88499832      34.38553619      16.77653503
H        7.36788082      33.55831909      18.25813484
H        7.58211231      31.38221741      16.69354820
H        6.62237978      32.31504440      15.52660179
H        5.44417810      30.08151436      16.49523735
H        4.52773046      31.38516045      15.72139645
H        4.07704973      30.35749435      18.60925293
H        3.09742975      31.61578560      17.84963036
H        2.27940798      30.51221466      15.23556137
H        1.17890012      30.76828194      16.63599968
H        1.32095623      29.15864754      15.90715027
C       27.51495171       6.42749786      37.08839417
O       26.75964355       7.50094032      37.62751389
C       25.35312080       7.32743835      37.42522049
C       24.70773506       8.55102730      38.04906082
O       23.34185028       8.43765545      37.68504333
C       22.57300949       9.57715988      38.02959824
C       21.14035034       9.18958664      37.67926407
O       20.30929184      10.31649971      38.03061295
C       19.70063591      10.35236073      39.31275940
H       27.55025101       6.47317743      35.98823547
H       28.53328514       6.51019144      37.48738098
H       27.07585526       5.46052790      37.38097382
H       24.99093246       6.39729118      37.88157654
H       25.10940361       7.29576206      36.34780884
H       25.16485405       9.45891571      37.61806870
H       24.84967995       8.57964611      39.15595627
H       22.84671402      10.45428944      37.41614914
H       22.65015411       9.84937763      39.10126114
H       21.03723717       9.02252769      36.59090424
H       20.82902145       8.27723122      38.20977020
H       20.41655731      10.29707718      40.15006638
H       18.93673325       9.56626415      39.41495514
H       19.17177010      11.31187248      39.36981964
C       36.67517471       6.60802555      11.39521408
O       35.26765442       6.41522312      11.34090328
C       34.84159470       5.69904423      10.17224503
C       33.38350296       5.36206675      10.43994808
O       32.96577072       4.64015818       9.27890015
C       31.74235153       3.92833471       9.43163776
C       31.32615280       3.49744821       8.02591991
O       30.05586815       2.80195665       8.11518192
C       30.14774704       1.39925432       8.29907131
H       37.00515747       7.30745411      10.60559368
H       36.92751312       7.03184605      12.37832260
H       37.22847748       5.66235304      11.25925255
H       35.43325043       4.78314304       9.99392891
H       34.89352417       6.32215452       9.25624275
H       32.77076721       6.27457094      10.57396221
H       33.28742218       4.76484871      11.36574459
H       30.95523071       4.56883001       9.87325859
H       31.87131882       3.05449486      10.09531403
H       31.13553810       4.37751245       7.39325905
H       32.09335327       2.88234162       7.52226877
H       30.36168671       1.14174366       9.34972572
H       30.89013481       0.93156075       7.63082504
H       29.15286636       0.99020863       8.05606747
C        8.25472069      34.97349930      13.90772247
O        9.40782928      34.13027573      13.83626938
C        9.10796452      32.74533844      13.66802406
C       10.36970329      32.03885269      14.13463211
O       10.15789223      30.63895035      13.90168571
C       11.32467175      29.88631058      14.23926258
C       10.93062973      28.43258667      14.00330448
O       12.06639862      27.58029747      14.24035931
C       12.92064381      27.43152046      13.09562969
H        7.61767912      34.72795105      14.77558994
H        8.60376930      36.01208115      13.97674084
H        7.61768770      34.86244583      13.01115131
H        8.86031532      32.51300812      12.61113453
H        8.23173618      32.45071793      14.26999187
H       10.53890324      32.25299454      15.20341873
H       11.24722099      32.39673615      13.56218624
H       11.62749767      30.05992508      15.29041100
H       12.16294479      30.15453148      13.56819439
H       10.13451958      28.14617729      14.70716286
H       10.52190018      28.28010368      12.98955631
H       13.27046490      28.39828491      12.70986271
H       12.39670658      26.90231133      12.28245068
H       13.76869202      26.81144142      13.41454601
C       26.07328987      26.60850525      34.59327698
O       24.69070816      26.89586830      34.32209778
C       24.64586258      27.83873749      33.22290802
C       23.17585373      28.10446548      32.91745758
O       23.20560265      29.11906624      31.91353607
C       21.93104172      29.60415649      31.45970345
C       22.24262428      30.62528992      30.34844780
O       21.04498291      31.18734741      29.80886078
C       20.32714272      30.37756920      28.86792183
H       26.62982368      27.51776123      34.86180878
H       26.09979630      25.87462234      35.41375732
H       26.56205559      26.16688728      33.70484924
H       25.15133095      27.41942978      32.33860779
H       25.16715431      28.77209282      33.48863220
H       22.62008286      28.44788551      33.80697250
H       22.66625023      27.20192528      32.53530502
H       21.37360001      30.05811691      32.29822540
H       21.31269455      28.78924942      31.05020905
H       22.81163597      31.47269630      30.77745628
H       22.85853767      30.15293884      29.55630684
H       20.24006844      29.32589340      29.18297386
H       20.79945183      30.40004921      27.87139702
H       19.31795692      30.80444527      28.78925133
C       10.79148960      17.52701569      27.56708145
O       11.70993710      18.25475693      28.37815094
C       12.44393444      17.39690971      29.28051949
C       13.20166969      18.30454636      30.23346329
O       13.95076942      17.43628502      31.10293961
C       14.52830505      18.15880394      32.18671799
C       15.31575584      17.13628197      32.99666595
O       15.93569374      17.79635620      34.12014389
C       17.20392418      18.39410210      33.80906677
H       10.01851368      17.03461838      28.17333412
H       10.30335808      18.23255539      26.88611412
H       11.29400826      16.74855423      26.96948242
H       13.12738132      16.74691963      28.70276642
H       11.76329422      16.73492241      29.84490395
H       12.49891853      18.92791748      30.82467270
H       13.87671661      18.99693680      29.68692207
H       13.73072624      18.60445023      32.81551743
H       15.18443584      18.97875023      31.82598114
H       14.61468220      16.38886642      33.40497971
H       16.03224945      16.57211494      32.37285995
H       17.09004784      19.21368599      33.07377243
H       17.90061569      17.64199829      33.39996338
H       17.62757492      18.78832054      34.74252319
C        8.63450050      31.98432159      28.66045189
O        9.32580662      32.70013046      27.63680267
C        8.81052017      34.03703690      27.47127342
C        9.56210041      34.70237350      26.33203125
O        8.74573231      35.83668518      26.01539993
C        9.45381069      36.72536087      25.16540527
C        8.53291607      37.91644669      24.90192223
O        9.23533535      38.83231354      24.04974937
C        9.82547951      39.95054626      24.69396591
H        7.59092903      31.75845146      28.36889076
H        9.16108704      31.03428268      28.82782555
H        8.60303688      32.54563141      29.61074448
H        8.90821171      34.59476089      28.41874123
H        7.73232031      33.99762726      27.23925591
H        9.66141129      34.02553558      25.45730209
H       10.57055855      35.00675583      26.65821266
H        9.74434280      36.24687576      24.21127701
H       10.38294506      37.08143997      25.64875221
H        7.62707329      37.59178543      24.36735153
H        8.21078014      38.40682602      25.83909225
H       10.64127445      39.65095901      25.37681198
H        9.07625961      40.53408432      25.25881577
H       10.25523472      40.57384109      23.90018845
C       15.53931522      38.46338654      11.28008366
O       15.74855614      37.17019653      10.69909477
C       14.74447250      36.24819946      11.15961361
C       14.75892162      35.01957321      10.24294472
O       14.08855915      34.00358582      11.00671005
C       14.14971733      32.72431564      10.37642670
C       13.23607635      31.89841843      11.26960373
O       13.23197556      30.51950455      10.84954739
C       12.41158676      30.27089310       9.69629765
H       15.57959461      38.43999863      12.38281822
H       16.32923126      39.13079453      10.91022587
H       14.54054928      38.83959961      10.98992443
H       13.75442791      36.73750305      11.11120892
H       14.92515469      35.96096039      12.20857716
H       15.78628159      34.70750427       9.97377110
H       14.22077274      35.18722534       9.28772354
H       15.17972183      32.31945038      10.36742401
H       13.77153111      32.76737595       9.33616734
H       13.58369160      31.93203735      12.31646633
H       12.21027088      32.31132889      11.26344204
H       12.59001923      30.98831749       8.88649273
H       11.34148407      30.30622292       9.95719433
H       12.63532352      29.25868797       9.33257961
C        1.64047861      36.86817169      23.10382462
O        1.24049234      35.59094620      22.65996933
C        2.15403676      34.55330658      23.04556847
C        1.70238459      33.30428696      22.30212593
O        2.58521175      32.27242279      22.72420692
C        2.31671786      31.00290298      22.13080406
C        3.43505263      30.11051750      22.66338730
O        3.31997180      28.82364082      22.02113342
C        2.61882162      27.84631348      22.76480865
H        2.64951253      37.11418152      22.72687149
H        0.92298353      37.59728622      22.70143127
H        1.64164257      36.94312286      24.20771790
H        2.16893339      34.41224670      24.13966370
H        3.17960811      34.80576324      22.72753716
H        1.78001618      33.44636536      21.20999908
H        0.65370595      33.05143356      22.53991127
H        2.37146759      31.03822327      21.02577019
H        1.31283784      30.63375473      22.40522575
H        4.40098381      30.53752518      22.34201813
H        3.42414021      30.03546143      23.76297188
H        1.56011796      28.12131119      22.90700150
H        3.07490730      27.66804695      23.75436974
H        2.65400863      26.91413307      22.18834877
C        3.10418296      19.48611450      20.10684013
O        4.41916323      19.33295250      19.61316299
C        5.43624496      19.31366730      20.63187599
C        6.73871279      19.30077171      19.85358620
O        7.77885246      19.27434540      20.81484413
C        9.08806133      19.20658112      20.25193787
C        9.99002838      18.85896492      21.43215370
O       11.37784767      18.80596924      21.02426529
C       11.88764954      17.59304619      20.45599365
H        2.98864269      20.41287994      20.69640541
H        2.43635201      19.53496170      19.24016953
H        2.79936981      18.61420441      20.70547676
H        5.34112835      18.40717697      21.24846458
H        5.34935236      20.19869232      21.28939438
H        6.78602743      20.19737053      19.20793533
H        6.76792192      18.41833496      19.18647385
H        9.39191341      20.16637230      19.79850960
H        9.14650631      18.43221283      19.46529770
H        9.91584301      19.62212563      22.22360611
H        9.67021084      17.89846802      21.86544609
H       11.47084141      17.39645958      19.45682716
H       11.65223408      16.72349930      21.09320259
H       12.97777557      17.70015335      20.36653328
C        7.77254438      26.98354340      28.96810722
O        6.91022873      26.52879906      27.93631363
C        7.60821009      26.43851471      26.69067001
C        6.68244267      25.91387558      25.59411430
O        7.51718760      25.95086288      24.43146896
C        6.97606850      25.37003517      23.24094582
C        8.11956596      25.25299263      22.21553421
O        7.58732080      25.16917610      20.87715721
C        7.06232214      23.88755226      20.52506828
H        8.18796825      27.98421478      28.75731087
H        7.20663643      27.02030754      29.90969849
H        8.61917114      26.29391098      29.12756729
H        8.48414516      25.76915169      26.77075577
H        7.97689819      27.43546867      26.39861488
H        5.80454826      26.57752609      25.47209167
H        6.33009148      24.88908768      25.79172897
H        6.15730143      25.99222183      22.83257675
H        6.56077719      24.37017632      23.43326378
H        8.75186348      26.15799522      22.24085617
H        8.74142456      24.36773491      22.42964554
H        6.23076820      23.59100533      21.18179512
H        7.84350157      23.11229706      20.56245041
H        6.67328405      23.95157051      19.50144386
