3187
Lattice="37.959999084472656 0.0 0.0 0.0 37.959999084472656 0.0 0.0 0.0 37.959999084472656" Properties=species:S:1:pos:R:3 pbc="T T T"
Na      36.73059845      23.24732590       8.33933640
Na      34.42211914       5.91939640       6.70193148
Na       9.98162842      28.52212143      21.18563080
Na      25.41769981       0.99843282       8.07523632
Na      19.85804367      29.07888222      31.24920845
Na      24.96201134       7.30403185       3.27007604
Na      32.04497910      28.07990456      19.42739105
Na       1.24419248      12.70537090      21.83792686
Na      21.65879631      32.90691376       4.51478481
Na       8.75608826      16.61138153      33.40925217
Na      37.38641357      33.12571716      11.36360645
Na      33.25914383      18.41986275       5.98310471
Na      16.17501640       0.54386240      15.27103138
Na      35.16456223      13.83347416      20.68979836
Na      22.61994553      22.83207321       4.17271614
Na      29.26359558      29.74202347      31.97802353
Na       7.09075594      17.68968201      15.76626015
Na       1.41301417      18.30509186      32.34800720
Na      34.15108871       6.50868702       3.15077257
Na      35.13415527       7.58151007      20.33794022
P        8.43277264      28.95780373      36.25811386
F        7.01628304      28.69319153      37.02670288
F        9.85868073      29.23964310      35.53220749
F        9.00440598      29.70292664      37.60259628
F        7.86390352      28.24456787      34.91445923
F        7.87646532      30.40477943      35.72169113
F        9.00189400      27.53421021      36.78707123
P       33.23836517      33.74179459      12.56781006
F       33.49995804      32.24871063      13.17434025
F       33.05018997      35.24259949      11.94343185
F       31.79366684      33.29138565      11.99555492
F       34.69249344      34.19716263      13.16624165
F       33.95689774      33.27741241      11.17679310
F       32.53347397      34.22513199      13.96190739
P       22.40978622       2.67505574      36.16759491
F       22.68079567       2.10270858      34.67133713
F       22.16315842       3.23891926      37.70009232
F       21.12722588       1.67280900      36.34798050
F       23.70342255       3.69339776      36.02429199
F       21.42381287       3.82981586      35.59167480
F       23.40714455       1.53813112      36.78644562
P       24.86384773      23.79271317      24.52959633
F       24.15994072      22.36655807      24.10315132
F       25.60072517      25.18099594      24.94515610
F       26.22405815      22.99158287      24.97131729
F       23.51882362      24.59673500      24.05444527
F       24.27121925      23.64916229      26.05642509
F       25.46397781      23.92462540      23.00463676
P       31.43111801       7.90890169       5.58763599
F       32.12527847       6.86936855       6.68080759
F       30.84091949       8.90648365       4.46819258
F       30.62008095       8.64453602       6.78568459
F       32.31672287       7.13001966       4.37601995
F       30.21788597       6.86296129       5.34128666
F       32.70489502       8.90349388       5.81560230
P       30.30280113       4.62233686      14.23946571
F       30.98851204       3.15745020      14.06816196
F       29.61676788       6.12541151      14.39848995
F       30.75209427       5.00582743      12.70571709
F       29.82149887       4.25255775      15.75125790
F       31.70620155       5.20781469      14.82341099
F       28.88168907       4.02477503      13.65832329
P       19.10633850      14.64527416      31.89553642
F       18.60734558      15.83165264      30.89657211
F       19.59707642      13.44672871      32.92034912
F       19.91977692      15.72122955      32.82102966
F       18.28175735      13.54240131      30.99456406
F       20.43186951      14.39283657      30.99214363
F       17.75559616      14.86053944      32.84514618
P       12.19962025      29.02095222      26.21512604
F       12.67490196      30.47205544      25.59745216
F       11.74620724      27.57501030      26.84095955
F       12.51431084      29.57222366      27.74824333
F       11.90246487      28.45119667      24.69662094
F       13.73580933      28.48447800      26.09583473
F       10.66648865      29.56098557      26.31486702
P       33.11458969      28.35788155       8.20610428
F       34.11577225      27.05297089       8.22217369
F       32.09366608      29.62035179       8.21491146
F       33.41227341      28.54579353       6.62695837
F       32.83598328      28.11512375       9.82237720
F       34.36204529      29.31541443       8.59521675
F       31.84119987      27.34484291       7.85874271
P        4.11828566      21.48263550       1.72195840
F        5.33537197      22.52633667       1.40711820
F        2.91909051      20.42248535       2.02742219
F        3.06873894      22.72548294       1.82825780
F        5.19870758      20.23944855       1.63539732
F        4.42426682      21.61676598       3.32872820
F        3.82227731      21.34362602       0.12108330
P       12.99586010      30.68905640      21.37985802
F       14.14135075      31.59203339      20.65104675
F       11.83042526      29.74378967      22.12768936
F       11.80136871      31.61469841      20.71939850
F       14.15453529      29.74650574      22.02567673
F       13.02913666      31.66542625      22.68915749
F       12.92072296      29.70255470      20.07492447
P       21.79473686      25.81305504       2.28742385
F       20.79986572      27.08992958       2.43293262
F       22.81223106      24.50224113       2.20938754
F       23.07004547      26.76105881       2.60732508
F       20.54566002      24.81501961       2.00609446
F       21.97194862      26.06454277       0.70394886
F       21.65274429      25.50801468       3.90937829
P       30.60544968      32.63743591       5.52241755
F       31.94226837      32.65418243       6.46753883
F       29.24033165      32.65833282       4.60842848
F       31.52203369      32.74182129       4.18503857
F       29.67640686      32.57122040       6.89428663
F       30.54477692      34.28973770       5.62196112
F       30.64868546      31.01310921       5.45460415
P       29.66040802      23.05709267      30.79130745
F       28.52330971      24.22090530      31.04095268
F       30.78411102      21.89815140      30.56785774
F       29.03426743      22.19142532      32.05950165
F       30.30381584      23.93149567      29.57918358
F       30.64723206      23.80727005      31.85242653
F       28.65483665      22.30309486      29.75587845
P       18.29826164      15.74004173       6.37294626
F       18.47746658      17.30661011       6.85936213
F       18.11381721      14.17955875       5.92090893
F       17.19816399      16.20330048       5.23834133
F       19.37697029      15.27758789       7.49827957
F       17.09382629      15.56641102       7.47346926
F       19.52965164      15.91832733       5.26521873
P       27.95049667      10.31669998      13.02162170
F       29.13709068       9.20123959      12.82888603
F       26.76688004      11.42875862      13.23531055
F       29.02421188      11.52463722      12.78224182
F       26.84876633       9.08997631      13.30716324
F       28.28399467      10.37039948      14.63785648
F       27.62897301      10.24246693      11.40040398
P       15.21828747      32.35042953      31.02853203
F       13.77021027      32.22836304      31.72533226
F       16.70536995      32.48723602      30.33018684
F       15.36363792      33.88092041      31.59499359
F       15.13081551      30.80295753      30.45402527
F       14.53640079      32.90402222      29.65862274
F       15.92509460      31.79617119      32.39450836
P       19.08981895      17.93779373      21.00317383
F       20.22026062      18.51781082      22.02623367
F       17.92150497      17.33921814      19.97150040
F       20.18050003      16.88529587      20.34591866
F       17.97873497      18.96495628      21.64111710
F       19.51126099      19.08462143      19.87705421
F       18.68746758      16.77925873      22.10534286
P       22.30173874      20.96534538      29.39305115
F       21.43016624      22.01575661      30.28897858
F       23.17565346      19.90390015      28.50662422
F       21.61211014      19.70986748      30.17808151
F       23.04527855      22.21467400      28.61841774
F       23.47627258      21.01613617      30.53391838
F       21.12080383      20.96307564      28.24654007
P       23.61191940      31.23700142      27.91103554
F       24.82654190      32.26684189      27.53157234
F       22.41037750      30.20989609      28.30860901
F       23.10224724      31.27016258      26.36899185
F       24.15350151      31.22445107      29.45301056
F       22.64599037      32.50253677      28.27917099
F       24.58014870      29.97587776      27.58136940
C        6.28502846      24.73450089      12.90564060
O        6.42006826      23.74927330      13.91481304
C        5.33438587      23.76671791      14.84238911
C        5.80645037      23.12144089      16.12570381
O        6.73741865      24.03343201      16.71638107
C        7.36433172      23.56024551      17.91240501
H        5.40297699      24.55015945      12.26298714
H        6.18444061      25.73519516      13.35375786
H        7.20808887      24.73240662      12.30968094
H        4.99044895      24.79252815      15.05285263
H        4.46317101      23.22111320      14.43345737
H        6.27062654      22.13814545      15.93081951
H        4.93643999      22.98443604      16.79187202
H        7.88209152      24.39770889      18.38571930
H        6.61983776      23.18067932      18.62622070
H        8.09406471      22.76467896      17.71376991
C       21.59858322       7.04617405       6.10742760
O       22.35634613       6.09207678       5.37553072
C       23.58667564       5.78096247       6.03206635
C       24.17980957       4.59928989       5.28746748
O       24.60644722       5.05252028       3.98447347
C       24.96799660       3.99265862       3.09329414
H       21.32673264       6.67033720       7.10958862
H       22.13997459       7.99345875       6.24135351
H       20.66730690       7.23549128       5.55663157
H       24.27092934       6.64483881       6.02331734
H       23.42449188       5.53128719       7.09557867
H       23.42803001       3.80719948       5.15512180
H       25.03182983       4.19248104       5.85553694
H       25.07418633       4.40068722       2.08207011
H       25.90309906       3.52310658       3.42719078
H       24.16820717       3.24284339       3.07006931
C       18.97596169       1.93832111      21.36195946
O       20.35672188       2.29346752      21.32617760
C       20.74662209       2.76753116      20.02363777
C       22.26489449       2.91590500      20.04339409
O       22.86511612       1.66999674      19.66128731
C       24.21004677       1.56841779      20.07752991
H       18.33176041       2.81037736      21.17978096
H       18.73629379       1.18492830      20.59375763
H       18.73958969       1.51402247      22.34747314
H       20.44108772       2.05081153      19.24347305
H       20.26562500       3.73505497      19.80552101
H       22.60374451       3.22580552      21.04449844
H       22.54225540       3.69843745      19.31814575
H       24.52744865       0.53298700      19.89334488
H       24.86519814       2.25049353      19.51045227
H       24.32624817       1.78584683      21.15469933
C        7.34218025      23.65468597       8.55678082
O        5.99243498      23.75073433       8.10062790
C        5.16914701      22.80006218       8.78007412
C        3.72432208      23.04004860       8.34134960
O        3.50518966      22.31613731       7.12500095
C        2.13954830      22.36885643       6.73688221
H        7.43935108      23.92221069       9.62046051
H        7.74425936      22.63957214       8.39537811
H        7.93626261      24.35181618       7.94891214
H        5.48471546      21.77607155       8.51758862
H        5.25450182      22.93967438       9.87469006
H        3.54749942      24.11726189       8.18444347
H        3.01931810      22.71324158       9.12935543
H        1.98637116      21.76362038       5.83709860
H        1.47877145      21.95228958       7.53405666
H        1.82824433      23.41179466       6.52620745
C        4.54459715      31.02250481      33.75336456
O        4.77107048      32.00230026      32.74893188
C        5.16558552      31.44148254      31.49649620
C        5.34915304      32.61073303      30.51813889
O        6.65098715      33.12466812      30.77196312
C        6.76179600      34.53160477      30.63680649
H        3.86131454      30.23941994      33.37476730
H        5.48174810      30.55550385      34.09093094
H        4.07428932      31.49268532      34.62395859
H        6.11518860      30.88827515      31.59384537
H        4.40182924      30.74692917      31.10841370
H        4.56509495      33.37087631      30.67554283
H        5.27114630      32.24254227      29.47567749
H        7.82842731      34.77193451      30.75030518
H        6.42912197      34.85668182      29.63656044
H        6.19459200      35.05836868      31.42573547
C       37.09243774      12.61481380      29.14553642
O       36.53252029      13.17346287      27.97931671
C       35.50905991      12.31507015      27.45779991
C       34.92207718      12.91571426      26.19546509
O       35.81324768      12.60723495      25.11434937
C       35.40637589      13.15822506      23.86883545
H       36.30843353      12.41695976      29.89901543
H       37.61355209      11.66137314      28.93751144
H       37.80400467      13.32905960      29.58161926
H       35.91848373      11.31647778      27.22780800
H       34.71186447      12.19601822      28.21242523
H       34.77939224      14.00314522      26.32838249
H       33.92482758      12.48227692      26.01262093
H       36.13703918      12.82343006      23.10083389
H       34.39945602      12.81185532      23.57604790
H       35.39751053      14.26310921      23.88573265
C       29.12833595      16.82759285       4.00297928
O       30.02140999      15.77609253       3.64387059
C       29.49382019      14.87091160       2.66408849
C       30.07155418      13.49462986       2.93450928
O       29.64346313      13.15490150       4.25647402
C       29.81755638      11.76411533       4.51350021
H       28.90816307      17.46995735       3.13431573
H       28.17022324      16.43693352       4.37689829
H       29.58880424      17.41080666       4.80842590
H       28.39601135      14.81271076       2.72803617
H       29.74661255      15.18073750       1.63310051
H       31.17234039      13.47866440       2.85969877
H       29.66397858      12.80664825       2.17368054
H       29.18231583      11.51147175       5.37007189
H       29.47767639      11.13700199       3.67052126
H       30.85922050      11.50543690       4.74678135
C       25.48819542      29.37895584      16.81722069
O       25.92293549      29.87043762      15.54876804
C       27.33355713      30.13642120      15.55434513
C       27.69427872      30.83517647      14.24959564
O       27.17646790      32.17569733      14.35637379
C       27.49387169      32.85016632      13.13850594
H       25.99096489      28.43962097      17.11302567
H       25.62824059      30.12406731      17.62191772
H       24.41838074      29.13960648      16.73438835
H       27.57227898      30.77956390      16.42622757
H       27.90287971      29.19635201      15.64665318
H       27.27333641      30.31235123      13.36771393
H       28.79244423      30.85469818      14.13450909
H       27.00443459      33.83302689      13.17555141
H       28.58359337      32.95145416      12.99849224
H       27.10750008      32.30110550      12.26206112
C        0.78370100      30.95062637       1.23209214
O        2.18141413      30.79561615       1.17968285
C        2.83249784      31.34524536       2.33602428
C        4.32281876      31.09132385       2.17621779
O        4.78774309      32.01505280       1.18681204
C        6.17639971      31.80547714       0.91435730
H        0.33583012      30.31556129       2.02485704
H        0.49722087      32.00423813       1.42521477
H        0.35687035      30.63651657       0.26679787
H        2.63044167      32.43070984       2.40173244
H        2.45676541      30.87904739       3.26065040
H        4.52704048      30.05275726       1.86726797
H        4.81536770      31.28120613       3.14756274
H        6.48603201      32.54044342       0.16484913
H        6.78294611      31.94908905       1.82504916
H        6.38754845      30.80970192       0.51175898
C       31.54637909      22.08299255      25.45358467
O       30.91689491      21.95152283      24.19741631
C       29.48930931      22.03994751      24.27906609
C       28.91891289      21.66217422      22.92029190
O       29.16432762      20.26554489      22.74320793
C       28.51662445      19.71045303      21.61575127
H       31.42644691      23.09913826      25.86904907
H       31.13277245      21.36672974      26.18630028
H       32.62105560      21.86856651      25.34510803
H       29.09720612      21.35839272      25.05398750
H       29.18517113      23.07188225      24.54534340
H       29.39610672      22.23940086      22.10309029
H       27.83424568      21.88266754      22.92111969
H       28.76478386      18.63792038      21.57652283
H       27.41740227      19.77825546      21.70804977
H       28.80608749      20.20379257      20.66589165
C        9.83351898       7.50556755      20.92310524
O        8.88451004       8.38862801      21.53786659
C        8.15363026       7.77895975      22.62071037
C        7.07372284       8.77318096      23.06818008
O        6.01022243       8.65040207      22.13062096
C        4.91087580       9.49810314      22.40788651
H       10.52296638       7.09984684      21.67276764
H        9.32348824       6.67385197      20.41426468
H       10.41223907       8.07038879      20.18312073
H        7.69535971       6.84478998      22.25966835
H        8.82181358       7.55004740      23.46082115
H        7.46882582       9.80163956      23.06605530
H        6.72232580       8.53926849      24.08653450
H        4.15885496       9.37967777      21.61737251
H        4.44058657       9.23165321      23.37274361
H        5.21235323      10.55573654      22.45736694
C        4.95778608      15.07200909       2.46002746
O        5.01175880      15.67064953       3.75119972
C        4.48371744      14.81087208       4.76888323
C        4.56755972      15.54982662       6.10783577
O        3.48670888      16.48244095       6.16762877
C        3.56126142      17.31876373       7.30125284
H        5.59728336      14.18011284       2.40485072
H        3.92925334      14.76856327       2.21480918
H        5.28929472      15.80538750       1.71873498
H        3.43029022      14.57313728       4.53864050
H        5.06014490      13.87201214       4.81882286
H        5.52276468      16.08797646       6.21212769
H        4.48193979      14.83024025       6.94421482
H        2.67252564      17.96603012       7.28555632
H        3.53713965      16.74397659       8.24424553
H        4.46805573      17.94804573       7.29306746
C       29.48620415       6.57912350      36.76955795
O       29.06191063       5.43705702      36.04510498
C       28.10437393       4.71029711      36.81019211
C       27.64938164       3.56424809      35.92926025
O       28.80411148       2.74648643      35.68836212
C       28.53153038       1.57692742      34.94460678
H       28.63274574       7.23316431      37.01874924
H       29.99414635       6.32031536      37.71664429
H       30.17968559       7.12961912      36.12083435
H       28.53507614       4.35504007      37.76847458
H       27.23508453       5.35816860      37.04431534
H       27.24574852       3.95005727      34.97609711
H       26.84631729       3.01268983      36.44483566
H       29.47032928       1.01816034      34.82615662
H       27.80424881       0.94712490      35.47872543
H       28.11677551       1.81225026      33.95489120
C       36.26250458      29.31804657      28.79669952
O       35.02778625      28.98537827      28.18857002
C       34.63501740      27.64138603      28.50592995
C       33.43617630      27.28021812      27.63581848
O       33.91845322      26.83469582      26.36579514
C       32.86871338      26.42009354      25.50805664
H       36.21553802      29.26940727      29.90552139
H       37.07607269      28.65252304      28.45654297
H       36.49661636      30.35163879      28.49826431
H       35.47310257      26.95129013      28.31498337
H       34.36365128      27.59040070      29.57623100
H       32.77548218      28.15785217      27.53401947
H       32.85919189      26.48432350      28.13125801
H       33.31341934      25.97050095      24.61066246
H       32.22559357      25.67521095      25.99920273
H       32.24613571      27.28096581      25.22160339
C       22.94116592      15.64552689       1.56956112
O       21.73266983      14.89671612       1.34157324
C       21.52438164      14.00251770       2.45145297
C       20.18817520      13.34490585       2.23928905
O       20.24794769      12.55140114       1.04117465
C       19.06237602      11.79925251       0.86393976
H       22.86112213      16.25746727       2.47968054
H       23.80378723      14.97001743       1.69428551
H       23.05910301      16.31519318       0.70710832
H       22.35041237      13.27180195       2.50789046
H       21.51430321      14.57055187       3.40830493
H       19.36904144      14.08451462       2.16679382
H       19.95803833      12.71276188       3.11647892
H       19.10335732      11.26755905      -0.08986655
H       18.95414734      11.06037140       1.67908573
H       18.16575432      12.44238377       0.85748249
C       24.58410072      35.03831863      35.78375244
O       24.64897537      34.54170609      34.47227859
C       23.65137482      35.03437424      33.58084869
C       23.52178574      34.01909256      32.43931580
O       22.88593483      32.87533569      33.01003647
C       22.76255798      31.80617142      32.07993698
H       24.88247299      36.09579468      35.83963013
H       23.56626511      34.95420837      36.20278931
H       25.26832581      34.44055557      36.40796280
H       22.67717743      35.13705444      34.08725739
H       23.94421005      36.01403427      33.16523743
H       24.52114105      33.75405884      32.04919052
H       22.92346191      34.44852829      31.61657906
H       21.95570183      31.15061378      32.45283127
H       22.48435402      32.15378189      31.06914330
H       23.68981361      31.21603203      32.00394440
C       13.54640102       8.83085918      16.04780388
O       14.59803963       9.46434116      16.76150131
C       14.56020832      10.88245869      16.53382874
C       15.41076851      11.58205700      17.57403946
O       16.76570320      11.14690876      17.43770790
C       17.57497597      11.87689114      18.36568260
H       12.57949162       9.32181072      16.25729370
H       13.70049191       8.85910988      14.95701027
H       13.47989845       7.79026127      16.39030075
H       14.89564991      11.10608196      15.50243950
H       13.52629185      11.25591278      16.63253403
H       15.03044033      11.36701488      18.59070587
H       15.36693668      12.67113781      17.40543938
H       18.63086510      11.65227795      18.16017151
H       17.39052582      12.96288395      18.27217293
H       17.34550858      11.56637383      19.39847946
C       25.53838730      21.39438629       4.98593760
O       24.17815971      21.56554985       5.42267752
C       23.96707916      21.17587090       6.80183697
C       22.46485710      21.23049164       7.05190325
O       21.96728134      20.02667427       6.48044443
C       20.54303551      19.91427803       6.38941479
H       26.22578239      21.96667862       5.62527370
H       25.82328033      20.33244324       5.01689768
H       25.60323143      21.75139427       3.94925642
H       24.33533287      20.14589500       6.93928385
H       24.50236130      21.86000252       7.47750664
H       22.00593758      22.10527611       6.55630255
H       22.21158028      21.31602859       8.12233639
H       20.33926582      18.85926819       6.15727901
H       20.04794693      20.18677330       7.33344889
H       20.14143562      20.55806732       5.58877850
C       32.69382477      19.13615990      22.64875031
O       32.35746384      19.07183647      24.02062988
C       31.68031311      17.84990883      24.33762360
C       31.14526176      18.03303719      25.76016045
O       29.95156860      18.81882286      25.64814186
C       29.28862762      18.95031357      26.89352226
H       33.41407394      18.34708405      22.36437798
H       31.79976463      19.02471161      22.01065636
H       33.13139343      20.12905884      22.47525597
H       30.83566856      17.67608070      23.64498138
H       32.35701752      16.98016548      24.25636673
H       31.86866379      18.56063843      26.41394424
H       30.90375900      17.04875946      26.19828987
H       28.30419922      19.42447662      26.75261688
H       29.07183075      17.95631409      27.33256340
H       29.85809517      19.52967262      27.64994431
C       18.74820518      31.71396255      33.92080688
O       18.64883423      33.00824738      33.36407089
C       19.35009193      33.13766479      32.12212753
C       18.92344666      34.44687653      31.46851349
O       19.34843636      35.51426697      32.31451797
C       18.81998253      36.76921844      31.92823601
H       18.57013893      30.92719269      33.15820312
H       19.72934723      31.55383301      34.40368271
H       17.94412613      31.57802773      34.65972137
H       20.43717575      33.12148285      32.31081390
H       19.09794426      32.30945587      31.42716599
H       17.82933617      34.44912720      31.30631256
H       19.39932632      34.51280594      30.46408081
H       19.29252815      37.53199387      32.54943466
H       19.03130531      36.98097229      30.86781120
H       17.72572517      36.79779053      32.06271744
C       36.39714813      14.54622841      11.63688183
O       35.81395340      15.37190437      12.64524269
C       34.54193115      15.87348843      12.21432495
C       33.87319565      16.56347084      13.39715004
O       34.63453293      17.72224617      13.76370335
C       34.13537979      18.39482880      14.90344429
H       35.70169830      13.74661350      11.33157635
H       36.64038849      15.13128376      10.73534679
H       37.30799484      14.09915161      12.05718517
H       34.66134262      16.58887672      11.38224792
H       33.88673019      15.05529404      11.85900211
H       33.78591537      15.87143230      14.25314808
H       32.85440063      16.86648178      13.09199715
H       34.73764420      19.30018044      15.06473637
H       33.07444382      18.68288994      14.77849674
H       34.18528748      17.76987648      15.81165981
C       22.79377937       9.93447399      19.31118011
O       21.62939835      10.05064201      18.48268318
C       20.72230721       8.92756271      18.58145523
C       19.82761383       8.98604012      17.35789871
O       20.52781868       8.44105625      16.21676064
C       19.79500008       8.68087387      15.02316666
H       22.52704430       9.66905594      20.34912872
H       23.48380661       9.17334080      18.90822220
H       23.29692841      10.91115379      19.31646538
H       21.25573921       7.96131802      18.60287094
H       20.11853218       9.01191235      19.50174713
H       19.54281616      10.02929688      17.15324402
H       18.88501358       8.43751049      17.52963638
H       20.35898781       8.28359985      14.16611862
H       18.82157326       8.16452122      15.05854797
H       19.60908508       9.75758266      14.88031006
C       28.22890472      35.26832581      29.71596718
O       27.59676743      34.00418091      29.73681068
C       28.15168190      33.14839554      30.74784470
C       27.45910454      31.80097771      30.52844620
O       28.45468903      30.85168457      30.03524208
C       27.93500900      29.73293304      29.24911690
H       28.13647842      35.78635788      30.68859291
H       29.29171181      35.16979218      29.43662071
H       27.70899391      35.86714554      28.95865631
H       29.24223518      33.05312729      30.60569382
H       27.97382355      33.57033539      31.75491142
H       26.64823914      31.89699364      29.78491211
H       27.02444839      31.43729401      31.47483635
H       28.70234680      29.44313622      28.52149773
H       27.73413658      28.88231468      29.92357635
H       26.99784660      29.98783493      28.72914505
C        9.60980511      27.47277832       1.69351888
O        9.54208565      26.05821609       1.61864948
C       10.36641407      25.48043442       2.62832928
C       10.51342392      24.03008842       2.22284102
O       11.39973736      24.00556564       1.07853174
C       11.79043770      22.67816925       0.76812816
H        9.58708000      27.82187653       2.73290682
H       10.51306820      27.86230850       1.19386792
H        8.72021770      27.85029030       1.17133582
H       11.34615326      25.98697090       2.65113950
H        9.88848686      25.61073685       3.62372780
H        9.54195595      23.58264923       1.95863581
H       10.92998505      23.47321701       3.08039784
H       12.53051090      22.67302513      -0.04513060
H       12.22695827      22.18343544       1.64991188
H       10.92651844      22.07228279       0.43813869
C       16.95297813      16.14849854      27.84212494
O       16.72788620      15.15100384      26.83381844
C       15.45530128      15.27944660      26.19589806
C       15.38448238      14.31807232      25.01346779
O       15.54632950      12.96702957      25.47757721
C       15.68257999      12.10889435      24.34293175
H       17.32357597      17.08831978      27.38694382
H       16.03121948      16.39710617      28.40541267
H       17.70372391      15.76690960      28.55086899
H       14.64878178      15.10886478      26.93032074
H       15.32168293      16.30525017      25.80565071
H       16.16690063      14.55047321      24.26469231
H       14.40613842      14.40792847      24.49654579
H       15.73131847      11.07474136      24.71098900
H       14.80966187      12.21093750      23.66635895
H       16.61420441      12.34881210      23.80394363
C       22.60546112      10.89588833      15.82868671
O       22.73962021      11.09876347      14.43203259
C       23.83425713      10.35337830      13.86841488
C       23.87910080      10.67718506      12.38936234
O       24.03863525      12.10680389      12.33478546
C       24.72446060      12.58454990      11.16267109
H       22.67150307       9.82824993      16.10635185
H       23.34481430      11.47334766      16.41572189
H       21.60182762      11.22106266      16.14413261
H       24.76349640      10.67411137      14.36913776
H       23.69817734       9.26727390      14.00280762
H       22.94412231      10.38748837      11.86462975
H       24.70946121      10.14938354      11.88654804
H       25.31576347      13.45205975      11.47761440
H       25.37663460      11.81937599      10.71706581
H       23.99709702      12.89598179      10.38891411
C       24.68984413       5.69454432      25.74993515
O       23.49706268       5.95164585      25.03346062
C       23.65254402       5.65380383      23.64115334
C       22.33929634       5.96105862      22.94189453
O       22.20753288       7.38561344      22.92687988
C       20.90456009       7.79605961      22.48403168
H       25.09249687       4.69537258      25.50610161
H       25.47044945       6.44820404      25.55240059
H       24.45701027       5.70608377      26.82222557
H       24.45998192       6.26861334      23.21150589
H       23.91136742       4.59293461      23.49548149
H       21.48394775       5.49646521      23.46253014
H       22.36094475       5.56709671      21.90575790
H       20.82915497       8.88401604      22.59948540
H       20.74244308       7.52897549      21.42148972
H       20.08647537       7.32299089      23.05647469
C       20.75733757      12.63195229      10.82400894
O       19.64457703      13.39027786      11.30911732
C       19.05149651      14.08545971      10.20862675
C       18.08331490      15.10747433      10.79152012
O       18.88793755      15.99764061      11.56770420
C       18.16478729      16.98061752      12.30308247
H       20.42869186      11.86429691      10.09749889
H       21.48283577      13.28315544      10.30036068
H       21.23338699      12.14677429      11.68988800
H       19.83421135      14.60161018       9.62757397
H       18.51916695      13.38353252       9.52735519
H       17.30999184      14.63527012      11.42704773
H       17.55827713      15.64426708       9.97412586
H       18.89194107      17.62785912      12.82073021
H       17.52995682      17.59086037      11.63673782
H       17.49283218      16.53103065      13.05200577
C       13.32137299      33.18461227      27.17390823
O       14.23629856      34.27684784      27.19822502
C       15.27456093      34.06590652      26.23091888
C       16.15887833      35.29655457      26.26612854
O       16.80889130      35.32105637      27.53938866
C       17.63485527      36.46937943      27.66290283
H       12.82957745      33.06325531      26.18914986
H       13.80258656      32.23320389      27.44544220
H       12.53735542      33.38801575      27.91066360
H       15.86523342      33.16837692      26.48435593
H       14.85284233      33.91351700      25.21814537
H       15.55645466      36.21439743      26.10647964
H       16.90162849      35.20046234      25.44368553
H       18.11712074      36.45240021      28.65020180
H       18.41934395      36.48429489      26.88540840
H       17.03817177      37.39702225      27.58243179
C       36.31415939      26.74887085      22.27389908
O       35.88914108      26.24451065      21.01466370
C       35.48919678      27.32584000      20.18876839
C       34.97130585      26.76724434      18.86044121
O       33.63179398      26.31682587      19.12581062
C       33.13753510      25.45759583      18.09623146
H       37.23569489      27.34145355      22.18032265
H       35.53952789      27.37267303      22.75417519
H       36.50763321      25.89123154      22.93358231
H       34.70609283      27.91201591      20.71508217
H       36.33504486      28.00607872      19.99631691
H       35.59980011      25.94410896      18.49341393
H       34.95009232      27.55023384      18.08458519
H       32.22500992      24.98889732      18.47443008
H       32.91098022      26.03446198      17.18574524
H       33.87321091      24.68137360      17.84259987
C       22.90835762      26.72582054      22.15307999
O       22.86165619      27.21516418      23.48623657
C       24.13291550      27.74847221      23.86864662
C       24.05798721      28.17710686      25.34014511
O       23.77899361      27.04470253      26.17582130
C       24.49029922      26.98656082      27.40516663
H       23.15803528      27.53227615      21.43967247
H       23.64107895      25.91129684      22.03713417
H       21.91142654      26.33401489      21.90779305
H       24.91934967      26.99102020      23.71556664
H       24.37110710      28.63772583      23.24952507
H       23.28795242      28.95317650      25.50928879
H       25.03152847      28.62421799      25.61066055
H       24.63599396      25.92294121      27.63818359
H       25.46820068      27.48868370      27.33439827
H       23.93957138      27.45592690      28.23756981
C       35.99457550       2.71732998       3.69377255
O       36.05599594       2.40249443       5.06845093
C       37.14937973       3.00708652       5.74852943
C       36.85858536       2.91652560       7.24587059
O       36.87626266       1.54521632       7.62743950
C       36.38468933       1.44266593       8.95013142
H       36.08469772       3.81343675       3.54630208
H       36.78489685       2.21818042       3.10187721
H       35.00743866       2.41454220       3.32226086
H       38.09897995       2.51532626       5.46034622
H       37.20779800       4.09093237       5.51781797
H       35.85280991       3.33214140       7.44486904
H       37.59232712       3.48895359       7.83781052
H       36.37300491       0.37705383       9.20901012
H       37.01582336       1.97970140       9.68149090
H       35.35523987       1.84036028       9.02548409
C       17.66526413      25.63075447      36.82001114
O       17.00234795      24.42127228      37.14332199
C       17.52040482      23.32600594      36.37483215
C       16.65179062      22.12965965      36.70890045
O       15.37403011      22.35749054      36.09133530
C       14.59260750      21.17498207      36.02504730
H       18.74904442      25.55233192      37.01281357
H       17.50536156      25.91017723      35.76375580
H       17.24408722      26.41391563      37.46282959
H       17.43588066      23.51848793      35.28545761
H       18.57382393      23.12199020      36.63666534
H       16.53298378      22.00535774      37.80034256
H       17.11408234      21.21203995      36.30793762
H       13.55679131      21.46774292      35.78631210
H       14.90714550      20.49956322      35.20163727
H       14.60691643      20.58837318      36.96505737
C       18.62098312       7.19758368      26.56024361
O       18.74440765       8.61578941      26.58583832
C       17.47726440       9.29185295      26.71052742
C       17.74937630      10.75832653      27.02253342
O       18.40735626      11.30540657      25.86374092
C       18.77523804      12.67266178      26.13979721
H       17.88052940       6.85479593      27.30350876
H       18.30578041       6.84242392      25.55877304
H       19.59567261       6.75558376      26.80976105
H       16.89371490       9.14930248      25.77989578
H       16.86887741       8.87610149      27.53788567
H       18.36387062      10.89321995      27.93174744
H       16.78731155      11.29185772      27.19044685
H       19.18169975      13.06112385      25.19294167
H       17.89367676      13.27523994      26.40116119
H       19.50920105      12.75363064      26.95617485
C       31.03277588      20.32790756       3.97173810
O       32.45042038      20.48530579       4.12604427
C       32.78559494      21.57377243       5.00036478
C       34.21504211      21.98413467       4.66595507
O       34.10537338      22.95220757       3.61874557
C       35.40395737      23.41881371       3.25650048
H       30.54962730      20.07192802       4.92996836
H       30.57211494      21.26083183       3.60871863
H       30.85737991      19.51789856       3.25428891
H       32.09778976      22.41903114       4.84492302
H       32.70615768      21.28799629       6.06143665
H       34.81381226      21.11426353       4.33844328
H       34.69292068      22.42481232       5.55611801
H       35.25413895      24.20607376       2.50294852
H       35.94972610      23.84571648       4.11447811
H       36.00978470      22.60955048       2.82429647
C       28.44121170       8.37998486      17.57183266
O       27.38358116       7.46375036      17.80682755
C       26.58955383       7.28420353      16.64502144
C       25.44540977       6.39242554      17.07438660
O       24.61287689       7.16762114      17.97436714
C       23.83212852       6.40968275      18.88646889
H       29.10353661       8.02430153      16.75900269
H       28.05147171       9.37069702      17.28393936
H       29.03294373       8.45625114      18.49063683
H       26.19302940       8.23797321      16.23975563
H       27.15334511       6.78677273      15.82074547
H       25.83418083       5.49178314      17.58041191
H       24.86007690       6.05312681      16.20022202
H       23.53548431       7.03081083      19.74372292
H       22.88994598       6.04662371      18.42614174
H       24.38465881       5.53249216      19.27109909
C       21.71535683      35.56557465      28.64845085
O       21.38733864      35.68971634      27.27244568
C       21.87581062      36.93625641      26.78022194
C       21.75473785      36.90669250      25.25424194
O       20.36621857      36.91497803      24.91807365
C       20.17361259      36.66527557      23.53283119
H       22.79012489      35.71853256      28.82811546
H       21.15420723      36.27112579      29.28716278
H       21.43667984      34.54597092      28.94915199
H       21.31269646      37.78077698      27.22646332
H       22.93909645      37.05706787      27.04711723
H       22.24450493      35.99886703      24.85653114
H       22.26265335      37.79780960      24.84212875
H       19.09070015      36.65224838      23.34154320
H       20.65669250      37.43627930      22.91075897
H       20.53650856      35.66567612      23.24164772
C       16.99996376      19.83058739       1.74739623
O       15.62555218      19.69596100       1.37430131
C       14.79285336      19.90172005       2.53122258
C       13.37059212      19.54714203       2.14529729
O       13.36476517      18.19254684       1.68604839
C       12.04672050      17.66192436       1.77369380
H       17.22717667      20.87091255       2.04256201
H       17.22906876      19.17492867       2.60244846
H       17.62698936      19.51900673       0.89537668
H       15.14180851      19.25576782       3.35697556
H       14.84931278      20.95537376       2.87700343
H       12.97340775      20.19448662       1.33967650
H       12.70089531      19.67990494       3.01807976
H       12.08608532      16.60092545       1.49051845
H       11.63738632      17.72462082       2.80017257
H       11.33446312      18.17538261       1.09217346
C       25.52433968      16.45572281      14.25393867
O       26.17358017      15.62313557      15.21242809
C       26.44120216      14.34245586      14.62868309
C       27.25772476      13.58058071      15.66321850
O       26.37787056      13.18182468      16.74218559
C       27.17278862      12.56122875      17.75004196
H       26.10617065      16.50501060      13.30892086
H       24.51126289      16.08682060      14.00430775
H       25.43336678      17.46329117      14.68612194
H       25.51205826      13.81319141      14.33912659
H       27.04547501      14.44833946      13.69778061
H       28.05089378      14.22481155      16.08787918
H       27.72627258      12.69157314      15.20671463
H       26.49925232      12.12798309      18.50095558
H       27.78474998      11.75009441      17.32067108
H       27.84413338      13.27969837      18.24707031
C       15.49839115      29.49022675      18.45406532
O       16.85246468      29.94020271      18.40972328
C       17.22036934      30.61631393      19.61423874
C       18.72432709      30.73913956      19.59760475
O       19.08043289      31.52453041      18.42826653
C       20.51015472      31.59213829      18.37160683
H       15.30201244      28.83010483      19.31957054
H       14.78607464      30.33209229      18.46353149
H       15.29354095      28.91791916      17.53930664
H       16.71862030      31.60292435      19.69011497
H       16.88739777      30.04427910      20.50565529
H       19.21380615      29.74533272      19.51783371
H       19.09587479      31.25146675      20.51404953
H       20.75676727      32.22185135      17.50165367
H       20.93411827      32.00828171      19.30180550
H       20.93007851      30.58093071      18.21957397
C       11.44333744      13.32406521      15.39593315
O       10.98065090      13.78718472      14.12979889
C       11.85152340      13.38618660      13.05111122
C       11.15088081      13.70574379      11.74890709
O       11.12308311      15.13850975      11.66004467
C       10.50159454      15.58125114      10.44858837
H       11.80865192      12.28677940      15.31331253
H       12.25757504      13.94733810      15.79419804
H       10.60528088      13.32186127      16.09980583
H       12.82071114      13.89909840      13.13177490
H       12.03547573      12.30210686      13.07621288
H       10.12503529      13.30187798      11.73515224
H       11.68177319      13.24262238      10.89230061
H       10.50746918      16.67511940      10.46529293
H       11.04353523      15.23477268       9.55329990
H        9.46109104      15.22584534      10.37778091
C       11.41508007      18.79381180      25.45701790
O       12.34590721      18.41797447      24.45819664
C       12.24837589      17.03318405      24.09621620
C       13.22737217      16.78174973      22.95703888
O       14.54553318      16.90193367      23.48961258
C       15.50518513      16.76373291      22.43600655
H       10.38149834      18.58282089      25.12060547
H       11.56442165      18.24327087      26.40358925
H       11.49318409      19.87381744      25.64515877
H       12.45786381      16.39999962      24.97627831
H       11.21499348      16.82075310      23.75842667
H       13.05760002      17.53525352      22.17089272
H       13.07045650      15.77198982      22.52442169
H       16.49716187      16.79439354      22.90321732
H       15.39970970      15.79690266      21.90728378
H       15.42022991      17.57523155      21.70111656
C       18.36340523      11.29940414       5.55936527
O       19.11265755      10.77342987       6.66243124
C       18.41396141       9.65315247       7.23040342
C       19.30272293       9.05272388       8.30492210
O       19.26430511       9.84345150       9.49451542
C       19.99278069       9.21269703      10.53612041
H       18.23529816      10.54347801       4.76718903
H       17.36217308      11.63704586       5.86859226
H       18.92022324      12.15609932       5.17541933
H       17.43755913       9.97193146       7.64275503
H       18.21158218       8.89242268       6.45117140
H       20.34440804       8.97418976       7.94269371
H       18.94272041       8.02669144       8.51166821
H       19.96778297       9.85625267      11.42851257
H       19.52858353       8.24485874      10.80663109
H       21.04614639       9.04111767      10.24718952
C       19.44918633      20.11232758      14.64898205
O       18.28328323      20.43932152      13.88402081
C       17.12217140      19.69443321      14.34308624
C       15.91527176      20.22016907      13.60044670
O       15.99110794      19.73378181      12.25616837
C       14.84155655      20.02728844      11.48240280
H       19.27728271      20.27405548      15.72812271
H       19.72274780      19.05073357      14.51312351
H       20.27874374      20.73412132      14.28820133
H       17.28282738      18.62452316      14.14218330
H       16.98752594      19.83186913      15.42850780
H       15.88086033      21.32806015      13.61422157
H       14.97717762      19.87436485      14.08061695
H       14.94538307      19.56519318      10.48675156
H       13.93675041      19.57660294      11.92375565
H       14.67726421      21.11177063      11.39217472
C       33.18841171       5.98192310      22.41399956
O       34.38789749       5.44023705      21.79653931
C       34.16502762       4.39649868      20.82562256
C       35.22393799       3.28871441      20.98202324
O       34.54285431       2.16319823      21.53029251
C       35.30815125       0.98424095      21.46205711
H       32.65541077       6.65087080      21.71754456
H       32.49047852       5.18482447      22.70633507
H       33.46780777       6.54462433      23.30989075
H       33.15211105       3.98382807      20.94856453
H       34.21577454       4.81932878      19.80355263
H       36.04660416       3.61427855      21.64182663
H       35.66045380       3.01945519      20.00022125
H       34.78169250       0.23882866      22.07681656
H       35.38849258       0.60223514      20.42728424
H       36.31774139       1.13008416      21.87974358
C       13.07639980      12.62481880      32.00006866
O       11.88046169      13.29873371      31.56786728
C       10.68178082      12.71217060      32.06051636
C        9.51353836      13.45897293      31.39650154
O        9.29223728      12.87927341      30.10255814
C        8.12751865      13.35419941      29.45820808
H       12.94731140      12.22852707      33.01456833
H       13.32504559      11.79062653      31.31967926
H       13.89296246      13.35777664      31.99950981
H       10.62577248      11.64226723      31.79008484
H       10.61420822      12.80265522      33.16268539
H        9.79139996      14.52749062      31.28743172
H        8.60497856      13.41213608      32.01930237
H        8.05257702      12.85939980      28.48013878
H        7.22063208      13.10944939      30.03429604
H        8.16613197      14.44642925      29.31300735
C        8.23498058       9.29771519      31.64513779
O        8.52215481       8.00339413      32.15391541
C        9.60706520       8.07094383      33.07675171
C        9.85017300       6.64478922      33.56279373
O       10.53501511       5.92099476      32.52421951
C       10.76585102       4.56636858      32.84215927
H        8.02393341       9.99966908      32.46811295
H        9.06647873       9.68944073      31.03881073
H        7.33998251       9.21132660      31.01372337
H       10.51428413       8.44744682      32.57756424
H        9.37207985       8.75117588      33.91772079
H        8.88906193       6.16189671      33.78003311
H       10.44473934       6.66844034      34.49138260
H       11.35447311       4.11869287      32.02823257
H       11.33081341       4.45177221      33.78654099
H        9.81596565       4.01021385      32.93067932
C       10.08458233      14.86551094      36.80236816
O       11.23366833      15.56737041      37.26592255
C       11.51992321      16.70829391      36.43374252
C       12.98148251      17.07993507      36.70108795
O       13.68037415      16.82599258      35.46058655
C       15.09411335      16.84508133      35.65191650
H        9.14523697      15.42066097      36.97941971
H       10.14402008      14.64930248      35.71960068
H       10.03420258      13.90382099      37.33243179
H       11.41624546      16.43939781      35.36587906
H       10.81385517      17.52535057      36.65471268
H       13.38657093      16.45450974      37.51200485
H       13.09507465      18.12982178      37.02072144
H       15.54410744      16.61547470      34.67683411
H       15.44323063      17.82313919      36.01806641
H       15.40212536      16.07963181      36.37955475
C        8.72379398      28.69876289       5.09401417
O        7.76832056      27.73228836       4.65992880
C        6.83463764      28.37187576       3.79242516
C        5.98486042      27.29872894       3.12405300
O        4.93681812      26.95260429       4.06563759
C        3.92711186      26.16963387       3.44877148
H        9.33418846      29.07736969       4.25603485
H        8.22021675      29.53802681       5.60322332
H        9.39619827      28.22070885       5.81761503
H        6.19974518      29.07392883       4.37097168
H        7.35680246      28.94561005       3.00110245
H        6.59057713      26.41594696       2.86519361
H        5.54159069      27.68931389       2.19019246
H        3.23645949      25.84793663       4.23440456
H        3.37195182      26.75762367       2.69989038
H        4.32653284      25.27099991       2.95896578
C        7.02517319      37.11137390      16.34068298
O        8.05794430      36.17929459      16.13445854
C        8.75920963      35.86647797      17.35502434
C       10.01388454      35.10013962      16.97947884
O       10.86641312      36.02083969      16.28559303
C       12.19288349      35.51099777      16.18038177
H        6.21504259      36.67920303      16.95922470
H        7.39960670      38.01829529      16.84607124
H        6.59560490      37.36695099      15.36185932
H        9.01861668      36.79542923      17.88874054
H        8.12609482      35.26392746      18.02643013
H        9.78463078      34.22468567      16.34004974
H       10.48175430      34.74246979      17.91165924
H       12.80389214      36.28499603      15.69406891
H       12.60246181      35.25576401      17.16987038
H       12.21637917      34.59675980      15.55495071
C       17.81436729      29.61941528      29.21517181
O       17.51973534      29.92346954      27.85660553
C       16.13696289      30.20269203      27.53667068
C       16.05268478      30.31219101      26.02095222
O       16.57325745      29.10105133      25.45333290
C       16.15624046      28.92309189      24.11659813
H       17.67183304      30.49726295      29.87352753
H       17.16828537      28.81134796      29.61272240
H       18.87305260      29.29629517      29.18137550
H       15.48925781      29.39125252      27.91987038
H       15.83370686      31.13538551      28.05904770
H       16.64146614      31.16253662      25.61008453
H       14.98937130      30.46552658      25.72932434
H       16.58148766      27.97607613      23.74397469
H       15.05480385      28.81606865      24.03955269
H       16.45742989      29.76034927      23.44812393
C       22.94365501      31.41182518      15.42858791
O       23.77470398      32.54795074      15.59736347
C       23.84285355      33.05680466      16.93033218
C       25.01272583      34.02949142      16.97570610
O       24.61573410      35.14524841      16.17253494
C       25.67752838      36.09003067      16.13161087
H       22.87201500      30.81122208      16.35219955
H       21.91931725      31.69813919      15.13957310
H       23.35018921      30.77023697      14.63655472
H       22.90431023      33.57461929      17.20262718
H       24.00657272      32.24895096      17.66601181
H       25.90667343      33.53660583      16.54936790
H       25.22734833      34.35478592      18.01431847
H       25.28338623      36.97804260      15.61875820
H       26.00920677      36.37390518      17.14479828
H       26.54479408      35.69216919      15.57541943
C       29.43178558      26.22786331      12.02492809
O       28.91764069      25.16729927      11.21920776
C       28.47621346      25.67291641       9.95093536
C       27.59141541      24.61301422       9.31306076
O       26.36115074      24.65449524      10.05191422
C       25.57519722      23.50547028       9.81102562
H       30.33729362      26.66186333      11.56408501
H       28.67959023      27.02650833      12.14925289
H       29.66164017      25.83314323      13.02568245
H       27.88793564      26.59767342      10.08938789
H       29.33804703      25.88981819       9.29346466
H       28.06520081      23.61973190       9.38718700
H       27.41599655      24.81124496       8.23758888
H       24.63562775      23.61518669      10.36849022
H       25.32143021      23.41628647       8.73671818
H       26.07552528      22.57890511      10.15222549
C       31.79304504      15.25599670      33.78175354
O       31.19559479      16.51815224      34.01484680
C       30.79203033      16.76120949      35.36683273
C       29.84818268      17.95933723      35.32590485
O       28.63341713      17.52935028      34.70687866
C       27.96779060      18.60848427      34.05532074
H       32.68304443      15.12368870      34.42276382
H       31.07789612      14.43511963      33.96452713
H       32.09060669      15.21396446      32.72225571
H       30.27728462      15.88228512      35.78812408
H       31.66052055      17.00865364      36.00065231
H       30.30930519      18.76286697      34.72848129
H       29.64744568      18.33353996      36.34963608
H       27.02748489      18.21488190      33.63412857
H       27.72132874      19.41161346      34.76481628
H       28.56268501      19.01320076      33.22086716
C       25.49094391      28.32875061      33.63988113
O       24.76938248      27.67593193      32.60544968
C       23.34982109      27.70121956      32.82309341
C       22.74920082      26.49327278      32.12760925
O       23.09711266      25.31971931      32.86136246
C       22.28064919      24.24154091      32.42117310
H       25.33901978      29.42189789      33.61173630
H       25.18803024      27.96891022      34.63723373
H       26.55727196      28.10167122      33.49541473
H       23.11068153      27.73143768      33.90251541
H       22.92734337      28.60499001      32.34812164
H       23.06840134      26.40887260      31.06695557
H       21.64342117      26.61407661      32.10979843
H       22.52784348      23.35890770      33.02294540
H       21.20104980      24.46737480      32.53684616
H       22.43207932      24.00957870      31.34775925
C       12.27803993      16.19146156       4.86921692
O       13.03435516      15.58762455       3.82080674
C       14.34442043      15.21606636       4.27894211
C       15.06194305      14.63066483       3.06856537
O       15.56291294      15.76927376       2.33289886
C       16.08668327      15.42516899       1.04030061
H       12.12444878      15.51070690       5.72506666
H       12.74625874      17.11671066       5.24251509
H       11.27725697      16.41126442       4.47357130
H       14.85222721      16.09947395       4.70154715
H       14.24372959      14.46587563       5.08309937
H       14.36196613      14.05736542       2.43549609
H       15.90258503      13.99157524       3.38910842
H       16.57444191      16.32190704       0.64789933
H       16.81690788      14.60669899       1.09305549
H       15.28393459      15.10394001       0.35345253
C       12.34981155      10.23250675      23.56764412
O       12.58878708      10.76598358      24.86261940
C       13.21152592       9.81110668      25.73098564
C       13.24888611      10.48897076      27.10150146
O       11.89007664      10.54542065      27.55826378
C       11.80788994      11.10251617      28.86316872
H       13.27947330       9.85631752      23.11728668
H       11.62563133       9.40319443      23.60799789
H       11.93873119      11.03948402      22.94880486
H       12.63107395       8.87259674      25.75155640
H       14.23846531       9.57730198      25.39322090
H       13.67562580      11.50381374      27.01863670
H       13.86900330       9.90636539      27.80115700
H       10.75041294      11.25763988      29.11118317
H       12.23051453      10.42699623      29.62583542
H       12.31725883      12.07639408      28.94556046
C       14.39424992      24.67275810      14.95475388
O       13.05117798      24.19152832      14.84261799
C       13.04743385      22.77635574      14.60014629
C       11.59857368      22.32822800      14.62124634
O       11.10240936      22.44582939      13.26962948
C        9.73908901      22.06712151      13.12331295
H       14.97700310      24.14785194      15.73004818
H       14.94399834      24.57968521      14.00399303
H       14.32791805      25.73114395      15.23197746
H       13.49355221      22.54049492      13.61313248
H       13.62407589      22.25476837      15.38220692
H       10.97908115      22.93621254      15.31234837
H       11.53720093      21.27801323      14.94528008
H        9.52179432      21.98405266      12.05305767
H        9.53247738      21.08733177      13.58993340
H        9.06948280      22.81868744      13.56500721
C       22.41192436      36.91260147      10.09457970
O       22.66786957      35.51426697       9.95442390
C       21.72744179      34.73563385      10.70242119
C       22.21174431      33.29644775      10.69070148
O       23.37110710      33.20584488      11.53468132
C       23.68783951      31.83860779      11.78359699
H       21.43518066      37.17722321       9.65107727
H       22.38411903      37.23797989      11.14597893
H       23.22095871      37.44099426       9.56508541
H       21.63643074      35.11632538      11.73930550
H       20.72435951      34.78084946      10.24242401
H       22.42830086      32.92583847       9.66548157
H       21.38537025      32.67873001      11.08616352
H       24.52370834      31.78767204      12.49671745
H       22.82192802      31.30684280      12.21776390
H       23.96332741      31.31039429      10.85194206
C       29.39848137       8.75048923      32.95022964
O       30.56218529       9.53217697      33.16036606
C       31.68750954       9.05859852      32.40846252
C       32.82748032      10.00342941      32.75431824
O       33.44874191       9.56365013      33.96914673
C       34.28614807      10.55993366      34.51203918
H       29.23354912       8.54568386      31.87724113
H       29.45874405       7.79322290      33.49641418
H       28.54181099       9.33946609      33.31108093
H       31.94686699       8.02550411      32.68712234
H       31.46063995       9.07182503      31.32820511
H       32.39842606      11.00983906      32.87103271
H       33.54767609      10.00929451      31.91527367
H       34.79730606      10.13229275      35.38925552
H       35.04180527      10.88933182      33.77463531
H       33.70368576      11.43357849      34.85024643
C       13.52179623      21.59259224      26.29327202
O       12.21759033      22.17655182      26.26505280
C       12.21661663      23.18066597      25.24402809
C       10.84012318      23.83642197      25.14694023
O       10.54763222      24.44536018      26.40838623
C        9.58807564      25.48664665      26.35320854
H       13.74345493      21.11150551      25.32094574
H       14.29620647      22.35003281      26.49622154
H       13.52752686      20.82140160      27.07890701
H       12.98390579      23.93959618      25.48173332
H       12.45337772      22.72142982      24.25623131
H       10.05291271      23.11844826      24.84837914
H       10.90807819      24.59320831      24.33747292
H        9.46777153      25.91320038      27.35709381
H        9.90894508      26.29508781      25.67548180
H        8.58687401      25.12306976      26.03769875
C       31.12705994      33.58272934       9.45102501
O       31.41217804      32.21471786       9.63800430
C       30.24857140      31.36893463       9.93783855
C       30.77367020      30.23077011      10.80628204
O       30.60685539      30.62155533      12.18458843
C       31.26647186      29.71289062      13.05170345
H       30.72505379      33.74808121       8.42951679
H       30.38233757      33.96757126      10.16563988
H       32.07865143      34.12288666       9.57245064
H       29.46129417      31.95888901      10.45023727
H       29.83816147      31.04043579       8.95850372
H       31.83839989      30.03997612      10.60295010
H       30.21179581      29.30705070      10.57829762
H       31.13149261      30.06549835      14.07984543
H       30.80622101      28.71181870      12.97715950
H       32.34368896      29.65853119      12.82063103
C        3.74156880      26.50145912       9.83565617
O        4.35006285      27.65478897      10.38714600
C        4.00980425      27.93366814      11.76706886
C        4.67723560      29.24302483      12.10357857
O        3.82897758      30.24100494      11.53103924
C        4.38134336      31.53570557      11.72052288
H        3.95242810      25.61632729      10.46167469
H        2.65003872      26.62418175       9.75149727
H        4.15727901      26.34087181       8.83137989
H        2.91469526      28.01348877      11.87279415
H        4.37302017      27.14029121      12.43678284
H        5.65444946      29.28556061      11.59100342
H        4.82541847      29.40043449      13.18628502
H        3.72435021      32.22573090      11.17002106
H        4.41443300      31.82022476      12.78593254
H        5.41302824      31.60542488      11.32594776
C        8.67963505      32.65264511      11.18761921
O        9.49623013      33.69999695      11.70329666
C        8.75101757      34.68399811      12.43036270
C        9.74929333      35.54084396      13.18488979
O       10.40968132      36.37136078      12.21426296
C       11.41972923      37.14434433      12.85057068
H        8.15138531      32.12213516      11.99459648
H        7.92917919      33.01598358      10.46537971
H        9.31351948      31.92558861      10.66693115
H        8.13107300      35.28241730      11.73606491
H        8.05764866      34.22172546      13.15233326
H       10.48648930      34.90168381      13.70214272
H        9.26342964      36.14943314      13.96672535
H       11.82343102      37.84072113      12.10214043
H       11.01406288      37.69863892      13.71683121
H       12.24448204      36.51487732      13.22722626
C       33.20230484      16.47632790       2.58408809
O       34.08348083      15.99229145       3.58596992
C       34.80752182      14.84477139       3.13660789
C       35.63673401      14.36397934       4.32934237
O       34.98131943      13.22283363       4.88994884
C       35.69235611      12.75660229       6.03238630
H       33.75878143      16.95252800       1.75878894
H       32.57769775      15.66695499       2.17234540
H       32.51385117      17.19064713       3.05300856
H       34.11445999      14.05388641       2.80254960
H       35.46278763      15.09930611       2.27907228
H       35.71171188      15.15730953       5.09476423
H       36.65702057      14.08140278       4.01022911
H       34.97849274      12.20104408       6.65275955
H       36.52960968      12.09490967       5.75387049
H       36.09837341      13.58544827       6.63554955
C       11.05791950       9.01660347       3.84310150
O       10.58554649       9.01955223       5.18440199
C       11.56375790       8.52891254       6.10442448
C       10.86629677       8.39052296       7.45596218
O       10.12568760       7.16353941       7.38544798
C        9.27899265       6.99480486       8.51620674
H       11.90417480       9.71496296       3.72966146
H       11.37768364       8.01433277       3.53030205
H       10.22510624       9.32903576       3.20403433
H       11.96483231       7.56464577       5.74236059
H       12.39299107       9.24907398       6.22674131
H       10.19186878       9.24324799       7.64481497
H       11.59703064       8.35507774       8.27896881
H        8.79822350       6.01491499       8.41627979
H        9.84196377       7.01408005       9.46098518
H        8.48277092       7.75178146       8.55486298
C       24.91429901      19.00804520      37.17639923
O       24.67971420      17.61502075      37.06048584
C       25.92453194      16.89593124      36.96456528
C       25.58044815      15.41263676      36.94918442
O       25.00041389      15.12423229      35.66358566
C       24.32361603      13.86875057      35.65293503
H       25.45985031      19.24167061      38.10659027
H       25.48342323      19.39464378      36.31030655
H       23.92356300      19.48244286      37.22402573
H       26.43080521      17.16704750      36.01533127
H       26.57376480      17.15444374      37.82412338
H       24.85952187      15.19357967      37.75447464
H       26.48577309      14.80206585      37.10434341
H       24.00485039      13.66314507      34.62221146
H       24.98197174      13.05768299      36.00253296
H       23.42455864      13.90923977      36.28649902
C       16.58497620      27.44193268       7.76973295
O       17.89423943      27.91057968       8.07586765
C       18.69862366      26.92651749       8.75037003
C       20.02924347      27.57867050       9.05817795
O       19.88431358      28.45027542      10.19168949
C       21.12880707      29.04112434      10.55453777
H       16.61588478      26.57897949       7.08462858
H       16.03130341      27.13882065       8.67061901
H       16.02632141      28.24703407       7.28013325
H       18.21601486      26.56952667       9.67423153
H       18.86574745      26.05367851       8.09454441
H       20.36470222      28.16675186       8.18461323
H       20.78110504      26.80008125       9.27662849
H       21.00577545      29.48718452      11.55157757
H       21.92622185      28.28175354      10.61738300
H       21.42234612      29.82371902       9.83052349
C       21.61855888      23.83207893      18.27203560
O       20.82109833      24.81145096      17.61415291
C       20.94079781      26.09804916      18.25826645
C       19.89041901      26.98262596      17.61178017
O       18.63055420      26.41718102      17.99338531
C       17.55776978      26.83980560      17.15814972
H       22.68308830      24.13124657      18.29153633
H       21.27658653      23.66647148      19.31046295
H       21.51037407      22.89155579      17.71695709
H       20.76871109      26.01764488      19.34607887
H       21.95347023      26.50517845      18.09126091
H       19.97635460      26.97936630      16.50535583
H       19.96927452      28.02077866      17.98216438
H       16.68307495      26.20332718      17.37702179
H       17.28605080      27.88607979      17.36451912
H       17.79288292      26.72423744      16.08626366
C       32.06918335       8.77334023      13.32070732
O       31.98610497      10.14901733      12.99860764
C       32.23744965      11.05228233      14.08237934
C       32.04189682      12.44399548      13.51224422
O       31.15136528      13.16069031      14.39255905
C       30.60792732      14.29995251      13.74005604
H       33.11161041       8.45119286      13.48400688
H       31.45330811       8.51478767      14.19767094
H       31.66218376       8.20492458      12.47274113
H       31.52714157      10.89996624      14.91613293
H       33.26226807      10.91152573      14.47232819
H       31.59469414      12.32066536      12.50760078
H       32.99495697      12.99651432      13.42036629
H       29.82970238      14.71896362      14.38815784
H       31.38262939      15.05406666      13.54079819
H       30.12225914      14.02598095      12.78709412
C       35.83474350      13.97538948      17.09417915
O       36.52080536      12.92968845      16.40406036
C       35.71403503      12.22194481      15.45592594
C       36.30944824      10.81768513      15.29259396
O       35.78734589      10.06104946      16.39357948
C       36.20859146       8.70476532      16.29557037
H       35.43463898      14.72766304      16.39116859
H       34.97996140      13.58424854      17.67112541
H       36.54907990      14.45317459      17.78254890
H       34.66883087      12.13780022      15.79616070
H       35.72226334      12.73983669      14.48157597
H       37.41077805      10.84450817      15.31382751
H       35.99073029      10.37026310      14.33384132
H       35.55483627       8.13309002      16.96644783
H       36.06967163       8.30718517      15.27408028
H       37.26297760       8.58472538      16.59169960
C       27.15852356      34.78855515      23.95770264
O       27.69539452      33.47997284      23.93116760
C       26.73199844      32.50056458      23.55357742
C       27.44611931      31.15846634      23.64000511
O       27.77474594      30.92869186      25.01312447
C       28.42809868      29.66953278      25.12981606
H       26.89678955      35.10874557      22.93277550
H       26.25145721      34.85058975      24.58008766
H       27.92287064      35.44724655      24.39355850
H       25.85168266      32.52903366      24.21944809
H       26.36864471      32.63920593      22.51613808
H       28.36896515      31.15178108      23.02793884
H       26.75975037      30.38221359      23.25782776
H       28.66609573      29.52503967      26.18913269
H       27.76573372      28.85152817      24.80257416
H       29.35434532      29.64319611      24.52992249
C       22.21831703      15.52060699      12.32811260
O       22.29677200      15.65843773      13.75556087
C       21.71675682      14.51120472      14.39568138
C       22.05201340      14.65548801      15.87562275
O       21.58173752      15.94630718      16.30371284
C       21.74330902      16.10933685      17.70616341
H       22.74135971      14.62196159      11.95571899
H       21.16755486      15.46044445      11.99386311
H       22.68554497      16.41065216      11.87824345
H       20.61722946      14.49798679      14.24118423
H       22.11674881      13.56230640      13.99141026
H       23.14423180      14.57842636      16.04800415
H       21.55901527      13.85910702      16.46781349
H       21.17250824      16.98151016      18.05420303
H       21.35003090      15.23057461      18.25075150
H       22.80570602      16.24570084      17.98462677
C       32.12191010      14.60308170       6.74247360
O       33.33599091      15.34056091       6.86211109
C       33.58405304      15.93334103       8.13503265
C       35.05066681      16.35888100       8.11193752
O       35.16723633      17.28826332       7.01836920
C       36.54310226      17.70268822       6.88019896
H       31.72474480      14.32863426       7.73383951
H       31.35551262      15.17829800       6.20361567
H       32.30287552      13.67419529       6.18754911
H       32.92092514      16.79690933       8.32523823
H       33.42287445      15.21210480       8.95589066
H       35.70058823      15.48834133       7.92021036
H       35.32574844      16.85171509       9.06088352
H       36.54942322      18.52451706       6.15156603
H       36.93742371      18.07464027       7.83479071
H       37.15812683      16.86316109       6.52066755
C        7.39213657      10.67077351      35.87476730
O        6.85490656      11.68017578      35.05795288
C        7.36493826      12.96787739      35.41028214
C        6.32953644      14.01353359      34.98590469
O        5.45903111      14.21628284      36.09817505
C        4.27856970      14.92442703      35.77522659
H        8.47996044      10.56453896      35.74376297
H        7.18666029      10.84574890      36.94692612
H        6.91346264       9.72564697      35.58380890
H        7.54073524      13.05608749      36.49422836
H        8.32290554      13.14379787      34.88946533
H        5.79047823      13.67470646      34.08380890
H        6.84615517      14.95845699      34.75166321
H        3.67063642      15.01467228      36.68539810
H        4.51062775      15.93135071      35.39477158
H        3.68961430      14.39437771      35.00578690
C       28.88460350       6.12641287      10.05810928
O       27.50453377       6.08710766      10.45450497
C       27.42851639       5.45233059      11.74679184
C       25.98492050       5.33383608      12.16013432
O       25.38487244       4.35549212      11.27709103
C       23.98583412       4.23417187      11.45860863
H       29.52364922       6.58796263      10.82752705
H       29.25739670       5.10765219       9.85407162
H       28.94650650       6.69770670       9.12188148
H       27.90776062       4.46297503      11.66880226
H       27.97348595       6.04740429      12.50303936
H       25.44029999       6.29250336      12.07855701
H       25.87649918       5.01998711      13.21278191
H       23.58729553       3.51735711      10.73177624
H       23.72110748       3.88712645      12.47437954
H       23.47366905       5.20430088      11.31659985
C       31.70217896      30.25035286      22.76806831
O       32.98128128      30.40838814      22.14863586
C       33.99390030      30.74219322      23.09823036
C       35.20590210      31.18020630      22.28505707
O       34.86283112      32.42976379      21.69603348
C       35.66563034      32.68527222      20.54990959
H       31.76180840      29.55093193      23.62041855
H       31.30279160      31.21734238      23.11877060
H       30.99765968      29.84967613      22.02662849
H       33.65180588      31.53809547      23.78627968
H       34.27116013      29.86089134      23.69173241
H       35.41164017      30.43578720      21.49428940
H       36.08473969      31.27079964      22.94655037
H       35.32212830      33.63891983      20.12989044
H       36.73057938      32.75466537      20.83439255
H       35.55311584      31.90010071      19.78417397
C       10.93795681       2.94499254      19.72075844
O       11.77014160       4.06473303      19.46178246
C       12.85442829       4.16158104      20.41215324
C       13.63554192       5.40670109      20.05190086
O       13.03336525       6.48540974      20.76777649
C       13.66097641       7.72849655      20.48615265
H       11.37222958       2.01034188      19.33630180
H       10.75889874       2.82572389      20.80495644
H        9.96645164       3.11550665      19.23741722
H       12.44631481       4.23532057      21.43787766
H       13.49106503       3.26873207      20.33637047
H       13.57972431       5.58074808      18.95857620
H       14.69384098       5.30963135      20.34252930
H       13.35652351       8.42600536      21.27535248
H       14.75398636       7.63637972      20.50035095
H       13.33976460       8.11550713      19.50210190
C       23.38852119      19.06941032      13.69743919
O       22.52105522      20.10053635      13.22436619
C       23.05895805      20.63272667      11.99705887
C       22.17400169      21.79831123      11.60807133
O       22.26811409      22.77619553      12.65284824
C       21.52826500      23.94472885      12.29613113
H       23.59758949      18.31952095      12.91202259
H       24.34922981      19.47705650      14.06297016
H       22.85164452      18.54785538      14.50447083
H       24.10569954      20.95170403      12.15368080
H       23.05045700      19.85782433      11.20651627
H       21.11869621      21.50439262      11.46141529
H       22.52430725      22.20859337      10.63995647
H       21.52207756      24.62343979      13.15826893
H       21.97433662      24.44772720      11.41993046
H       20.48172379      23.70727539      12.03469086
C       25.71948624      22.71334839      30.24273491
O       26.07392502      21.40617752      29.83911896
C       26.45400810      20.48433304      30.88239861
C       26.01558304      19.09906006      30.44141197
O       26.70800781      18.77134323      29.22985268
C       26.30399132      17.50403023      28.74959564
H       25.25533104      22.74070358      31.24669838
H       26.58820343      23.39434433      30.21286392
H       24.95988655      23.06838608      29.52904892
H       27.55021286      20.58681107      31.02570534
H       25.95459938      20.78130531      31.83505440
H       24.92305374      19.06855583      30.26295090
H       26.26908493      18.37820816      31.24328423
H       26.94864845      17.19538498      27.90712738
H       26.34304428      16.73365211      29.55419540
H       25.27565956      17.53642845      28.34123230
C       30.70851326      18.66126060      11.92672062
O       31.92041588      18.85308266      11.19975948
C       32.66693878      19.95027161      11.73780823
C       34.00926971      19.95066071      11.02065277
O       33.76659012      20.23910713       9.62481117
C       35.02299500      20.26071930       8.92300320
H       30.89679337      18.46490669      12.99804974
H       30.04891777      19.54497910      11.87230492
H       30.19604683      17.79253769      11.49072552
H       32.10326004      20.88660240      11.57951355
H       32.81827164      19.83250046      12.82449627
H       34.50629807      18.97326279      11.12144470
H       34.65324783      20.72547150      11.47686958
H       34.84055710      20.55294037       7.87921476
H       35.72770309      20.98041153       9.39509583
H       35.51702118      19.27781296       8.91656971
C        6.59941959       4.81984997      34.50306702
O        5.45474625       4.22015953      35.10272217
C        5.84022808       3.14688516      35.96682358
C        4.56285429       2.34721565      36.18926239
O        4.38252735       1.53807592      35.01486588
C        3.11813712       0.90602088      34.97701645
H        7.29924488       5.17091846      35.28271484
H        7.12200642       4.11319876      33.83429718
H        6.24269104       5.67899418      33.92128372
H        6.59150410       2.51040888      35.46925735
H        6.25931120       3.54634714      36.91025925
H        3.71488357       3.04157352      36.32788849
H        4.65720367       1.72382843      37.09493637
H        3.06987023       0.24729334      34.09680939
H        2.96820402       0.29470295      35.88646317
H        2.30249166       1.64792395      34.91223145
C        5.78320694       7.68423128      19.16198730
O        5.88719988       9.07402992      18.93058014
C        7.24443817       9.52192020      18.81051636
C        7.25705671      11.01184368      19.14757919
O        7.26083136      11.12418365      20.56587029
C        7.39310122      12.45439720      21.00894928
H        6.33522797       7.09638357      18.40879059
H        6.12886095       7.43545151      20.17701721
H        4.71605921       7.43616867      19.09559059
H        7.89325905       8.99914646      19.52789497
H        7.59919930       9.34168243      17.77714348
H        6.37505007      11.51386070      18.71266365
H        8.17597008      11.45087624      18.71618080
H        7.53035688      12.43863487      22.09902382
H        8.28226757      12.91854000      20.55408669
H        6.50049448      13.05353165      20.77190781
C       14.99873543       7.15715265      34.54587173
O       14.87360191       7.33161545      33.14616013
C       13.58921909       7.86319399      32.78314972
C       13.42467022       7.86064005      31.25758362
O       13.78009701       6.59143019      30.72454071
C       13.58428288       6.54743767      29.32625580
H       14.64471340       8.03446102      35.11000824
H       14.40639400       6.28940487      34.89684677
H       16.05554581       6.98790455      34.78900909
H       12.77871513       7.25304174      33.21956253
H       13.48361397       8.88003445      33.19426346
H       14.02829933       8.66817856      30.80031395
H       12.35261250       8.08230877      31.06021309
H       13.83735085       5.54369211      28.96157074
H       12.53400993       6.74951410      29.05097389
H       14.22245312       7.27167940      28.79638100
C        1.26256979       6.00211906      10.21008968
O        2.27344394       6.83409643      10.73591518
C        1.80429137       7.73830414      11.74048710
C        3.00167680       8.53415012      12.22092915
O        3.25753832       9.53986263      11.23234558
C        4.60358286      10.00678921      11.35250568
H        0.76489449       5.43711090      11.01912689
H        0.49643230       6.58259344       9.66873360
H        1.72796106       5.29322720       9.51390553
H        1.03286636       8.40771484      11.32039547
H        1.35492885       7.19518900      12.58750439
H        3.87999010       7.87242508      12.31130028
H        2.81120586       9.00115871      13.20471954
H        4.72861385      10.79456043      10.60158062
H        4.78482103      10.42043304      12.35881233
H        5.32230186       9.19569302      11.17153168
C       23.37769318      14.79092026      31.59661674
O       23.34751701      16.20245171      31.73231697
C       23.61487770      16.61557198      33.07945633
C       23.45295906      18.12414360      33.14443207
O       22.05051994      18.38304329      33.03979492
C       21.76209450      19.75015640      33.28138733
H       24.34059334      14.37132835      31.93675804
H       22.54673386      14.32271481      32.15459824
H       23.23129654      14.51782608      30.54048157
H       22.90523911      16.14160347      33.78618240
H       24.64932632      16.33646774      33.35747910
H       23.95723152      18.62588692      32.29129791
H       23.85309982      18.52544785      34.10216522
H       20.66940308      19.86593246      33.20553970
H       22.06534767      20.04820824      34.29955673
H       22.26535797      20.39974785      32.54476166
C       12.40057278      29.42817307      17.06761169
O       13.36589909      29.75449181      16.08269882
C       13.60024166      28.66635132      15.17308426
C       14.88227844      28.96974754      14.43035412
O       15.99334812      28.63027763      15.26369667
C       17.12987137      29.40293884      14.88854694
H       11.43836212      29.14250755      16.60183334
H       12.72706127      28.60079002      17.72207260
H       12.21134377      30.30139542      17.70842361
H       13.68090916      27.71109581      15.72743130
H       12.77014637      28.56441879      14.44714832
H       14.87969685      30.04204178      14.17317581
H       14.91025925      28.40332031      13.47987938
H       17.98359108      29.09804916      15.51376724
H       17.38639259      29.24744225      13.82297421
H       16.93275261      30.47487450      15.05000687
C        4.45195007       8.53831577      15.92584705
O        3.49822998       9.56408310      16.13618660
C        4.08476686      10.85902882      16.03297424
C        3.20381689      11.84984398      16.80041885
O        3.46218514      11.66828537      18.19999504
C        2.83649516      12.64886093      19.03887367
H        4.84134054       8.54656792      14.89385033
H        5.28500509       8.62796497      16.63770103
H        3.93327975       7.58808565      16.11007500
H        5.08404827      10.87065125      16.48841095
H        4.17165518      11.15611076      14.97188950
H        2.13600421      11.69019032      16.58311081
H        3.48110390      12.86898804      16.49267960
H        2.98681259      12.33508492      20.09216118
H        3.27821064      13.64970207      18.89110756
H        1.74597895      12.69757938      18.85797501
C       31.96464920       7.18272305      17.69836235
O       30.85673141       6.32688475      17.96895409
C       31.23961639       5.35054207      18.95050812
C       30.21253586       4.22479391      18.95486641
O       30.89644241       3.06822777      18.45179558
C       30.13950729       1.87579262      18.43401718
H       32.35327911       7.65706110      18.61455345
H       32.79201889       6.65050602      17.19327736
H       31.61468315       7.97875929      17.02422905
H       32.22375488       4.92560863      18.68603897
H       31.33563614       5.82876396      19.94194984
H       29.34512329       4.46358967      18.31408691
H       29.82679367       4.03698063      19.97422409
H       30.78458786       1.07886958      18.04662895
H       29.80153275       1.59985638      19.44617271
H       29.26196861       1.96407604      17.77559471
C        9.45832062      10.08496094      11.62070751
O        9.76841831      10.99791431      10.57063103
C        8.66700268      11.30727768       9.69549179
C        9.11939049      12.43345737       8.78251076
O       10.15026855      11.93184566       7.92449188
C       10.62346745      12.96064854       7.04932356
H        8.52269268      10.36207199      12.13485146
H        9.32150078       9.06078815      11.23411846
H       10.27896118      10.10123253      12.34778500
H        8.39133549      10.41964722       9.10081387
H        7.77922535      11.62604141      10.27135658
H        9.47823429      13.29052067       9.37870693
H        8.25119781      12.76981640       8.18167019
H       11.36789703      12.51533222       6.37061214
H        9.80118561      13.39310169       6.45604134
H       11.09293270      13.77434635       7.62436819
C        5.20995426      17.32933807      32.63923264
O        6.05377436      17.56792259      33.77515411
C        5.57709169      18.63018608      34.64855194
C        6.40241289      18.59804153      35.93495178
O        7.61987257      19.34013557      35.72127533
C        8.15756321      19.87665558      36.94032669
H        4.18279505      17.07824326      32.98155975
H        5.16967154      18.21320343      31.98121071
H        5.57956219      16.47352219      32.05828857
H        5.68515015      19.60199547      34.14374924
H        4.50910997      18.46690750      34.88336563
H        6.65230465      17.56396675      36.20673370
H        5.84579563      19.06025124      36.77092743
H        9.00805187      20.52101135      36.68545532
H        7.39157438      20.45840836      37.48027039
H        8.48745632      19.07034111      37.61197281
C       22.86928368      14.79219055      27.76814079
O       21.68656921      15.50779057      28.05941391
C       21.91611099      16.90555000      27.75403976
C       20.63289642      17.66983795      28.04567337
O       20.29819489      17.48833275      29.41681099
C       19.18616867      18.28988838      29.78777695
H       23.09556961      14.84961128      26.68391037
H       23.73643494      15.19561195      28.32799911
H       22.72066498      13.73696136      28.03916550
H       22.77412415      17.28822327      28.34599495
H       22.16890335      17.00355721      26.66925621
H       19.79983711      17.32832909      27.39361000
H       20.77002525      18.73985291      27.80741310
H       18.98688698      18.15797043      30.86042976
H       19.34310722      19.35659027      29.55806160
H       18.27432823      17.99288750      29.23660660
C       20.61405563      36.03326416      15.39989090
O       19.45869255      36.31683731      16.20808601
C       19.37025833      35.48633575      17.38042259
C       17.93262100      35.58934784      17.87516022
O       17.12182617      35.06430817      16.81799698
C       15.72928905      35.00755310      17.10380363
H       21.53996849      36.14863968      15.98114872
H       20.56002617      35.01863098      14.97515583
H       20.59244728      36.75788498      14.57459927
H       19.61160469      34.44072342      17.11786270
H       20.04796982      35.84111404      18.17617226
H       17.64128876      36.64184570      18.07135010
H       17.79716492      35.02510071      18.81525803
H       15.18977547      34.84552383      16.15972710
H       15.49138069      34.17755127      17.79138947
H       15.36225128      35.94338226      17.55859947
C       12.13458824      16.88866425      19.54552650
O       12.31583595      18.17488289      20.12327194
C       13.35933971      18.95156288      19.49851036
C       13.66985130      20.13550186      20.41017723
O       14.39228916      19.68435669      21.55193520
C       15.06529903      20.75720024      22.21047592
H       11.89674950      16.96458244      18.47118568
H       13.01020432      16.23311806      19.68279648
H       11.26715374      16.44573212      20.05067444
H       14.25622177      18.32738113      19.35500526
H       13.02812672      19.29659843      18.49628258
H       12.75783825      20.67913055      20.72007942
H       14.30811024      20.81000519      19.81391907
H       15.70848942      20.31798363      22.98696518
H       15.66264248      21.33590698      21.48388481
H       14.35514927      21.44446373      22.70599747
C        7.36039114       6.47507429      13.30582237
O        8.68119144       6.04576206      13.56878090
C        9.15783978       6.56315136      14.81401539
C       10.54743481       5.97168875      15.03848076
O       11.42466068       6.61310530      14.11149311
C       12.60715866       5.86795473      13.86364651
H        6.64852905       6.00357103      14.00461102
H        7.25539637       7.56588459      13.39600849
H        7.07913399       6.18387318      12.28913307
H        9.21794319       7.66565800      14.77388096
H        8.48401546       6.30686760      15.64946079
H       10.53744698       4.88422918      14.85661411
H       10.85921383       6.16223097      16.07834435
H       13.21231842       6.44214058      13.15125179
H       13.18439770       5.71800804      14.78971958
H       12.38175869       4.88617754      13.41735077
C       26.09667587       9.48392391      30.32690811
O       25.57358170       9.14354706      29.04569626
C       25.48196983      10.29483700      28.18346024
C       24.82904816       9.84372807      26.87829590
O       23.41936302       9.77979565      27.14715576
C       22.68612099       8.90727520      26.28293800
H       27.02889442      10.06409454      30.25454712
H       25.36529350      10.05610657      30.92334557
H       26.29438400       8.54544163      30.86236382
H       24.85711479      11.06411743      28.67129135
H       26.48811913      10.70186043      27.98962021
H       25.21786118       8.86354828      26.55868912
H       25.04800606      10.58090687      26.08344650
H       21.62664032       9.20096874      26.34929085
H       22.99867058       8.95899677      25.22772408
H       22.74061966       7.86112118      26.61773109
C       31.74611473      14.26843643      25.69167709
O       30.61349869      14.76140404      24.96865082
C       29.45757866      13.93170071      25.15432739
C       28.41859055      14.31965637      24.11487389
O       29.02270508      14.44017792      22.81802559
C       28.04131508      14.39628983      21.79590988
H       31.57892799      14.32425690      26.77803802
H       31.92615128      13.21163940      25.42855453
H       32.61688614      14.87863731      25.40820885
H       29.73975945      12.87119961      25.02847862
H       29.06512642      14.04811287      26.17987442
H       27.90016365      15.26167679      24.36749840
H       27.62013435      13.55471802      24.08286667
H       28.53268051      14.54211426      20.81889343
H       27.52105713      13.41868687      21.77840424
H       27.26675415      15.17059803      21.92165375
C       22.19369507       5.88912153      15.03088188
O       23.07481766       4.77932835      14.80038357
C       22.99154854       3.80541325      15.84634686
C       24.09556007       2.78653383      15.56218147
O       25.35370255       3.44427013      15.76222324
C       26.45452499       2.57112122      15.50911140
H       21.13788605       5.57230902      14.96376419
H       22.32864571       6.34023142      16.02807808
H       22.39574051       6.63622856      14.25128841
H       23.11178970       4.29839087      16.83508301
H       22.00213051       3.31018615      15.84690762
H       24.02483559       2.41139984      14.52300453
H       23.97967148       1.93157017      16.25134468
H       27.37913132       3.10078907      15.77006340
H       26.35558510       1.64672518      16.10361481
H       26.50957680       2.29732442      14.44144917
C       35.36748886       8.30159473       9.60430527
O       34.12589264       8.78638935       9.11955833
C       33.80515289      10.09411144       9.60568047
C       32.39837265      10.40594864       9.12258625
O       31.53517342       9.45820713       9.74472904
C       30.18431473       9.87794399       9.68859482
H       36.21923447       8.76799488       9.07653713
H       35.48604965       8.49294281      10.68680763
H       35.38010788       7.21379137       9.43165207
H       33.83422089      10.12433052      10.70805264
H       34.51350403      10.83444118       9.19727993
H       32.31003189      10.33556557       8.01947117
H       32.12591934      11.43113518       9.43598270
H       29.57367706       9.14726543      10.23422050
H       30.01849365      10.86007786      10.16543388
H       29.81197739       9.91382885       8.64967823
C       16.76106262       9.60392666      13.04986382
O       15.67054462       9.87523174      12.16941643
C       16.01515388       9.47133064      10.83121586
C       14.83173466       9.71143055       9.90683365
O       14.74004745      11.13133240       9.69447136
C       13.76655293      11.39447594       8.67497540
H       17.22749519       8.63540173      12.80983257
H       17.53993225      10.38419724      12.99316883
H       16.38476181       9.54667473      14.08007336
H       16.89661980      10.03003407      10.47397327
H       16.26006889       8.39600658      10.80307293
H       13.88879776       9.32600403      10.33156872
H       15.00790787       9.18322659       8.94696903
H       13.56695366      12.46717548       8.66897106
H       14.12089157      11.07236481       7.68243551
H       12.81642056      10.87935162       8.87143421
C       31.70056725      13.59677315      22.07881546
O       31.22159004      12.38590527      22.66527748
C       30.46866226      11.59972763      21.74745941
C       29.52975464      10.69097042      22.54003906
O       28.26042938      11.35704899      22.65685844
C       27.23167229      10.51397800      23.14338112
H       32.63204193      13.42482185      21.51908493
H       30.96115303      14.02394485      21.38476753
H       31.86014748      14.31950283      22.89041519
H       29.85717392      12.23256779      21.07912064
H       31.12062454      10.97584820      21.11322594
H       29.94178772      10.47628212      23.54244995
H       29.39590073       9.73969555      21.99706268
H       26.27000618      11.00023746      22.94825935
H       27.23538208       9.54456329      22.61656570
H       27.31662178      10.31784630      24.22108459
C       23.32824516      31.27864456       5.30177498
O       23.73779678      30.00532150       5.77095509
C       22.69082451      29.36551285       6.53432035
C       23.20020103      27.98124313       6.92441511
O       23.96176338      28.09842873       8.13821125
C       24.13787842      26.81749725       8.74858570
H       22.53799820      31.07957077       4.52812862
H       22.95262909      31.92851639       6.13298321
H       24.18666458      31.79571915       4.84172630
H       22.43805122      29.96583748       7.43240356
H       21.77833557      29.26610374       5.91345167
H       23.80171204      27.49539566       6.13536739
H       22.31018639      27.35538292       7.09278965
H       24.74879837      26.92753029       9.65637493
H       23.16374397      26.37384605       9.02074909
H       24.64206886      26.10502625       8.07436180
C       32.79991531      24.49978828       6.75115299
O       33.16836929      23.78329277       7.93563223
C       32.32063675      24.13514709       9.05090904
C       32.96714020      23.57006645      10.30482960
O       34.02203369      24.47005653      10.70156765
C       34.65621185      24.13312531      11.92636585
H       31.82503128      24.14236641       6.37373495
H       32.71672058      25.56859970       6.96159840
H       33.55406952      24.31833076       5.97563601
H       32.22077942      25.23229980       9.13517761
H       31.31561661      23.70086861       8.90557003
H       33.36721039      22.56235313      10.10549831
H       32.22382355      23.50213432      11.12231350
H       35.11059570      25.03862000      12.35603428
H       33.93146896      23.73305702      12.65641403
H       35.44392395      23.36740112      11.78119850
C       14.65998077      28.39310265      32.43643570
O       14.13996696      27.70806694      33.59668350
C       12.77147198      27.32909775      33.38026047
C       12.38178253      26.37536621      34.47640991
O       12.47658157      27.00787354      35.76121902
C       12.26343441      26.03866959      36.78834152
H       14.73792744      27.71798515      31.56268883
H       14.00665569      29.22839165      32.13051605
H       15.65041828      28.77493286      32.70221329
H       12.12211800      28.22225189      33.29104233
H       12.67201900      26.80594444      32.40836334
H       13.04521084      25.49439621      34.42724228
H       11.35268593      26.00491142      34.29719925
H       12.32889557      26.52174950      37.76819992
H       11.26496983      25.57609367      36.73696899
H       13.01058388      25.23208237      36.72404099
C        9.69354916      14.54127979       2.46921730
O        9.31261349      15.10753918       3.71870303
C        8.62181187      16.34778595       3.58204913
C        8.10867691      16.71471405       4.98030853
O        9.21323013      16.83231926       5.89172411
C        8.80543900      17.19893265       7.20958519
H        8.79914284      14.29195213       1.87426209
H       10.31434822      15.23496342       1.88166988
H       10.25182629      13.62181759       2.67564440
H        9.27856922      17.13945198       3.17551327
H        7.74555731      16.24095345       2.91306806
H        7.43411064      15.91875839       5.32086802
H        7.53658342      17.65911102       4.94411707
H        9.69950581      17.34362030       7.82983589
H        8.21205997      18.13276672       7.20234108
H        8.18467045      16.41342354       7.67601538
C       27.65977859      15.76277351      32.09359360
O       28.45763588      16.81827545      31.56981468
C       29.23324966      16.37175560      30.43820190
C       30.09943199      17.51389313      29.93946457
O       31.16117859      17.73349190      30.87678909
C       32.09705734      18.65664673      30.31060791
H       26.76363564      15.58415413      31.45726776
H       28.21557045      14.80949116      32.17294312
H       27.29993248      16.04415894      33.09397507
H       29.86771965      15.51975727      30.73765945
H       28.56926537      16.03211212      29.61575317
H       29.48698807      18.42338753      29.79475212
H       30.50817108      17.20327568      28.95092583
H       32.94224548      18.74810028      30.99689484
H       32.47023392      18.29758453      29.33228493
H       31.63958359      19.64464760      30.15165901
C       36.70489120       7.37772751      31.11695671
O       35.86101151       6.44505596      30.48968506
C       34.50095749       6.86926031      30.60074043
C       33.58823395       5.77511024      30.06268692
O       33.47511673       4.81202936      31.11804390
C       32.73646927       3.67162275      30.72513008
H       36.63679504       8.36500740      30.62599182
H       36.44474030       7.52768040      32.18360138
H       37.74409485       7.01496124      31.05514717
H       34.26064301       7.10911894      31.65158844
H       34.33743668       7.78786707      30.00783157
H       34.00357437       5.30493116      29.15056801
H       32.59650803       6.19383097      29.80452538
H       32.43050385       3.14624953      31.64167976
H       31.82828522       3.97396898      30.17990685
H       33.32314682       2.99308705      30.08178139
C        4.12396908      27.49030495      30.92436981
O        5.26954651      27.46697617      30.09973145
C        6.45491600      27.05143166      30.80845451
C        7.65244150      27.27349281      29.91249275
O        7.68572140      28.66982269      29.61413765
C        8.94444752      28.98117638      28.98289108
H        3.75435352      26.47075653      31.14249992
H        4.31051588      27.99649239      31.89133835
H        3.33754230      28.03800201      30.38978004
H        6.53686571      27.63085365      31.74637985
H        6.39124012      25.98029327      31.05421257
H        7.61132669      26.67406273      28.98225975
H        8.55051136      26.97498703      30.48432732
H        8.91577721      30.05356407      28.77269936
H        9.80088806      28.76713943      29.64740372
H        9.11033440      28.43603897      28.03902054
C       29.24398422      16.94440079       8.18057060
O       29.66246986      18.29236984       8.04940033
C       28.63572311      19.23093033       8.44827461
C       29.25224304      20.61690712       8.33498764
O       29.19376755      20.97544861       6.94490099
C       29.73984909      22.28809738       6.78079319
H       28.86722946      16.75444412       9.20268917
H       28.42804146      16.71751785       7.46965694
H       30.09233856      16.28364182       7.96273899
H       27.75974655      19.12195969       7.78312540
H       28.30683517      19.04423904       9.48602295
H       30.29949188      20.59499168       8.69792366
H       28.69557762      21.34698868       8.96121788
H       29.66298485      22.54818535       5.71416616
H       29.18585777      23.03137779       7.37659121
H       30.79613113      22.32991600       7.09980536
C       21.14086533      11.33558655      24.19438934
O       20.11004829      11.31649208      23.19765663
C       20.37730789      12.32831764      22.21081543
C       19.15141678      12.48375416      21.31977081
O       18.21927261      13.25655651      22.09703255
C       16.94393539      13.35383987      21.48369598
H       22.08882332      10.91108036      23.81614113
H       21.31809425      12.35965443      24.56390953
H       20.76830101      10.71883869      25.02703285
H       20.59112167      13.27313328      22.74280167
H       21.23633957      12.02631855      21.57827187
H       18.72668457      11.49758339      21.05527306
H       19.41103935      13.00390816      20.37432289
H       16.25119972      13.81247616      22.20122719
H       16.97159004      13.97715378      20.57230568
H       16.52321243      12.36363983      21.22444725
C       18.88452911      32.50554657      14.91712189
O       18.64656448      33.65397644      14.10109997
C       17.25875473      33.84483719      13.76931000
C       17.04370117      35.29218674      13.35985088
O       17.44459343      35.44867325      11.98692036
C       17.20228004      36.80356979      11.61935806
H       18.10337257      32.37140274      15.68681240
H       18.89231491      31.57663727      14.31328487
H       19.85377121      32.63257217      15.41804409
H       16.95918846      33.15861893      12.96005917
H       16.61040688      33.64794540      14.63980770
H       17.61964607      35.96197891      14.02666950
H       15.96674252      35.53449249      13.46396160
H       17.47280121      36.92768478      10.56106758
H       16.13171196      37.04648590      11.75103188
H       17.79860878      37.48963547      12.24367905
C       21.34370232      11.45435333      29.05147362
O       19.97740555      11.19306183      29.39038277
C       19.87830734      10.77494144      30.76481438
C       18.44223022      10.36405849      30.97292137
O       18.27608109       9.17049980      30.18040848
C       17.01175690       8.57856274      30.37243462
H       21.75118828      12.27344990      29.66820717
H       21.96616364      10.55237198      29.15748787
H       21.35359192      11.73498344      27.98600769
H       20.56665039       9.93223190      30.92911720
H       20.13365936      11.60609627      31.44606400
H       17.73983955      11.15321636      30.64999580
H       18.23083115      10.16916084      32.03743362
H       16.99079323       7.63034344      29.81938362
H       16.78239250       8.36280823      31.43058014
H       16.18714714       9.20886040      29.98963928
C       36.69202423      16.50212288      30.56590652
O       37.03686523      16.41870117      31.96129608
C       35.99403381      15.76871300      32.72486877
C       36.37511444      15.85643578      34.20948410
O       35.65021133      16.96887398      34.76259995
C       35.87135696      17.22607803      36.12979507
H       36.56892395      15.49705029      30.13339996
H       35.75059891      17.05564880      30.42873764
H       37.52049637      17.01894569      30.05271721
H       35.02222061      16.26893044      32.55443573
H       35.89127350      14.72383499      32.38187408
H       37.45960236      16.00708961      34.34382629
H       36.06752014      14.92792320      34.71564102
H       35.41490173      18.19898796      36.36331940
H       35.37752151      16.47830391      36.77367783
H       36.94114304      17.26535225      36.39434814
C       37.26566696      10.87795353       2.23757839
O       35.88729477      10.66699314       1.97565663
C       35.27385330       9.89594555       3.02244592
C       33.82970047       9.70961666       2.59486508
O       33.77338028       8.58486462       1.69220579
C       32.45066452       8.41804695       1.16070390
H       37.42522049      11.27246475       3.25543284
H       37.86303711       9.95752430       2.12043047
H       37.62543869      11.62642193       1.51777804
H       35.79914856       8.92418289       3.13615346
H       35.32654190      10.42139149       3.99081588
H       33.48893356      10.60928535       2.05789375
H       33.17073441       9.55590630       3.45987344
H       32.44049454       7.56082916       0.47876254
H       31.73448944       8.24799728       1.97906709
H       32.14599609       9.32462978       0.61863148
C        5.08741379      33.27662659      23.15411186
O        4.72466421      31.92391968      23.40701103
C        3.32523918      31.78232956      23.65623283
C        3.15260983      30.47466087      24.40080261
O        3.56637907      30.66941071      25.76435471
C        3.54372644      29.45546532      26.49725151
H        4.57933283      33.64466858      22.24462891
H        4.82653236      33.91826248      24.01025009
H        6.17552328      33.28778839      23.01086044
H        2.93826342      32.64357376      24.23264503
H        2.78344083      31.72871590      22.69193459
H        3.74742413      29.68332100      23.91893768
H        2.09465003      30.16792870      24.35848236
H        3.77936721      29.67892838      27.54363823
H        2.53871536      28.99834442      26.44435692
H        4.28285742      28.72743225      26.11907005
C       32.31920624       2.39216161      24.35080528
O       33.32444000       3.37919569      24.41630745
C       34.59696198       2.94705534      24.90386772
C       35.53268433       4.14689398      24.79263496
O       35.60526276       4.79178095      26.06261253
C       36.29397202       6.02429438      25.97126961
H       32.50757217       1.67481637      23.53751945
H       32.22802353       1.84921300      25.30939102
H       31.37729836       2.91707516      24.15522575
H       34.52054214       2.63981700      25.96036148
H       34.94874191       2.09821653      24.29381371
H       35.11735916       4.82950115      24.04000854
H       36.53282928       3.82733035      24.45133781
H       36.39324951       6.41108751      26.99444199
H       37.30349350       5.88593102      25.54010201
H       35.73799133       6.75601625      25.36275482
C       16.93293762       4.93414497      12.71656132
O       18.30927467       4.75062275      12.39956665
C       18.54973984       3.77670431      11.37174034
C       20.00644302       3.34553051      11.54203129
O       20.03659821       2.42220640      12.63940811
C       21.39822006       2.08909202      12.95882988
H       16.35799026       5.23439169      11.82474518
H       16.50210190       4.01601362      13.14420414
H       16.86015511       5.73214912      13.46068096
H       17.88437653       2.90759754      11.47936344
H       18.39214706       4.22823381      10.37552738
H       20.62695694       4.22840023      11.76036167
H       20.37879753       2.86158943      10.62090206
H       21.36507797       1.30624235      13.72580147
H       21.92968178       1.70349109      12.07244682
H       21.92901993       2.97507215      13.34324169
C       25.69408035      34.08346939       6.67077160
O       25.70958328      32.67130280       6.83558512
C       26.42546082      32.31346512       8.03978348
C       26.41807556      30.79564667       8.11533833
O       27.54868889      30.33284378       7.36561537
C       27.63571930      28.91571045       7.36493397
H       25.21439171      34.57889557       7.53660107
H       26.71705055      34.48212051       6.53640604
H       25.09831047      34.31876373       5.77715826
H       27.46649933      32.68330383       7.98245382
H       25.92289734      32.77217102       8.91727066
H       25.48294258      30.37388802       7.70470285
H       26.50666809      30.49164772       9.17384529
H       28.64422607      28.61867142       7.05843210
H       27.44908142      28.51829529       8.37266350
H       26.89028358      28.47060204       6.68036747
C        7.18408155      30.94013596      14.70036411
O        5.89600229      30.39333916      15.02309227
C        6.08035803      29.12821198      15.70275688
C        4.70918846      28.67605591      16.16016769
O        4.13181400      27.88788223      15.08690453
C        2.81955647      27.44569016      15.36740685
H        7.76914787      31.15077972      15.60674381
H        7.76611805      30.25079727      14.06366062
H        6.98744631      31.86046410      14.13248348
H        6.53179741      28.39453125      15.00491333
H        6.75004721      29.24788857      16.56801414
H        4.03933048      29.53106880      16.37560272
H        4.75672197      28.08476257      17.08913612
H        2.53523827      26.72521210      14.59154797
H        2.75953555      26.95699692      16.35204697
H        2.09160376      28.27330971      15.35215950
C        1.45873380      12.20453072       5.97318316
O        1.02232933      12.36685848       7.31036091
C        1.21903968      13.68447685       7.81481028
C        1.19879878      13.64637184       9.33911133
O        2.46857905      13.17827034       9.81706524
C        2.42272902      12.98945141      11.23496437
H        0.89961225      12.86914062       5.29523897
H        2.53371167      12.39437771       5.87871599
H        1.26275039      11.16277695       5.68868208
H        2.18396902      14.08540535       7.47103930
H        0.40038905      14.34404182       7.47013474
H        0.39080310      12.97323036       9.66431332
H        0.99395788      14.64509964       9.76061821
H        3.43913794      12.86859989      11.61812401
H        1.96950662      13.85593700      11.74378109
H        1.82600701      12.10230827      11.49511909
C        6.98503876      27.88718414       8.20768261
O        7.55573416      29.15145493       7.91195440
C        8.84336281      29.32293129       8.51262569
C        9.37755775      30.65811348       8.01358604
O        8.29029751      31.58966637       8.00073147
C        8.76088047      32.86001587       7.58814335
H        7.66499949      27.04908180       7.97797823
H        6.63239670      27.82602882       9.24934673
H        6.10756111      27.78314972       7.54815102
H        8.76071835      29.30941391       9.61390591
H        9.51782417      28.50236511       8.21047783
H        9.77080154      30.53448868       6.98315573
H       10.19110966      31.01097298       8.66957092
H        7.88091993      33.51824951       7.55440187
H        9.50239372      33.26196671       8.29607391
H        9.22267818      32.79599762       6.58480930
C       11.85918617      19.26143265      34.45688248
O       12.07189369      20.50648689      33.78664398
C       12.03799534      20.33314896      32.35503006
C       11.94174480      21.72405624      31.75811005
O       13.07996178      22.44778824      32.19631958
C       12.84235096      23.82555389      31.93743324
H       10.79770947      18.95306778      34.34707642
H       12.50874519      18.45082092      34.07972336
H       12.06488323      19.41041183      35.52783203
H       12.93995762      19.79488564      32.00316620
H       11.15429878      19.75343323      32.03021622
H       11.00007153      22.21154022      32.09026718
H       11.87420464      21.66119385      30.64825058
H       13.75687790      24.40517616      32.13242340
H       12.56977654      23.96438980      30.87241745
H       11.99400902      24.20477486      32.53245163
C       10.59908390      19.83610916       5.65587997
O        9.30492210      20.37800407       5.44551420
C        9.12728214      20.69206619       4.06177759
C        7.80433130      21.42184067       3.90992284
O        7.96631432      22.62399483       4.67380762
C        6.79982233      23.43860626       4.73885250
H       10.75351620      18.93711472       5.02985525
H       11.38241100      20.57989883       5.41037273
H       10.68852997      19.52633095       6.70757103
H        9.95152187      21.34383392       3.72009230
H        9.14130402      19.77791214       3.43436646
H        6.94545603      20.83423615       4.27760601
H        7.61785603      21.64300728       2.83980513
H        7.02919340      24.32822227       5.33467484
H        6.47324610      23.75630188       3.73329139
H        5.95790482      22.92352295       5.22748232
C       31.24834442      33.96062851      17.71931839
O       30.76789474      32.87865829      18.49776649
C       30.22125816      31.86924934      17.65335846
C       29.65060806      30.80116844      18.58751297
O       28.32363701      31.20045090      18.98302841
C       27.69581985      30.16868973      19.74327469
H       31.96768570      33.62995911      16.95589638
H       30.42149353      34.47361755      17.20371437
H       31.74324226      34.65630341      18.40934944
H       29.42167091      32.26140594      16.99797630
H       30.99336624      31.41136932      17.00515938
H       30.28665924      30.72118759      19.48979759
H       29.60096359      29.83392334      18.05322266
H       26.65395737      30.46269035      19.94228745
H       27.64855766      29.22360611      19.17285156
H       28.20641327      29.99530602      20.70514870
C       18.20645905      32.33102036       5.53973198
O       18.43167114      32.22654724       6.94635010
C       17.23470306      31.81434250       7.67230272
C       17.64950562      31.16540718       8.97035789
O       18.12569427      32.16030884       9.88748646
C       18.38897705      31.56168365      11.16586399
H       17.57361031      31.51671028       5.15905905
H       17.75460052      33.29573059       5.25644493
H       19.18557167      32.22820282       5.03125000
H       16.55177307      32.65985489       7.84291172
H       16.68426132      31.07970047       7.06223631
H       18.39931870      30.37837410       8.79914856
H       16.74242783      30.67790031       9.37231636
H       18.81562233      32.32739258      11.82778263
H       17.46091461      31.17132568      11.61877155
H       19.08657074      30.71471596      11.07170963
C        3.85558629      22.90183640      31.14786720
O        5.18714094      22.45582008      30.95712662
C        5.35163307      21.03925514      30.99756813
C        6.79108906      20.77583122      31.45491028
O        6.91252756      21.24956322      32.79755402
C        8.24581814      21.04510498      33.26132202
H        3.18985963      22.57111168      30.33230400
H        3.43056417      22.55437660      32.10631180
H        3.87979221      23.99946976      31.16579628
H        4.64079523      20.58545876      31.70841408
H        5.17377853      20.58683395      30.00065422
H        7.50896215      21.30385399      30.80192566
H        6.99737883      19.69292068      31.37782288
H        8.34966183      21.44430161      34.27902985
H        8.47718525      19.96672058      33.32830811
H        8.98293400      21.51895142      32.59062195
C       13.67151451      31.37538910       8.02322292
O       14.02450848      32.73534012       7.74716568
C       13.19071865      33.65993118       8.45349121
C       13.68785000      35.07071304       8.20383739
O       13.35231781      35.39896393       6.84621191
C       13.59307480      36.76140594       6.56389284
H       13.87175751      31.12424850       9.07632828
H       12.59234810      31.21900749       7.84590292
H       14.22328472      30.70403099       7.35165453
H       12.14291573      33.55594635       8.11161900
H       13.21692562      33.48270035       9.54280090
H       14.78155231      35.12172699       8.35258484
H       13.20551014      35.76832962       8.91384792
H       13.37711334      36.93012238       5.49992228
H       12.93198395      37.41656113       7.16364956
H       14.64616203      37.02474213       6.76567984
C       25.80598640      14.96592331      26.05422020
O       25.19863129      16.24777412      25.90167999
C       25.88834763      16.97410774      24.86074829
C       25.27550507      18.37762833      24.86742973
O       25.62256241      18.92872047      26.12785912
C       25.20726776      20.28481674      26.28453064
H       25.70051003      14.36049843      25.12868118
H       26.87528610      15.06043339      26.31888580
H       25.29027939      14.45934772      26.87979126
H       26.96937943      17.04093933      25.11437988
H       25.76317406      16.45697594      23.88057518
H       24.17588806      18.31968880      24.73551941
H       25.68874359      18.96367836      24.02221870
H       25.63839149      20.67900085      27.21633148
H       25.53728867      20.88358116      25.41889191
H       24.10472298      20.37663269      26.37101173
C        8.46682453      23.20354652      28.98168755
O        9.28785419      22.04845619      29.12728882
C        8.93268490      21.01939774      28.20260811
C        9.90454674      19.86255264      28.39850616
O        9.78869629      19.40637589      29.76157761
C       10.48112965      18.14691925      29.90171242
H        8.43180370      23.51837158      27.92287254
H        7.43297148      23.02399063      29.32226562
H        8.89962101      24.01168633      29.58703995
H        7.89244604      20.69496155      28.38481712
H        8.99999905      21.37971878      27.15842628
H       10.93837547      20.19056129      28.19509697
H        9.65725613      19.05556679      27.68567467
H       10.54950619      17.92106628      30.97974777
H        9.93555450      17.32473183      29.40559578
H       11.50343227      18.17125320      29.48057747
C       26.88247108      19.01370049      17.75248337
O       28.25709724      18.63854408      17.61681557
C       28.45173073      17.25038719      17.37052727
C       29.95485306      17.01131058      17.30072212
O       30.46612930      16.95712471      18.64992523
C       31.88910103      16.84469795      18.62247276
H       26.26792336      18.63188171      16.91215897
H       26.41013527      18.66785431      18.68549919
H       26.83291817      20.10568619      17.69161606
H       27.98736000      16.63742638      18.16210175
H       27.98431587      16.95240593      16.41212273
H       30.43262672      17.83503342      16.74118042
H       30.14715195      16.05475426      16.78088951
H       32.25885391      16.82939148      19.65666580
H       32.20725632      15.92008972      18.11469078
H       32.33875656      17.69696617      18.07897568
C       19.50329971      32.64884186      26.83712006
O       19.64543343      31.98968506      25.57222748
C       19.95991707      30.58354950      25.72517776
C       20.14131355      29.98962021      24.33679962
O       21.16970444      30.74586678      23.66878128
C       21.61210823      30.06915283      22.49457741
H       18.71480179      32.18359756      27.45608139
H       20.44680977      32.62721634      27.40942192
H       19.21480370      33.69160843      26.64381981
H       20.89007950      30.49938965      26.31342888
H       19.14210510      30.08361435      26.27037430
H       19.19775009      30.00891304      23.74784470
H       20.42682838      28.92162132      24.43116570
H       22.46712494      30.61188698      22.06047249
H       21.90230179      29.02972984      22.73107147
H       20.79472923      30.01748657      21.74235916
C       22.72759438      15.18537140      24.01673317
O       23.44716263      15.35221577      22.79574966
C       23.09860611      14.34466553      21.82282639
C       23.57389641      14.77690506      20.45154190
O       24.99870300      14.95489502      20.51688766
C       25.43819618      15.40765858      19.22802925
H       21.65016174      15.43436050      23.89396286
H       22.78132820      14.13437557      24.37401199
H       23.16232681      15.84075737      24.79356575
H       23.52298737      13.36603832      22.11214256
H       21.99886322      14.26097870      21.76469612
H       23.06147003      15.72361565      20.18173599
H       23.29858208      14.01678181      19.68558693
H       26.53270149      15.50339413      19.25607491
H       25.17805862      14.68137550      18.43654442
H       24.98272705      16.37916756      18.95665169
C       26.43164444      37.16307831      12.47313213
O       26.84690094      37.12648773      11.11559391
C       27.22208214      35.82553101      10.64286327
C       27.69113350      35.97333908       9.20791054
O       28.81800079      36.84626389       9.23526382
C       29.30276680      37.03241348       7.90241671
H       25.54413986      36.52975082      12.64509201
H       27.23515129      36.81944275      13.15229034
H       26.15695763      38.19270325      12.72905827
H       28.03147888      35.41210556      11.26683044
H       26.36269569      35.13587570      10.66939354
H       26.88134193      36.40629578       8.57661724
H       27.96283722      34.99521637       8.76596355
H       30.12420845      37.75216293       7.95473528
H       29.65476799      36.09362030       7.44382286
H       28.50737762      37.45148849       7.25949240
C       16.01111603      19.69114304      31.22342491
O       16.36516762      21.06540108      31.12251854
C       17.44125557      21.40328217      32.02806854
C       17.54891586      22.91130066      31.96481133
O       16.56528091      23.41658211      32.87560654
C       16.38412285      24.82701874      32.83595657
H       16.89116478      19.03690910      31.15612221
H       15.47224045      19.49396515      32.16519547
H       15.34708977      19.44913101      30.38111115
H       17.21439743      21.08568954      33.06382370
H       18.36162186      20.88442993      31.70602036
H       17.33483505      23.25736809      30.93319321
H       18.56338692      23.24610329      32.24664307
H       15.68139076      25.09623718      33.63667679
H       17.33544731      25.36176491      33.01151657
H       15.94175529      25.15250206      31.86986351
C       15.23614311      34.13980484      20.69608498
O       16.53073502      33.65224838      21.01229286
C       16.88447571      33.90609360      22.38065338
C       18.20007706      33.18548203      22.65178299
O       19.19453430      33.83430099      21.82915115
C       20.49791336      33.32704544      22.13012886
H       14.47947311      33.82051086      21.43076706
H       15.23487568      35.24172974      20.64196205
H       14.90194893      33.71829605      19.73690987
H       16.98594475      34.99846649      22.55465317
H       16.08044815      33.54392624      23.04926491
H       18.10988998      32.11788559      22.36842155
H       18.46693611      33.22261429      23.72834778
H       21.24098206      33.94213486      21.59833336
H       20.68773460      33.30554581      23.22177315
H       20.58706474      32.27745438      21.79145050
C       19.40764618      23.33187485       7.27261782
O       18.27172852      22.58324432       7.78601027
P       18.43527603      22.07360077       9.31588745
O       19.52327347      22.74500275      10.10076046
O       16.93136215      22.14760399       9.94515896
C       16.52805519      23.42945099      10.46238518
O       18.57625961      20.46537399       9.15228748
C       18.78811836      19.77240562      10.41423130
H       20.09561157      23.59673882       8.08955956
H       19.92009735      22.70908356       6.52947855
H       19.02477074      24.24050331       6.79236221
H       15.93288136      23.96959877       9.70688820
H       15.89237976      23.26335335      11.34467030
H       17.39576912      24.04243279      10.77408600
H       18.94580841      18.71469879      10.15307999
H       17.90118790      19.84917068      11.06634426
H       19.65228653      20.19060707      10.94881344
C       24.05195045       3.09119487      28.48573494
O       23.37809944       3.51332521      29.67581558
P       22.25120735       4.63515615      29.43202782
O       21.43830299       4.35122728      28.20756912
O       21.46442032       4.66204214      30.84350967
C       20.67494392       3.51587057      31.19636536
O       23.00576019       6.07630348      29.46482277
C       22.03243828       7.15711355      29.35714149
H       23.37111282       3.18454480      27.62500381
H       24.95270157       3.70303750      28.35591888
H       24.32512093       2.03726530      28.60950851
H       20.94392204       2.64175963      30.59730530
H       20.84598732       3.30288219      32.25698471
H       19.61069298       3.73522687      31.02654266
H       22.60046005       8.09635544      29.37972450
H       21.32158089       7.11930656      30.19623947
H       21.46509361       7.07460213      28.41512489
C       31.82073212       4.89740992      26.96474075
O       32.37899399       6.09025383      26.40142441
P       31.40431976       7.38144827      26.50148010
O       30.73434639       7.53384924      27.83418846
O       32.51124954       8.51298237      26.11575699
C       33.33823395       8.80024433      27.27009583
O       30.40105629       7.26951694      25.23877335
C       29.02126122       7.54788446      25.55730057
H       31.26643944       5.13158798      27.88292122
H       31.14026642       4.41869450      26.24340820
H       32.64879227       4.21242762      27.18227196
H       33.91394806       7.90604496      27.54306030
H       33.99130630       9.63191319      26.99513245
H       32.70871735       9.06724453      28.13505363
H       28.39441681       6.79241848      25.07386971
H       28.75120163       8.54406643      25.19140053
H       28.84490776       7.50817108      26.64515495
C       19.34658623      17.36846733       2.32215643
O       19.74347496      18.48219872       3.16777134
P       21.24775124      18.97353172       2.88812804
O       21.77376175      18.79126358       1.50213945
O       21.24952126      20.51655579       3.41713166
C       20.77092361      21.46549416       2.41720700
O       22.10731697      18.18661499       4.00974941
C       23.51810455      18.49746323       3.99828839
H       19.33121872      17.64420891       1.25241649
H       20.00287437      16.50576210       2.49413872
H       18.32717896      17.10573006       2.63879275
H       19.76469803      21.18173599       2.07169414
H       20.69148827      22.44893265       2.89824820
H       21.46576881      21.49948120       1.56561863
H       23.96685600      17.92977715       4.82338715
H       23.65680885      19.57608986       4.16762924
H       23.96489525      18.20652580       3.03193045
C       17.93851089       9.32884502      23.23209000
O       16.67521286       8.61331177      23.11085320
P       16.99240494       7.06718254      22.71043968
O       18.13551521       6.39970732      23.41670609
O       15.55586338       6.36330748      22.92717361
C       15.43856335       5.53934002      24.10615158
O       17.18531609       7.13725758      21.07882500
C       17.90864182       6.00661993      20.53409767
H       18.62324333       8.76635456      23.88923264
H       18.39612961       9.47002602      22.24345970
H       17.74617386      10.30248737      23.70027351
H       14.94783020       6.08885574      24.91306686
H       14.82701302       4.66918564      23.83406448
H       16.44719124       5.22565651      24.42984390
H       18.40011024       6.32797766      19.61055374
H       17.21100807       5.19037342      20.30200958
H       18.64354515       5.64572954      21.27045059
C       12.32259655      30.51430702       4.78757715
O       13.18881702      29.45929337       5.24527264
P       12.72831726      27.95499802       4.87761831
O       11.56220818      27.88528061       3.94634342
O       14.04859543      27.20322800       4.34834290
C       14.23468876      27.20477867       2.92599082
O       12.49080467      27.31781387       6.34898424
C       11.82024097      26.04221153       6.38750935
H       11.81012821      30.21113968       3.85945392
H       11.54735374      30.71609879       5.53859186
H       12.94438171      31.40410423       4.63799858
H       14.83778954      28.07308388       2.63031793
H       14.75780773      26.28438568       2.64171863
H       13.26872826      27.23645592       2.40235472
H       11.66343021      25.79892540       7.44877863
H       12.41150570      25.25205040       5.90064430
H       10.84152031      26.11469650       5.88404846
C       16.97590637      13.36267185      14.07828140
O       16.98174858      14.79212666      14.26373386
P       16.45542145      15.36150551      15.70469475
O       16.67501068      14.36411953      16.79917908
O       17.28706360      16.75310135      15.84729767
C       18.68528938      16.43139839      16.09451103
O       14.91825294      15.86327076      15.50421333
C       14.23895073      16.18925285      16.74899101
H       17.09632874      12.84291363      15.04653931
H       16.02272415      13.04701805      13.62214088
H       17.78937912      13.10717583      13.38720894
H       19.13064766      15.96972179      15.19864941
H       19.21000099      17.36855316      16.31112480
H       18.76838875      15.73260880      16.94198608
H       13.19161510      15.86353683      16.64962196
H       14.24374008      17.27215767      16.93149376
H       14.68666840      15.66101837      17.60939407
C       31.76944923      13.96068764      29.63133430
O       30.54778099      14.09492683      28.86124802
P       29.72113228      12.68961334      28.91172409
O       29.85450745      11.97540760      30.22240448
O       28.21639824      13.01343822      28.40965462
C       27.27248383      13.23394966      29.50405884
O       30.40406990      11.89722347      27.67651367
C       30.26111794      10.45194435      27.71276855
H       31.53871155      13.49256516      30.60473442
H       32.48165512      13.31889629      29.09917450
H       32.17998505      14.96858215      29.75922585
H       26.98682976      14.29820728      29.52823257
H       26.37068367      12.63748741      29.30663300
H       27.69251251      12.91045094      30.47347832
H       30.81309891      10.03446198      26.86112976
H       29.20930481      10.14667225      27.60412216
H       30.63180351      10.04467583      28.66501427
C       11.70271111      25.94956589      19.16583633
O       12.68038368      26.79226303      19.82807922
P       13.53340626      26.06207848      21.00790215
O       13.38559723      24.57223701      20.93432999
O       15.09022808      26.54588127      20.85639763
C       15.92339897      25.59483719      20.15189934
O       13.10775375      26.79907417      22.37476921
C       13.78788662      26.14883995      23.47235680
H       12.12192440      24.98547554      18.84451294
H       10.85634708      25.72547150      19.83765984
H       11.35209846      26.50878334      18.28973007
H       15.59497070      25.43750191      19.10670853
H       16.94058418      26.01198387      20.14457893
H       15.91829300      24.60590172      20.64389992
H       13.31982708      26.46924210      24.41323853
H       14.85769939      26.41742325      23.48984528
H       13.69532394      25.05873680      23.35254478
C       10.92402363      32.66654205      30.14074898
O       10.97472572      32.83735275      31.57987595
P       10.88398933      31.39036942      32.27843857
O       11.67088318      30.26104164      31.68725777
O       11.24149036      31.72502327      33.82028198
C       12.37203217      31.11753273      34.43699646
O        9.28613567      31.08594131      32.24827957
C        9.05595303      29.68926048      32.53142548
H       11.57482624      31.83213425      29.83077431
H        9.90752983      32.46290970      29.77211952
H       11.28690052      33.59761429      29.68657684
H       13.18716431      31.84599876      34.54382324
H       12.04420376      30.68534660      35.39354324
H       12.74421120      30.30069160      33.80189133
H        7.97572899      29.55980873      32.68793869
H        9.62135983      29.37507439      33.41767502
H        9.38704205      29.06743050      31.68602753
C       24.02111816      26.48381996      15.35491371
O       24.77279854      25.30982590      15.72153759
P       25.91413116      25.56148148      16.84640694
O       25.56206131      26.43140030      18.01223946
O       26.47047806      24.06763268      17.14866638
C       25.87565041      23.29444885      18.21715546
O       27.16411400      26.09056282      15.92665577
C       28.35802841      26.38064194      16.69643974
H       23.79148102      27.08280373      16.24673271
H       24.57378769      27.08968353      14.62514877
H       23.08130836      26.12746239      14.91516972
H       24.83518028      23.02865982      17.97038078
H       26.43584633      22.35381889      18.30192184
H       25.88190460      23.85363007      19.15929413
H       29.12531090      26.74687386      16.00596428
H       28.69516373      25.46049690      17.19866562
H       28.13610840      27.12620354      17.47546387
C       11.99164867      18.87860107       9.56584358
O       12.18965435      17.83878136       8.58590889
P       13.76799774      17.57134056       8.24445820
O       14.72045708      17.83091545       9.37017822
O       13.78489304      16.03652954       7.70433140
C       14.19106102      15.12599850       8.75983524
O       14.03373432      18.44396210       6.89018536
C       15.41069412      18.94555664       6.85638142
H       12.56524754      18.67512321      10.48428631
H       12.32170105      19.85048485       9.16948032
H       10.91879463      18.89825821       9.80060005
H       13.29449654      14.75727940       9.28354359
H       14.72740459      14.28647232       8.29701710
H       14.84193039      15.64587688       9.47987366
H       15.39050865      19.86369896       6.25605631
H       16.07529831      18.20455170       6.39305830
H       15.76624775      19.15656281       7.87493563
C       33.44355392       9.89369774      22.86311150
O       34.14192963       9.72893238      21.59490967
P       34.11589813      10.66577053      20.28206253
O       34.16840363      12.10500431      20.60624886
O       35.39946365      10.06590652      19.52827454
C       36.75848389      10.58543777      19.93607712
O       32.79581451      10.26649380      19.49238968
C       32.16580963      11.15434170      18.52148056
H       33.13116074      10.93481350      23.02195740
H       32.53295135       9.28331280      22.83887291
H       34.10554886       9.55371475      23.66214943
H       36.99195862      10.16820145      20.92327499
H       37.47119141      10.28891182      19.16273499
H       36.71402740      11.68443012      20.00020027
H       31.17993355      10.71711063      18.32413292
H       32.73398972      11.16138268      17.58643913
H       32.03893280      12.16181278      18.93539810
C        9.49763775      33.38026810      20.46524048
O       10.02588940      34.03275299      21.64072990
P       10.34855556      35.60186386      21.43321228
O        9.79495525      36.17061234      20.17062378
O        9.82111740      36.42071152      22.73200035
C        8.46271420      36.86936188      22.74666977
O       11.94774532      35.65870667      21.65110970
C       12.54302979      36.97688293      21.60958672
H        8.63826752      33.92740631      20.04886436
H       10.26159573      33.25014496      19.68251991
H        9.16282749      32.37897110      20.77993965
H        7.79933643      36.03470993      23.01988411
H        8.39911556      37.64267349      23.52491379
H        8.16996193      37.27909088      21.76756668
H       13.57781124      36.86699295      21.96029282
H       12.00480366      37.66491699      22.27317619
H       12.51549435      37.35707855      20.58027267
C       22.90393257      10.75576401       8.39884090
O       23.32251740       9.47602749       7.84281588
P       24.83619499       9.16858006       8.33840179
O       25.15183067       9.73957348       9.68292713
O       24.99740410       7.56785536       8.22030067
C       24.63511086       6.86081362       9.43635941
O       25.77332306       9.68057632       7.10871935
C       27.10419273      10.04132652       7.56508303
H       22.87149429      10.71710300       9.49854374
H       23.59391975      11.56192875       8.10784721
H       21.89109039      10.94407272       8.01530552
H       23.53780365       6.79178190       9.53071308
H       25.07089996       5.85054827       9.37876892
H       25.03568077       7.40601301      10.30160522
H       27.38195038      10.96111965       7.03371000
H       27.80322456       9.23016930       7.33170795
H       27.10897827      10.20355511       8.65273666
C        1.19674969      32.09083939      13.27940845
O        0.87598783      33.50025177      13.10544777
P        2.07948995      34.57699966      13.33643436
O        3.21946216      34.44443130      12.39663124
O        1.23984766      35.93273926      13.26178741
C        0.89172274      36.38433456      11.93234253
O        2.44479322      34.44728470      14.88457108
C        3.77315068      34.79037476      15.34661007
H        1.58414829      31.66646385      12.34635162
H        1.93879831      32.00115585      14.07875156
H        0.25852856      31.60734749      13.58081722
H       -0.09657312      35.98569107      11.67140388
H        0.85474652      37.48074722      11.97432995
H        1.65057838      36.04730988      11.21303463
H        3.85395956      34.40335846      16.36901093
H        3.90396619      35.87837219      15.36133194
H        4.54002953      34.34406662      14.70649433
C       18.73682976      27.23360062      21.79249191
O       19.22925186      25.95460701      21.31299400
P       18.93783760      24.86795998      22.49022675
O       17.49737167      24.78361702      22.87693977
O       19.60500336      23.49282837      21.93594551
C       18.72332001      22.63451195      21.16610909
O       19.97154999      25.37584686      23.63630676
C       19.58126450      24.97603416      24.98395920
H       17.68529320      27.15062904      22.12838936
H       19.34590530      27.60146141      22.64120674
H       18.80575562      27.93000793      20.94335365
H       18.63488579      22.98168564      20.11865044
H       19.12332916      21.60919380      21.19605064
H       17.69962502      22.64131546      21.57408524
H       20.20811272      25.52938461      25.69448853
H       19.72549820      23.88921738      25.11985970
H       18.52425575      25.23041344      25.17843628
C        9.27225208       4.18536758       5.56934071
O        8.34405327       3.09691095       5.71455145
P        6.88023853       3.53264308       6.21733427
O        6.34168720       4.77699184       5.60330629
O        6.03088713       2.21097994       5.94764328
C        5.66531134       1.86354136       4.61148691
O        7.00562525       3.63511324       7.82318497
C        5.97230673       4.35658646       8.51764202
H        9.01982021       4.77026272       4.68099022
H        9.23985291       4.84624672       6.44205761
H       10.27008343       3.75160384       5.47141457
H        6.51826954       1.95228803       3.93074751
H        5.33328390       0.82047313       4.64210558
H        4.83303642       2.49046755       4.27051449
H        6.40495300       4.80810499       9.41461945
H        5.16682291       3.66802692       8.79797459
H        5.56187773       5.13941526       7.87025166
C       23.78325272      10.16422558       4.34249830
O       24.07657433      10.93652534       3.14907551
P       25.43301392      11.83344746       3.15296507
O       26.35106277      11.59775448       4.31191540
O       26.05602646      11.61313248       1.66005969
C       26.73028374      10.34155846       1.49842584
O       24.89429474      13.36286736       3.05385542
C       25.52065659      14.29063034       3.96761775
H       24.71214485       9.84106922       4.83685160
H       23.20411491      10.75896931       5.06587267
H       23.18122292       9.29750538       4.03719425
H       25.97700500       9.55353069       1.32944632
H       27.37737465      10.39831924       0.61953753
H       27.31685448      10.11690807       2.40138698
H       24.72515678      14.88007355       4.44809771
H       26.19585037      14.94750786       3.40004086
H       26.08399582      13.74006271       4.74484730
C       34.30212402      24.23850060      32.51285172
O       35.26526260      23.18971062      32.34019470
P       34.73874283      21.67216873      32.33332062
O       34.10947418      21.17785835      31.07247925
O       36.10398483      20.89509964      32.73286057
C       36.52929306      19.83702087      31.85422134
O       33.74253082      21.67053032      33.59656143
C       32.60914993      20.77735901      33.51551056
H       33.67914581      24.35272789      31.62067413
H       33.63690567      24.02210426      33.35661316
H       34.87248993      25.15373421      32.70364761
H       37.40642166      20.16776466      31.26989365
H       36.77539444      18.95993614      32.47642899
H       35.73004532      19.54276657      31.15984154
H       31.98348618      20.98744774      34.39170074
H       32.92607117      19.72755432      33.52415848
H       32.00194550      20.95999908      32.61427307
C       13.74153423      22.68934631      17.98513794
O       14.71371746      21.77098656      17.39289665
P       16.20856857      22.02877998      17.93255615
O       16.29092216      22.45735741      19.36323738
O       17.04319382      20.70045471      17.55521393
C       16.89588165      19.50944138      18.36944580
O       16.84237289      23.04708672      16.85103989
C       18.19839287      23.44142723      17.23447418
H       13.93916225      22.87234116      19.05494308
H       13.76058865      23.65620041      17.45437431
H       12.75212955      22.22908211      17.86369896
H       16.01290131      18.94092941      18.03085899
H       17.78517342      18.88338470      18.21812439
H       16.76510811      19.76487160      19.43352318
H       18.50515175      24.21157646      16.51740456
H       18.88233948      22.57884789      17.18916321
H       18.19784927      23.87157249      18.24548340
C        2.18905354      35.25896835       4.42732525
O        3.02362370      35.20213318       5.58069754
P        4.60764599      34.91798401       5.48884201
O        5.34031343      35.88418579       4.62420321
O        5.06239557      34.87438202       7.03037071
C        5.27532434      36.08579636       7.76826620
O        4.64204454      33.35914993       5.11204100
C        5.86372423      32.59898758       5.26415634
H        2.66389680      35.83224869       3.62036371
H        1.95422208      34.25147629       4.06667614
H        1.25469851      35.73709106       4.75052595
H        4.33049583      36.63441849       7.85388279
H        5.61527872      35.79433823       8.76930714
H        6.02412415      36.70015717       7.26029730
H        5.55760574      31.59790230       5.59170485
H        6.50167894      33.03576660       6.04074097
H        6.40369701      32.54065704       4.30931568
C       29.58871841      22.36062050      16.05163002
O       28.99158287      22.55993080      14.75275993
P       27.82563400      21.45658302      14.44902611
O       27.11071014      20.95302391      15.66320324
O       26.88817787      22.16946983      13.32786560
C       25.90571785      23.03481102      13.98615074
O       28.64948654      20.28772926      13.66370678
C       27.97485542      19.00577164      13.70489883
H       28.78899193      22.15575981      16.78383446
H       30.25533485      21.48950958      16.04370117
H       30.12891769      23.27686501      16.31793404
H       26.33049202      24.03409195      14.13388443
H       25.01698685      23.07227135      13.34073067
H       25.60265541      22.61950874      14.96521091
H       28.69878769      18.20457458      13.51772404
H       27.18282318      18.96786690      12.94197750
H       27.50558662      18.87371635      14.69178581
C       21.34714699      16.95999146      36.55626297
O       21.19213486      18.35616684      36.25355148
P       19.63204002      18.80451393      36.13920975
O       18.71662140      18.28810883      37.19928741
O       19.84041214      20.40676689      35.96530914
C       20.90226555      21.02146149      36.73360062
O       19.21512604      18.34840393      34.62920761
C       17.96704674      17.64966583      34.52565002
H       20.89107513      16.70928001      37.52874756
H       20.88141060      16.33907700      35.76399231
H       22.43092728      16.75605965      36.57194901
H       21.77759361      20.35360146      36.78617477
H       21.15499878      21.95280838      36.21129990
H       20.55862427      21.20647621      37.75569153
H       17.99245071      17.01747131      33.62386322
H       17.13158417      18.36344528      34.42029572
H       17.79209518      17.02792931      35.42192078
C       11.88794231      26.26320267      29.64955711
O       12.49517345      25.26753044      28.79960823
P       14.10482788      25.37297630      28.87874985
O       14.66761780      25.77129364      30.20812225
O       14.62044811      23.93744469      28.33456421
C       14.68983841      22.87746620      29.31735802
O       14.47946930      26.31105614      27.62747002
C       15.91963959      26.41435432      27.54829216
H       12.31735420      26.22295570      30.66239166
H       12.04235268      27.27420807      29.24203491
H       10.81224728      26.03560448      29.69787216
H       13.68331051      22.43675423      29.44033813
H       15.37859249      22.10663986      28.94239235
H       15.02577114      23.25713348      30.29534149
H       16.15978050      27.06617355      26.69693756
H       16.39941978      25.43450737      27.40113449
H       16.34130096      26.83255768      28.47496605
C       15.83112907      19.11385155      25.59599495
O       16.91187286      18.80988121      24.66913986
P       18.35539627      19.06951523      25.34930038
O       18.28944969      19.26856995      26.82804108
O       19.31953812      17.86390114      24.81000710
C       18.85930824      16.50816154      24.96528053
O       18.98092270      20.31655121      24.50477219
C       20.33880043      20.56861687      24.92036438
H       15.87341881      18.46283722      26.48642921
H       15.88188744      20.16274452      25.93544388
H       14.89267826      18.92497635      25.04664040
H       17.75636101      16.47066879      24.89789963
H       19.27956009      15.87928963      24.16107941
H       19.13707733      16.09723854      25.95100594
H       20.64733505      21.53983116      24.50484467
H       21.02365494      19.78842163      24.54248619
H       20.41354942      20.57215309      26.01881790
C        9.09322834       4.13244772      23.55054092
O        8.65380669       5.11045980      24.50546455
P        9.69324017       5.55983210      25.64375687
O       10.99377346       6.16934156      25.23316574
O        8.75534630       6.51060104      26.54362679
C        9.21997643       7.81464434      26.94270897
O        9.85035610       4.14603949      26.40906525
C       11.00861073       3.89314079      27.21303940
H        9.92188168       4.52198839      22.95510864
H        9.39448452       3.21830058      24.06642914
H        8.23350811       3.92301369      22.90335655
H        8.79954052       8.56619358      26.26478386
H        8.88080597       7.99793291      27.96661758
H       10.31289387       7.86536980      26.89651871
H       10.90329170       2.87161040      27.60454178
H       11.06783295       4.59071159      28.05439568
H       11.92554092       3.98257041      26.61484146
C        0.75207949      28.89773178       8.78949547
O        1.76178253      29.36849594       7.87990189
P        2.24616528      30.90845299       8.02828693
O        2.12541723      31.47883987       9.40918827
O        3.73544145      30.82746696       7.36749077
C        4.72936821      30.60076714       8.42037678
O        1.37065041      31.72553253       6.92746353
C        0.90335858      33.01264572       7.39643097
H        1.03959942      29.08872604       9.83291626
H       -0.22413726      29.36249352       8.60013771
H        0.65768445      27.81355286       8.63069916
H        4.60076046      29.60203934       8.86872482
H        5.72228813      30.69375229       7.97096062
H        4.59823942      31.33955956       9.21973801
H       -0.00334730      33.25245667       6.82546568
H        1.67250621      33.77302933       7.22144699
H        0.70480186      32.98009872       8.47754002
C       22.92986488      19.83963203      17.30861473
O       22.21235847      20.37338066      18.45185852
P       23.06855774      20.18465424      19.82683372
O       24.55167007      20.29411316      19.65011787
O       22.44474030      21.22979164      20.91077995
C       23.28667259      22.37404823      21.15630531
O       22.59240532      18.73806381      20.37921524
C       23.26146507      18.45214844      21.63118553
H       23.89141464      20.35047531      17.16853905
H       23.10651016      18.76000023      17.41727829
H       22.27720833      19.97892570      16.43548012
H       23.46116066      22.92011070      20.21604538
H       22.75941658      23.02649689      21.86904335
H       24.24965286      22.07047081      21.59039307
H       22.64889526      17.70963287      22.16395378
H       23.33971786      19.35138893      22.26215363
H       24.26960754      18.04573441      21.44725037
C        7.35500717      11.61882496       5.63782644
O        7.32082367      10.45325565       6.49365902
P        5.96173143       9.58966446       6.30632782
O        5.28237295       9.78693867       4.98050690
O        6.44329453       8.09632492       6.65358257
C        7.19773054       7.50773335       5.56794643
O        5.06996775       9.94814777       7.60923862
C        3.81744242       9.23551750       7.61442423
H        6.83753300      11.40481472       4.69038200
H        6.84587812      12.44961834       6.14257336
H        8.41044998      11.86507320       5.46905470
H        7.90612030       8.23925781       5.16688681
H        7.74241924       6.66800833       5.99903202
H        6.53176737       7.11720514       4.78677750
H        3.47096968       9.18079662       8.65418625
H        3.93815684       8.21879768       7.21745253
H        3.07632494       9.77467823       7.01106453
C       13.81730366       3.68554902       3.38876009
O       14.98529148       4.39634037       2.97466564
P       15.78652954       5.22247648       4.09022474
O       15.59837341       4.72738743       5.48226452
O       17.29594421       5.16131258       3.54678607
C       18.23311615       4.36892319       4.28522348
O       15.32010174       6.74094009       3.86606264
C       15.31395531       7.59621143       5.04045725
H       13.83577728       3.56917667       4.47831821
H       12.91526890       4.24463987       3.11143231
H       13.81727982       2.70564365       2.89599752
H       18.46407509       3.45902276       3.71749353
H       19.13516617       4.96152163       4.46272945
H       17.79655075       4.09402514       5.25341892
H       14.51245022       8.32706261       4.89250803
H       16.27544212       8.10395336       5.15549612
H       15.10572720       7.00757027       5.94478083
C       21.91743469      13.60468388       6.35492086
O       22.60222626      14.86157608       6.21490288
P       22.78827477      15.73004341       7.58573627
O       22.77631760      14.90632534       8.83761120
O       24.24066734      16.41622925       7.24391317
C       25.29189110      15.50225449       7.60726452
O       21.80275726      17.00963020       7.46606302
C       21.69136238      17.68997574       8.73614979
H       21.94874191      13.27319908       7.40273333
H       20.85620308      13.69747829       6.06971502
H       22.37841034      12.86707783       5.68397522
H       25.29994392      14.63715458       6.92713976
H       26.24018097      16.04253960       7.51652050
H       25.12949753      15.12097359       8.62856960
H       20.68369484      18.13162613       8.78701019
H       22.45033646      18.48477554       8.81846809
H       21.78487396      16.95951271       9.56083393
C       29.93896866      10.78424263      36.48284149
O       28.54941940      10.38409233      36.49671555
P       27.66639137      11.28615189      35.48196411
O       28.08695793      11.23141384      34.04774857
O       26.17224312      10.75255013      35.75690842
C       25.49248695      10.36151981      34.54352951
O       27.86423302      12.77764320      36.13527679
C       28.07328606      13.74829769      35.07306671
H       30.38468170      10.50154114      35.51489258
H       30.03299332      11.86738682      36.63335037
H       30.42012978      10.25300980      37.30970383
H       25.34988213       9.27226639      34.56119537
H       24.50621605      10.83743095      34.51992798
H       26.07733345      10.65435314      33.65382385
H       28.28919029      14.70986080      35.55647278
H       27.16299820      13.85528755      34.46273804
H       28.88766861      13.43032742      34.40570068
C        7.49938107      13.11730194      14.93913174
O        6.80614042      13.43375206      13.69987297
P        6.14511871      14.89993954      13.63759041
O        6.50612307      15.79322147      14.78738213
O        6.59937811      15.45692825      12.19466686
C        7.47165585      16.61585236      12.19565868
O        4.57433271      14.56223488      13.54653454
C        3.61597133      15.42630291      14.18243980
H        8.36497498      13.77842903      15.06223011
H        6.82450628      13.25289345      15.79713154
H        7.81747723      12.07097816      14.87954521
H        8.44305611      16.35000801      12.62678051
H        7.59792519      16.90427971      11.14880753
H        7.02541637      17.44335175      12.76509476
H        2.86195207      14.78220081      14.64843845
H        3.12873483      16.06765938      13.43841362
H        4.08024073      16.04037285      14.96216965
C       19.58329582       1.37726760      16.13600159
O       18.79370499       1.71154404      17.31023788
P       17.69510460       2.86742973      17.15097809
O       16.66399384       2.60860467      16.09083366
O       17.06879234       2.94414926      18.62246132
C       16.03194618       1.99814415      18.99305344
O       18.60342979       4.18862391      16.97587204
C       17.94738579       5.40923405      16.50084686
H       19.01843452       0.71801728      15.46235943
H       19.89527702       2.28721595      15.61045074
H       20.45089340       0.80945176      16.49085045
H       16.40358925       0.96659130      18.95878029
H       15.73449612       2.25391316      20.01813126
H       15.15721989       2.09947395      18.33173180
H       18.72631264       6.17717934      16.49744606
H       17.12755585       5.69005156      17.17237663
H       17.55903816       5.24356604      15.48994923
C        9.63812637      30.54828453      18.25915337
O        8.18555355      30.72745323      18.35406685
P        7.41662264      29.80208206      19.42090034
O        8.02600670      29.76638603      20.79726028
O        5.89390850      30.29753876      19.30995369
C        5.57949305      31.69490242      19.50929070
O        7.40093660      28.39099884      18.67002296
C        6.65940666      27.20064545      19.04561615
H       10.11681461      30.74177170      19.22721481
H        9.85388660      29.52330589      17.93280983
H        9.99362755      31.26524162      17.50899696
H        6.22417498      32.33375549      18.89216614
H        4.53077507      31.78333855      19.18469429
H        5.63213968      31.97501373      20.56883430
H        6.74027872      26.48794937      18.21260452
H        5.58482313      27.43769836      19.17518425
H        7.06256723      26.76376534      19.97049332
C       21.74905014       8.37162495      33.04545975
O       22.20533752       9.09541988      34.21668625
P       21.82402420       8.31807804      35.59343719
O       21.40476799       6.91378689      35.32312393
O       23.10363960       8.56777573      36.55504227
C       23.97399521       7.45526505      36.85547638
O       20.68370628       9.20342445      36.32600021
C       19.43594551       8.55111504      36.56347656
H       22.07044601       7.32338095      33.07104111
H       20.64975357       8.37407398      33.00742722
H       22.14828110       8.88666821      32.16579437
H       24.90083885       7.53123045      36.27502441
H       24.19952202       7.48541546      37.93098831
H       23.47298050       6.50252962      36.62482834
H       18.61528969       9.14937687      36.15237808
H       19.30875587       8.43484783      37.64844894
H       19.44274330       7.55990982      36.08618164
C       13.22302818      13.67504787      35.29202652
O       12.70663548      12.32299805      35.15994644
P       13.77049541      11.16788483      35.60631943
O       14.54937077      11.42468929      36.85473251
O       12.73103142       9.92799664      35.66559601
C       12.03351879       9.79471684      36.91987991
O       14.67092419      10.79645348      34.30442810
C       16.09318352      10.95429420      34.52323532
H       13.36690044      13.94040108      36.34729385
H       14.17349529      13.79987144      34.75088882
H       12.48207283      14.35666752      34.85115051
H       11.15148258      10.44515610      36.94074631
H       11.70931721       8.75027466      36.99909592
H       12.70741940      10.06393909      37.74632263
H       16.43563271      11.88820267      34.05870438
H       16.58816910      10.08816242      34.07121277
H       16.29892921      10.98012924      35.60171509
C       27.99297142       2.23230386       9.82738590
O       28.46932220       3.12441707       8.78459644
P       27.79549980       3.14128900       7.32668161
O       26.30824280       2.89426446       7.31228828
O       28.26207352       4.54043293       6.68833065
C       27.48090363       5.74229574       6.96129179
O       28.60138512       2.02393675       6.47612381
C       28.00767708       1.52754140       5.26781178
H       26.94043732       2.46390319      10.06387901
H       28.10563660       1.17564189       9.53941441
H       28.59702110       2.44295859      10.72120190
H       27.06201363       5.74568844       7.98326015
H       28.15161514       6.60106325       6.85443592
H       26.64290428       5.82764626       6.25180769
H       28.39475822       0.51485676       5.10678530
H       28.27481842       2.16625547       4.41554832
H       26.91154099       1.47666979       5.36111164
C        8.17728043      28.03076363      12.19266033
O        9.39881420      28.19316673      12.98108768
P        9.72772408      26.84579086      13.83260345
O        8.90677547      25.67512131      13.39810181
O       11.33135796      26.59203529      13.69785118
C       11.64683914      25.76369667      12.56016350
O        9.58098698      27.30210686      15.37450886
C        9.43609047      26.18150711      16.29322433
H        8.27086926      27.21755981      11.45789528
H        7.32308674      27.79442406      12.84964943
H        7.99630070      28.98797417      11.69217682
H       11.33615208      26.23608208      11.61712742
H       12.73525143      25.64158440      12.54131603
H       11.16128063      24.78076363      12.63997364
H        9.08814907      26.59050179      17.25437355
H       10.39312744      25.66272736      16.44022369
H        8.67171955      25.48246574      15.91114902
C       21.57044220      25.25097275      28.17356873
O       20.69536781      24.10675430      28.24993324
P       19.21163559      24.62130928      28.64614296
O       18.69649506      25.67821121      27.71846008
O       18.36403847      23.25250435      28.66515923
C       18.33942223      22.54162407      27.40851021
O       19.26155663      25.09508705      30.20423317
C       18.58758354      26.33793068      30.53829575
H       21.24173355      25.96024704      27.39500427
H       21.59600639      25.78608894      29.13493919
H       22.57689857      24.87808990      27.94346809
H       19.34639740      22.20024490      27.11224365
H       17.73713493      21.63155937      27.55274391
H       17.89593697      23.14441109      26.59458923
H       18.76234818      26.54422569      31.60627556
H       17.49345589      26.26183319      30.37720680
H       18.99361610      27.13684845      29.89132309
C       13.96359444      16.80958939      31.50938606
O       13.50645351      15.57268524      30.93354797
P       13.30030727      15.52315617      29.32803345
O       13.93357372      16.65728569      28.58415031
O       13.83440876      14.02718639      28.99569893
C       15.12853241      13.57219601      29.45329094
O       11.72976112      15.29142380      29.05425072
C       11.43725300      14.95562840      27.68184853
H       14.47025394      17.41280937      30.73720169
H       13.11545277      17.37307167      31.92334557
H       14.65153027      16.58178329      32.33379745
H       15.36462307      13.96340942      30.45083427
H       15.06991196      12.47585392      29.48628235
H       15.91534519      13.87934399      28.74727058
H       10.35736561      14.76366711      27.65214539
H       11.94949341      14.03715038      27.36202812
H       11.69878769      15.78303146      27.00887108
C       10.45186710      35.08211899      25.87695312
O        9.28783035      34.45014954      25.31646919
P        9.16643715      32.85565567      25.69037628
O        9.69012547      32.53398514      27.04875183
O        7.59861708      32.55682755      25.36893845
C        6.76756859      32.22920990      26.50676346
O        9.93125725      32.13801193      24.43469620
C        9.34410477      30.99250984      23.78643227
H       10.80154610      34.51421356      26.75368500
H       11.25182629      35.11268234      25.12284660
H       10.17308903      36.09889603      26.18271446
H        6.51019573      33.12867737      27.07830811
H        5.85179043      31.76069832      26.11829758
H        7.29407883      31.53804207      27.17772484
H        9.39890862      31.13329315      22.69559097
H        8.28366661      30.86674118      24.05476189
H        9.89310741      30.07748985      24.06498146
C       11.07573128      31.11610794      14.15405464
O       10.88341427      30.97925949      12.72134686
P       12.25571346      30.83160400      11.87354469
O       13.32063103      29.93662262      12.42884922
O       11.78795433      30.38859749      10.39385700
C       11.93357086      28.96334648      10.16115189
O       12.78568745      32.37120438      11.73419189
C       14.22066498      32.46553802      11.96124077
H       11.23942375      30.12958717      14.62089729
H       11.91183186      31.78421783      14.40710163
H       10.14526653      31.52768135      14.57279205
H       11.06127071      28.44721985      10.59011459
H       11.95058727      28.79223061       9.07830620
H       12.84488583      28.59343529      10.65175819
H       14.42696381      33.52230072      12.15807915
H       14.77076244      32.11078644      11.07524872
H       14.50578594      31.82044029      12.80988407
C        1.48428261      26.03884888      20.11807442
O        1.65421808      27.10423660      21.06186104
P        2.80350089      28.17613411      20.70513153
O        3.44714665      27.90862465      19.37706947
O        2.11572671      29.63773537      20.82730675
C        1.45368648      30.16232300      19.65719604
O        3.70999193      28.06587791      22.02782822
C        5.05784607      28.59902573      21.96451378
H        2.00520992      26.27329636      19.17852211
H        1.89912009      25.12288284      20.55674362
H        0.40722606      25.92356300      19.96181679
H        0.43697196      29.75623894      19.58994484
H        1.39970672      31.24468040      19.81044006
H        1.99630237      29.92681313      18.73246384
H        5.61392832      28.18261719      22.81112480
H        5.04965162      29.69291878      22.01892853
H        5.53106260      28.28536034      21.02768707
C        9.26059151      19.19025993      18.19175339
O        8.76429176      18.25027847      19.18423843
P        7.23959637      17.78683281      19.09529305
O        6.49073267      18.31087303      17.90423203
O        7.24029779      16.20167351      19.22356796
C        7.24936295      15.38704014      18.01909637
O        6.61099291      18.30383110      20.46890068
C        5.19631481      18.46072960      20.57260323
H        9.28568363      18.73271751      17.19249153
H        8.63019753      20.08417511      18.16831589
H       10.27886391      19.44588661      18.50545692
H        8.12925720      15.60460758      17.40525436
H        7.28398085      14.34519482      18.35753441
H        6.32989311      15.52099133      17.43796730
H        5.00422764      19.41767311      21.07414055
H        4.77806425      17.64182472      21.17347145
H        4.72869730      18.47067833      19.58036423
C       24.58396339       6.46346951      32.25355530
O       25.87284279       5.85894489      32.51109695
P       26.14970589       4.47510481      31.70043755
O       26.13043213       4.48860693      30.20384789
O       27.59804726       4.03684711      32.28401947
C       28.67281151       4.63670492      31.53820992
O       25.15394783       3.46477413      32.46573639
C       25.11934853       2.10648632      32.01268005
H       24.51399422       6.81508780      31.21389771
H       23.77555275       5.73389292      32.44535065
H       24.48319435       7.30568218      32.95077515
H       28.54648018       5.72275352      31.47887802
H       29.59755135       4.41467094      32.08230972
H       28.71421623       4.24265003      30.51573563
H       24.71366882       1.52471220      32.84748077
H       26.12527466       1.76290834      31.73501396
H       24.44496155       2.01147866      31.15316200
C       32.97384644       0.99984384       7.43431520
O       31.87116051       1.81791389       7.03615475
P       32.05863953       3.40926957       7.17250776
O       33.51383591       3.78484178       7.09480715
O       31.11372375       3.95961380       5.99544477
C       31.50558472       3.68339705       4.63513947
O       31.40927315       3.82803011       8.58359337
C       32.02793884       4.84397030       9.40424061
H       33.89717102       1.35855949       6.95483112
H       33.09869385       1.01969564       8.52522182
H       32.72973633      -0.02077895       7.12510872
H       31.62769127       2.60670614       4.45315552
H       30.71222115       4.06885338       3.98769569
H       32.45414352       4.18414307       4.40428543
H       31.66767120       4.70438004      10.43287373
H       31.71587753       5.83977127       9.06229019
H       33.12372208       4.77477026       9.37727356
C        8.70104122      25.96672440      22.87138939
O        7.90498447      25.02948952      22.10051918
P        8.40614414      23.51450920      21.84675980
O        9.14374924      22.79512215      22.92778587
O        6.98509693      22.84212112      21.47902298
C        6.21563959      22.34679794      22.58048248
O        9.22775745      23.55167389      20.44814682
C       10.30546761      22.59034157      20.34260559
H        8.81243038      25.64164925      23.91512680
H        9.69587612      26.10347557      22.42055702
H        8.13809967      26.91034698      22.86256790
H        5.61007118      23.14116287      23.03993034
H        5.55018473      21.57460213      22.17926025
H        6.87861300      21.92026329      23.34681511
H       10.46776009      22.37425041      19.27929497
H       10.04507351      21.67168999      20.89281654
H       11.21911335      23.01823044      20.77766418
C       26.69292450      22.80501175      35.37340164
O       28.08836174      22.73752975      35.72824478
P       28.98690796      24.04206848      36.03653336
O       28.68986893      24.80912971      37.27652359
O       30.51194954      23.50094032      35.95551682
C       31.20722771      23.01805305      37.10973740
O       28.83669662      24.84346962      34.65023422
C       29.39749336      26.16443634      34.51246643
H       26.07193375      22.95323753      36.26232529
H       26.51560402      23.61129761      34.65015793
H       26.42350960      21.84059334      34.92596817
H       30.85700989      22.00471497      37.34149170
H       32.27347183      22.98678398      36.86722565
H       31.04921722      23.66795158      37.97792053
H       28.95992088      26.57654190      33.59027863
H       30.48976898      26.10657501      34.41856003
H       29.14346695      26.80230331      35.37082291
C       15.96599197      26.57284927      11.77068520
O       16.96570969      27.08371162      12.69004345
P       18.16340446      26.03721428      12.96018696
O       18.84552193      25.51142120      11.73586750
O       19.15803909      26.74135399      14.02344894
C       20.19682121      27.58915901      13.45236397
O       17.48462296      24.86549759      13.82908821
C       18.28017807      23.63933945      13.80771351
H       16.40549850      26.24099350      10.81746006
H       15.42006493      25.72525024      12.22313213
H       15.25626278      27.38862991      11.58824539
H       19.77252388      28.57751656      13.22987080
H       20.98015022      27.67319298      14.21440887
H       20.59611320      27.12385368      12.53816891
H       17.78351021      22.94019890      14.49352360
H       19.30561066      23.84954643      14.15513611
H       18.32303238      23.20333862      12.79272366
