4379
Lattice="43.02000045776367 0.0 0.0 0.0 43.02000045776367 0.0 0.0 0.0 43.02000045776367" Properties=species:S:1:pos:R:3 pbc="T T T"
Na      21.54795647      39.32686234      11.40654373
Na       8.82218933      17.63517761      38.41428757
Na      32.17176819       2.25469518      15.82016182
Na      30.75485039      30.75714493      26.72747993
Na       4.42603302       5.67904520       8.91844463
Na      22.61491776      13.34286785      41.55228424
Na      29.66291618       7.33471441      21.82325363
Na      40.63349533      11.48093510      22.39297676
Na      21.90191269      26.56175041      39.22382736
Na      14.78911304      14.62174702      11.84231091
Na      30.27231216      27.68035889      33.12603760
Na      20.33633232      33.51216888      34.22131348
Na      12.94653320      11.10127831      10.04324245
Na      26.84442902      27.02986145      14.46760654
Na      27.52559853      16.47664070      34.89071274
Na      23.91944122       9.95959473      18.55619049
Na      22.21783829      11.76272297      22.50096130
Na       5.19620562      21.22016144      14.14176559
P       37.56010437      10.03176785      11.31833649
F       35.98215866      10.05263042      10.96197224
F       39.14499664       9.97580528      11.70323944
F       37.83387375      11.25332165      10.29327297
F       37.31047440       8.79117012      12.37763691
F       37.82565308       8.95929050      10.14267921
F       37.32018661      11.09211349      12.52672100
P       16.86180878      33.79391098      33.90610123
F       16.54845619      34.95594025      32.81768799
F       17.29160881      32.61936569      34.97476578
F       18.26409531      34.59925079      34.32448578
F       15.52073002      32.97888184      33.42329407
F       17.76514816      32.98665619      32.75781631
F       16.05643082      34.55938721      35.07689285
P       24.02947426      36.95472336      10.70083714
F       25.51792717      37.39733887      11.13529110
F       22.48600388      36.59910965      10.25666523
F       23.54396057      38.55270386      10.82962322
F       24.44494057      35.40913010      10.55752754
F       23.62449074      36.75405884      12.25353241
F       24.39957047      37.24158478       9.14004326
P       35.20785141      31.41912460      20.65724373
F       36.37988281      30.52128983      19.93555450
F       34.08652878      32.36016846      21.36498642
F       36.21468735      32.73927307      20.52524948
F       34.24124527      30.12392235      20.75718689
F       35.88593292      31.10222816      22.10722733
F       34.60003662      31.79258537      19.20139122
P       31.76727486      24.60284233       7.12853861
F       33.27944183      24.93474197       6.60573292
F       30.26508522      24.33181572       7.68540192
F       31.76710701      26.06011009       7.91193628
F       31.82232475      23.19479370       6.35274458
F       32.42514038      23.92528915       8.48251343
F       31.15888977      25.31632805       5.80203581
P       19.58279037      21.62263870      37.49428940
F       20.71912193      22.70738792      37.85189819
F       18.43368912      20.54174614      37.13216019
F       18.61709976      22.29426956      38.61773300
F       20.55640411      20.96179962      36.39840698
F       20.18083000      20.60837936      38.62477875
F       18.97266197      22.64054871      36.38011169
P        9.87039661      11.90295029      10.65026474
F        9.47973156      11.53893471      12.17735481
F       10.35422516      12.21822643       9.13352203
F        9.22179890      13.35294533      10.79926872
F       10.61709499      10.43433380      10.51288128
F        8.50949097      11.28034496      10.09512424
F       11.32392693      12.50007057      11.19171047
P       27.54138565      26.93593788      35.49262238
F       29.06745338      27.55365562      35.27278900
F       26.05505753      26.32246208      35.71825409
F       26.94455147      28.21473885      34.69960785
F       28.21931839      25.68888092      36.27468872
F       27.42920685      27.75872231      36.89564133
F       27.68615341      26.12176704      34.08660507
P        6.05831146       2.11150622      34.08221817
F        6.24416494       1.55012834      35.59043503
F        5.88007164       2.65142751      32.54851913
F        4.65455294       2.81139112      34.51826096
F        7.46399927       1.41235232      33.65495682
F        5.26582432       0.74846447      33.67454910
F        6.86785269       3.47094631      34.46966171
P       25.71165085      19.92907524      25.01152992
F       26.92708588      20.21415901      26.03729820
F       24.48604584      19.60994530      23.97315979
F       24.63820457      20.01793861      26.23489189
F       26.77803421      19.78013611      23.75716972
F       25.87084961      18.30078888      25.30910492
F       25.54912376      21.51993561      24.73956871
P       25.56131935      37.90696335      35.77661133
F       24.54150581      39.16352081      35.53662491
F       26.60123825      36.68465805      36.01887131
F       26.07937622      38.02299118      34.23352432
F       25.03238297      37.80236816      37.30887604
F       24.42817497      36.84245300      35.32780838
F       26.72006798      38.95898819      36.24811172
P       24.43457985       6.47292233      30.15410614
F       25.33062744       6.91958761      28.84944153
F       23.53821754       6.02246141      31.42507744
F       25.78042793       6.33243847      31.04461479
F       23.07409668       6.60132837      29.25493431
F       24.57925606       4.91832399      29.69291115
F       24.28822517       8.03716946      30.60836792
P       12.89072990      21.64307594       6.51011705
F       11.34322071      21.09766006       6.62715340
F       14.43243980      22.15710449       6.42770576
F       12.33834076      23.19664383       6.45592737
F       13.44420147      20.08115768       6.54647636
F       12.80352211      21.51816750       4.89142609
F       12.97297668      21.71685600       8.12559795
P       22.15411568      17.57520485       5.98626852
F       21.74787712      18.87902641       5.06851768
F       22.55848312      16.33479118       6.97182178
F       22.28157997      18.58887482       7.28757477
F       22.04482841      16.60898209       4.71183491
F       23.72314835      17.85048485       5.65344906
F       20.58713341      17.35782242       6.35042810
P       12.77989769      37.47528458      22.53804588
F       11.19319248      37.59962845      22.99490929
F       14.34033394      37.31272888      22.10241699
F       13.18271065      38.52846146      23.70105743
F       12.33678246      36.39658356      21.39518929
F       12.57300282      38.70713806      21.46965027
F       12.95764637      36.24060440      23.63008308
P        7.06097221      19.71340752      36.63385773
F        7.39678860      18.05134773      36.48392487
F        6.80774736      21.29091835      36.86234665
F        7.64260674      19.90994644      35.13653564
F        6.59169769      19.38191223      38.16445160
F        8.59638500      19.85697174      37.24758530
F        5.56837463      19.46450233      36.07272720
P       35.93995667      17.46031380      38.07183456
F       37.00753021      18.00838470      39.16804123
F       34.84735489      16.91056633      36.98577499
F       36.55981827      18.45696068      36.93964386
F       35.32495117      16.43744850      39.21194458
F       34.87255478      18.61155510      38.55166245
F       36.98976517      16.31647301      37.62230301
P       24.20317459       1.58974195      17.27944183
F       24.43209076       2.61138248      16.02810287
F       23.98022842       0.59155768      18.52313995
F       25.41134644       2.31716061      18.10293388
F       22.96885109       0.90596896      16.47457123
F       25.24988747       0.56213033      16.62682915
F       23.17456818       2.69264102      17.95287132
C       38.60605621      35.55813217      32.73513794
C       37.08526993      35.71697998      32.49953461
O       36.82307816      35.88560104      31.10542107
C       36.82567215      37.13534164      30.61817551
O       36.77610016      38.17176056      31.27003098
O       36.83774185      37.06546783      29.27656937
C       36.81785965      38.33903122      28.61187363
H       38.99740601      34.70301819      32.17373657
H       38.80607224      35.38224792      33.79895401
H       39.15186691      36.45878983      32.41907883
H       36.54183197      34.82172775      32.81554794
H       36.67198563      36.56103134      33.06857300
H       36.16994476      39.03396988      29.15308571
H       36.44648743      38.16791916      27.59535789
H       37.82851791      38.76810074      28.59127045
C       31.88616943      21.78154755      33.09840775
C       31.83507729      20.26743698      32.98769760
O       30.79017067      19.81785393      32.08891678
C       29.53125954      19.79858589      32.60511398
O       29.18015289      20.36573410      33.62817001
O       28.73609734      19.07138634      31.79337883
C       27.38215637      18.93864822      32.28491974
H       32.12306976      22.22705460      32.12409973
H       32.65205002      22.01736641      33.84704590
H       30.92643166      22.18914223      33.45647430
H       32.76057816      19.84127808      32.56462479
H       31.68241119      19.83314133      33.99084091
H       27.31928635      18.20393753      33.09978485
H       26.79252815      18.54006767      31.45864868
H       27.00477409      19.89783478      32.65919113
C       29.45286560      24.24807167      10.80922890
C       29.75008202      22.74820518      10.82922268
O       30.07847786      22.23445511       9.53050232
C       29.06566620      21.95941544       8.67927551
O       27.88266563      22.12177277       8.91381454
O       29.56617928      21.44836044       7.50915575
C       28.58461571      20.97755051       6.58596754
H       30.27601242      24.83995628      10.38947487
H       29.24140739      24.62393379      11.82401085
H       28.53755569      24.42270088      10.22218990
H       30.59419632      22.47052765      11.48136425
H       28.88649940      22.20489693      11.23339081
H       28.28163338      19.94652939       6.80595255
H       29.02337837      21.01647377       5.58045912
H       27.68671608      21.60928917       6.62360859
C        6.02406168      18.58514023      24.26809311
C        6.69238615      18.27456474      22.92558098
O        7.34707069      17.00298691      23.10329628
C        8.69511032      16.95226860      23.04190826
O        9.43106556      17.71912193      22.44407082
O        9.04636288      15.79879665      23.67881966
C       10.45267391      15.55408859      23.87554932
H        5.42008686      17.72532463      24.58390427
H        5.37776279      19.46966362      24.21541214
H        6.79073191      18.74463081      25.02948761
H        5.98457718      18.16106415      22.09094048
H        7.42323017      19.04685211      22.63579369
H       11.03349209      16.26762390      23.27389908
H       10.66243839      14.52224159      23.56464577
H       10.67483616      15.63908100      24.94478226
C       28.39345932       0.71825814      18.82755470
C       27.85740471       0.83354431      20.25558281
O       28.62747955       1.70651448      21.11614227
C       29.91517067       1.45072138      21.39749336
O       30.58597755       0.51872069      20.94959450
O       30.37954521       2.44755006      22.17729759
C       31.70349693       2.37545204      22.73413277
H       28.45910645       1.70719111      18.35924721
H       27.67139435       0.14829978      18.22986794
H       29.33600998       0.17011066      18.77840233
H       26.86601448       1.30396688      20.23470497
H       27.77917480      -0.16048715      20.72293091
H       31.68051910       1.81974137      23.67753410
H       31.99414825       3.41946983      22.91360092
H       32.38349915       1.90245128      22.01763725
C       21.70522118      36.82617569       2.02857995
C       22.72186089      36.97148514       3.17823029
O       22.27680969      36.36166000       4.40759611
C       21.34807014      37.03318405       5.10670471
O       20.47766685      37.76215744       4.65283442
O       21.49068642      36.73525238       6.42817307
C       20.40740776      37.06319427       7.30548239
H       21.43076134      35.78484344       1.83136570
H       22.13526154      37.26440811       1.12142682
H       20.78815079      37.37798309       2.27130604
H       23.66359329      36.46946335       2.92252326
H       22.94503021      38.03113174       3.37192702
H       20.59853745      37.99006653       7.86213398
H       20.28052902      36.24040222       8.01995087
H       19.48120880      37.19473648       6.73176193
C        6.46403360      10.97012615      18.64576721
C        5.77607584      11.25872612      19.98983002
O        6.50161552      10.59834385      21.04487610
C        6.02904701       9.40719604      21.46541786
O        5.07880783       8.79712009      21.01693535
O        6.81079817       9.01371670      22.50666428
C        6.63948727       7.64090776      22.92720413
H        7.52710724      11.22740078      18.67848969
H        5.96925068      11.51848125      17.83205795
H        6.39546251       9.90415859      18.39401627
H        5.76167154      12.32235432      20.26952553
H        4.74060440      10.88907623      19.97403717
H        5.59492731       7.44377041      23.20034409
H        7.29039383       7.50021410      23.79491425
H        6.92071104       6.94818354      22.12087440
C       14.71569538       1.10624254      40.56715393
C       13.71580410       2.17000842      41.08230972
O       12.38238811       1.67032599      41.22050476
C       11.69432163       1.57064736      40.06926727
O       12.12745380       1.76299942      38.93973923
O       10.42293930       1.24627316      40.36596298
C        9.51190186       1.40922356      39.25753403
H       14.85519123       0.29413930      41.29074860
H       15.67702007       1.61429453      40.41218567
H       14.38876438       0.68270850      39.61093521
H       14.00599098       2.53977799      42.07306671
H       13.70710659       3.01001382      40.37929916
H        9.39997387       2.46646404      39.00630188
H        8.56487083       0.98362887      39.59027100
H        9.84188461       0.89748621      38.34751129
C       33.19195175      24.59392357      33.49256897
C       34.43701935      23.89425278      32.89406586
O       35.33840942      23.61870766      33.98485184
C       36.42583466      24.42547226      34.08744431
O       36.90097046      25.10671616      33.19520187
O       36.88255692      24.30525780      35.34640884
C       38.14662552      24.91267014      35.65634155
H       32.67673874      23.96698761      34.22481918
H       32.44889069      24.82211685      32.71020889
H       33.47853851      25.51557541      34.00264740
H       34.20231247      22.93024826      32.41442871
H       34.94515610      24.53110886      32.15071487
H       38.78218079      24.95689011      34.75975037
H       38.59669876      24.29890060      36.44496155
H       38.00967026      25.92996025      36.02592850
C        2.83539224      21.86924362      35.97104263
C        1.96739006      21.11379623      36.97856903
O        1.88002574      21.89220619      38.18680191
C        2.65572143      21.55988693      39.22731018
O        3.38340282      20.58599281      39.29975128
O        2.50689316      22.49080086      40.19839478
C        3.21521854      22.32088661      41.42660904
H        2.37970376      22.83192444      35.72514725
H        2.94696951      21.31024170      35.03666306
H        3.83473516      22.04586029      36.36987305
H        0.93848443      20.95405006      36.63279343
H        2.39769602      20.12811852      37.18132782
H        3.24132633      21.26570511      41.71632767
H        2.67047858      22.89661217      42.18552780
H        4.24108791      22.69761086      41.35894394
C       40.04636383      14.69337177      32.99905014
C       40.67192841      15.92138672      32.31872559
O       40.02172089      17.12917137      32.78389359
C       38.80391693      17.37443352      32.22172165
O       38.30256271      16.77688980      31.28857040
O       38.24218750      18.42198563      32.87239838
C       36.93627930      18.78746986      32.38439178
H       40.09392929      14.76160526      34.09307480
H       40.56660843      13.79252720      32.65195084
H       38.99171829      14.60198498      32.70841980
H       41.73379135      16.03549194      32.59983063
H       40.58324814      15.83286190      31.22605324
H       37.01702499      19.40163994      31.47080994
H       36.42607880      19.33820343      33.18015289
H       36.33797455      17.89190865      32.15422821
C       40.27844620      12.00408459       5.04091024
C       39.64672470      12.91012573       6.11377573
O       40.52986908      13.26849365       7.21211720
C       40.76343155      12.33074093       8.14738369
O       40.73067093      11.13669109       7.94010973
O       41.04483795      12.92616749       9.33057499
C       41.32351303      12.07269287      10.44361973
H       41.24348831      12.38582802       4.68461037
H       39.57835007      11.93482494       4.19593143
H       40.42367554      10.98805141       5.41890478
H       39.37697601      13.88045025       5.67227173
H       38.74453354      12.45043087       6.52421284
H       40.41445160      11.87337971      11.02261448
H       42.04955292      12.57680798      11.08871746
H       41.71802139      11.11132336      10.09097195
C        8.72361469      14.72845840       7.90788841
C        9.71848774      15.66009712       8.61199093
O        9.27109241      16.12927055       9.90887928
C        8.37155914      17.12616920       9.93184566
O        7.55791378      17.40784073       9.06766605
O        8.45020580      17.72747040      11.16090870
C        7.36466885      18.58248138      11.55400658
H        8.40447998      13.90737820       8.55136490
H        9.20166492      14.30346870       7.01715565
H        7.84016991      15.27852058       7.56569004
H       10.67128754      15.14351273       8.80698299
H        9.92878819      16.54433441       7.99338484
H        7.68064117      19.63671684      11.52342510
H        7.06979227      18.31137085      12.57973671
H        6.50171518      18.45390892      10.88540268
C       33.09325409      12.98056030      37.55114365
C       33.12568283      14.40715694      37.00167847
O       33.37688446      14.38991737      35.58464813
C       34.65722656      14.32165051      35.17047501
O       35.63964844      14.21831608      35.87816238
O       34.67684174      14.38396740      33.81155014
C       36.00046539      14.61856079      33.29166794
H       32.47796249      12.31770325      36.93306732
H       32.69982529      12.99473953      38.57705307
H       34.10810471      12.56463146      37.58933640
H       32.16237259      14.93175697      37.09379959
H       33.88637543      15.00762367      37.51863480
H       36.42236710      15.53260517      33.72760010
H       35.89818573      14.71429253      32.20457077
H       36.67483521      13.79162693      33.53546906
C       17.32063293      33.05761337       9.34722710
C       18.57345009      32.22509003       9.66305447
O       19.73404694      32.83597565       9.05081749
C       19.93074036      32.51850510       7.74753046
O       19.19550705      31.83167458       7.05827808
O       21.05858612      33.11645889       7.31433868
C       21.32008362      32.98780060       5.89110088
H       17.40506363      34.06865692       9.75447369
H       16.41835022      32.59888840       9.76256275
H       17.18806267      33.11556244       8.25923061
H       18.78520393      32.16817474      10.73904800
H       18.46790504      31.20821381       9.26970291
H       21.39982033      31.93747711       5.58963060
H       22.26706886      33.50260925       5.70843077
H       20.52045059      33.46087646       5.30717850
C       19.55172539       6.40528536      18.09597206
C       20.74718094       7.01128054      18.81612587
O       21.56017685       7.72141743      17.84109879
C       22.26972961       6.96964693      16.95824051
O       22.37697983       5.75711250      16.98445892
O       22.79209709       7.76780987      15.99337292
C       23.90149498       7.17563057      15.27027130
H       18.95395088       7.15255880      17.55161858
H       18.88083267       5.89390135      18.79680634
H       19.84400940       5.64490461      17.35797691
H       20.50109482       7.75066090      19.58917236
H       21.35782242       6.23371553      19.29842567
H       24.60011673       6.69168043      15.95905018
H       24.38492584       8.00553989      14.74344635
H       23.57647324       6.41968822      14.54769611
C        4.89708853      16.72307014      29.29596329
C        5.73032808      17.19602776      28.10072136
O        5.56269979      16.29067230      26.98265839
C        6.33905792      15.19247246      27.03458214
O        7.23130035      14.97566986      27.84358978
O        5.97013521      14.34276867      26.04881859
C        6.80879450      13.17514896      25.96405792
H        3.82905722      16.66385269      29.04722404
H        5.00883198      17.41785240      30.13696098
H        5.24451923      15.73781872      29.61968422
H        5.39539289      18.17251778      27.72445679
H        6.79231358      17.28282547      28.36931419
H        7.85124636      13.45759106      25.78087807
H        6.41574812      12.58333111      25.13195229
H        6.75631714      12.59724712      26.89208794
C       24.48087883      26.26780891      41.33227539
C       23.38973045      25.26840973      41.74376297
O       23.54996872      23.99495316      41.13313675
C       23.48721504      23.79059219      39.81676865
O       23.36995888      24.66524124      38.94849777
O       23.50966835      22.47727203      39.59498978
C       23.74792862      22.04791832      38.24946594
H       25.47548294      25.92549706      41.63841248
H       24.27224922      27.22535324      41.83415604
H       24.48736572      26.41628075      40.24140930
H       23.45180130      25.08675575      42.82472992
H       22.38246536      25.65694618      41.54268265
H       22.83077049      22.06592369      37.64601135
H       24.09517860      21.01261711      38.33076477
H       24.51605225      22.67546082      37.77186584
C       39.82091141       9.07503128      14.82783222
C       38.81538773       9.38144588      15.95591736
O       37.55842209       8.79720020      15.61050987
C       36.49171829       9.61394215      15.38825893
O       36.48194885      10.82633591      15.46359825
O       35.43212891       8.81404114      15.11726379
C       34.28744125       9.50864792      14.62478542
H       39.82514572       8.01207161      14.57279110
H       40.81545639       9.39110184      15.15079403
H       39.53600311       9.62183380      13.92223644
H       39.14841461       8.95614624      16.91318703
H       38.67943192      10.46496773      16.11885452
H       34.16176605      10.48412228      15.11194229
H       33.40008545       8.89369774      14.81908417
H       34.38772583       9.67420006      13.53455639
C       39.11352921      37.92949677      20.83442307
C       38.37916183      36.62223434      20.46804237
O       37.60300827      36.76101685      19.25792122
C       36.46295166      37.47238159      19.37206078
O       36.02323914      37.97634888      20.39175034
O       35.84517288      37.51044846      18.17741585
C       34.47996902      37.96644592      18.19039536
H       39.80730057      38.20548630      20.02817535
H       39.67804337      37.78339767      21.76667213
H       38.39523315      38.74254990      21.00398636
H       39.07768250      35.79969025      20.26237106
H       37.71489716      36.32460403      21.29018784
H       33.87260437      37.31276321      18.82659531
H       34.11024857      37.89237976      17.16256332
H       34.40037537      38.99426270      18.56841278
C       27.13914871      41.07001114       5.33814812
C       26.24467278      39.83176422       5.47420168
O       26.59337807      38.83532715       4.49397802
C       26.12260246      39.02901077       3.25334835
O       25.32542801      39.89056396       2.91007495
O       26.62628555      38.08411407       2.43973970
C       26.14645767      38.12290955       1.07309091
H       28.19155121      40.83059692       5.53581905
H       26.81260490      41.83241653       6.05470610
H       27.04267120      41.46890259       4.31805992
H       26.35978317      39.36269760       6.45854425
H       25.18671608      40.10274506       5.36930370
H       25.05117798      38.13701630       1.06063187
H       26.49777031      37.20967102       0.58124554
H       26.52651215      39.00290298       0.54174256
C       38.83754349       1.56180573      36.98573685
C       39.06940079       2.64374208      38.06240082
O       37.84821701       3.21275640      38.57051086
C       37.22586823       4.10232496      37.77337265
O       37.33600235       4.20275640      36.56034851
O       36.42153931       4.85031128      38.55747604
C       35.60177994       5.80880451      37.86194229
H       38.12805557       0.80725986      37.34409332
H       39.79980087       1.07690346      36.77297211
H       38.45613098       1.99686122      36.05553436
H       39.57850266       2.23191833      38.94564438
H       39.66959000       3.46608424      37.64792252
H       36.02148438       6.81159019      38.00037766
H       34.59972763       5.77099800      38.30502319
H       35.55043030       5.56550264      36.79454422
C       21.42758560      31.34242249      40.10446548
C       22.33234215      30.09815598      40.14443970
O       21.48274040      28.89672470      40.19368744
C       21.02845573      28.56246376      41.42697906
O       21.20519066      29.19001961      42.46008301
O       20.38362503      27.37710762      41.28189468
C       19.89951706      26.75660896      42.50259399
H       20.78687096      31.33439827      39.20985794
H       22.03376961      32.25598526      40.13803101
H       20.75072098      31.34656715      40.96801758
H       22.94461441      29.95046616      39.23999786
H       22.98158264      30.09669304      41.03050995
H       20.72459030      26.62463760      43.21252441
H       19.48477745      25.78792763      42.20183182
H       19.12057495      27.37298775      42.96868134
C       25.68298531      20.97189140      17.64753342
C       24.50824165      20.58216858      16.73985100
O       23.65266228      21.73975945      16.64488029
C       22.37354660      21.58355522      17.08839989
O       21.84458923      20.53708267      17.41085815
O       21.78536987      22.80324936      17.11078453
C       20.45115280      22.80930519      17.67505836
H       26.18185616      21.88320160      17.28610420
H       26.43741035      20.17534447      17.71135330
H       25.30583382      21.15167809      18.66540909
H       24.82278442      20.31022453      15.70922470
H       23.91880608      19.73151970      17.11775589
H       19.90655136      21.91337013      17.35543060
H       19.95921898      23.71953583      17.31028366
H       20.44865608      22.81228065      18.77597618
C       32.53385544       2.22172427      12.99988842
C       31.03929710       2.62590218      12.95304394
O       30.87884521       4.05149269      13.02197552
C       31.02248383       4.76505184      14.16217995
O       31.50449562       4.37553501      15.22136021
O       30.56804085       6.02678537      13.90344143
C       30.69390297       6.99314404      14.95263863
H       32.95718002       2.18082094      11.98791981
H       32.64961624       1.22740149      13.45919323
H       33.11454010       2.97293210      13.55323315
H       30.59473801       2.33271837      11.98978519
H       30.45441818       2.14256835      13.75224972
H       29.70847702       7.46016693      15.11543369
H       31.42237091       7.76089764      14.65583611
H       31.00452423       6.52615976      15.89614964
C       23.14757347      13.73514175      19.70899010
C       24.41676903      13.56986141      20.53571129
O       25.51326752      14.00962543      19.70082664
C       26.03917503      13.14419556      18.80102158
O       25.78327179      11.94312096      18.73702240
O       26.87337494      13.81903934      17.98909760
C       27.81811905      13.02453995      17.22876549
H       23.00847435      14.78253365      19.40472221
H       22.24807167      13.41254520      20.25406265
H       23.22037506      13.11932182      18.79806328
H       24.45277786      14.17179585      21.45646667
H       24.58547592      12.50580502      20.79104805
H       28.01588058      12.08391857      17.75936699
H       28.73474312      13.62862682      17.14874458
H       27.38932991      12.77221489      16.24734497
C       41.66151428      12.33326626      19.76224136
C       40.38901138      11.72597885      19.14046097
O       40.72945786      11.22919083      17.82921791
C       40.85088730      12.17782688      16.86823845
O       40.39284134      13.30445194      16.94788551
O       41.47330475      11.65262222      15.80788040
C       41.39953613      12.42716026      14.58842373
H       42.41925049      11.54964638      19.86884689
H       41.49316406      12.84038067      20.72328377
H       42.05857849      13.09962463      19.08283997
H       40.00290298      10.85881901      19.70683479
H       39.56835556      12.46021748      19.09491348
H       40.38180161      12.79762459      14.44000149
H       41.65524673      11.75607967      13.76211834
H       42.06914520      13.28740883      14.63915348
C       36.65982437       5.80074787      28.20580292
C       37.01882553       5.94573736      26.72783852
O       38.10371017       5.04393005      26.43085670
C       39.19517517       5.57014799      25.83797646
O       39.27750778       6.68483782      25.34349823
O       40.17555237       4.63347769      25.88094902
C       41.49636459       5.04474735      25.49585724
H       36.39450836       4.76511383      28.43141937
H       35.77971268       6.40745687      28.44353485
H       37.48472214       6.12124348      28.84503555
H       36.16910172       5.70653343      26.06439018
H       37.32786179       6.97631693      26.50372696
H       41.46393204       6.01981306      24.99678040
H       41.93035126       4.28635979      24.82964706
H       42.11697006       5.12363863      26.39696503
C       15.18384075       9.22423363       6.28294039
C       14.11763763       8.36561584       6.97089672
O       14.75308704       7.09968519       7.26511717
C       14.26058483       5.98507166       6.69561291
O       13.14405823       5.84576654       6.21521521
O       15.22736454       5.03498888       6.80194473
C       14.84698486       3.70425272       6.42203665
H       16.07976723       9.28209305       6.91667938
H       14.77951145      10.22737980       6.09669209
H       15.46353912       8.75753021       5.32983255
H       13.77125072       8.79734993       7.92235661
H       13.22947216       8.20789433       6.33938122
H       13.84729958       3.74430251       5.97133446
H       14.82371426       3.07028008       7.31551695
H       15.55886936       3.31950450       5.68034363
C       11.43064022       3.11754870      35.23862457
C       10.16339779       3.77768230      34.66268158
O        9.60249996       4.73722076      35.59045029
C        8.83457661       4.22927332      36.57291794
O        8.74028111       3.06012058      36.88211823
O        8.18090153       5.22969103      37.23731232
C        7.45604706       4.82120514      38.39620590
H       12.21603012       3.83620811      35.47789001
H       11.82612038       2.39001322      34.51916122
H       11.20377922       2.58029151      36.16025543
H       10.40515995       4.33434391      33.74615479
H        9.39578724       3.03542113      34.42827988
H        6.55155373       4.26263618      38.12571335
H        7.17287016       5.72289944      38.94783783
H        8.05801678       4.16783237      39.03794861
C       38.26097107      14.89062977      18.77091217
C       36.83380508      14.39587021      19.06880379
O       36.95838547      13.04558086      19.53923988
C       36.34666061      12.06085873      18.83299828
O       35.50643921      12.18401527      17.96147156
O       36.84911728      10.89382839      19.32248878
C       36.53219604       9.72436523      18.54372025
H       38.90123367      14.80693531      19.66037178
H       38.22892761      15.93801880      18.44108772
H       38.71044922      14.28856373      17.97141075
H       36.33499527      14.98269844      19.85697937
H       36.20454407      14.43054485      18.16639328
H       35.71213913       9.92391968      17.83894539
H       36.24305725       8.91676140      19.22347069
H       37.42110062       9.43721771      17.97147179
C       29.49470711      11.14681149      26.68120193
C       29.35135269      11.76891518      25.29763412
O       29.47479248      10.78074169      24.23332977
C       30.74951935      10.42771339      23.96588707
O       31.74786949      11.06533813      24.25365067
O       30.79275322       9.23678875      23.27769279
C       32.14868927       8.82395077      23.00420570
H       28.72938347      10.37948608      26.85397530
H       29.36806297      11.90947151      27.45885277
H       30.47762489      10.67656898      26.79966354
H       28.34626389      12.20162487      25.14048958
H       30.08406067      12.57686615      25.13554764
H       32.62659454       9.51052380      22.28884888
H       32.10861969       7.83238840      22.53867340
H       32.74597549       8.81943512      23.92235947
C        6.44091129      16.51500130      32.70866013
C        5.27623415      17.44474220      33.07284927
O        4.65840006      16.99081612      34.31137085
C        3.84271502      15.92552948      34.17573547
O        3.55732250      15.38047314      33.12401199
O        3.35415530      15.57028294      35.39921570
C        2.49018359      14.42949295      35.39081573
H        7.18731117      16.53012657      33.50119019
H        6.88396168      16.83474541      31.76180458
H        6.09573364      15.49141216      32.54131317
H        5.60655260      18.47226334      33.26387405
H        4.52878714      17.45981216      32.26806259
H        1.52759540      14.65813732      34.90954971
H        2.31763864      14.17718697      36.44505692
H        2.95039845      13.58139610      34.86980438
C       40.57709122      17.23722458      36.30487061
C       41.56959534      17.10539246      37.46646500
O       41.26125336      17.89271164      38.63679886
C       41.29554749      19.23634720      38.51019669
O       41.33998871      19.84889412      37.45412827
O       41.23895264      19.80305290      39.73312759
C       41.10778046      21.22759628      39.73424911
H       39.58364868      16.85359383      36.55008698
H       40.95323944      16.67240715      35.44557953
H       40.46044540      18.27600479      35.99324799
H       41.57629776      16.06869507      37.82526779
H       42.57833481      17.37400246      37.12029266
H       42.08167267      21.69695854      39.92568207
H       40.39134598      21.50266457      40.51908112
H       40.70552063      21.56484604      38.76934433
C       15.62452126      11.84279251      11.75347996
C       16.06970406      11.06550407      10.50837421
O       16.51627731      11.98996353       9.48113632
C       15.62984943      12.79817390       8.89577770
O       14.40439129      12.74220371       9.04558849
O       16.27182198      13.65562630       8.12313557
C       15.45877647      14.46195698       7.21234655
H       16.41299248      12.54243088      12.06822872
H       15.37995720      11.19234180      12.60591698
H       14.69308472      12.39195347      11.53752422
H       16.93546486      10.41980553      10.68996239
H       15.27233028      10.43241978      10.08635521
H       15.03315639      13.81101608       6.43951225
H       16.16447830      15.16590977       6.76939011
H       14.64565754      14.95852184       7.75311327
C       23.49600601      19.62867737      10.77134228
C       23.33258057      19.25736237      12.25628090
O       22.04318619      19.67134094      12.76496601
C       21.84078217      20.98445892      13.02538776
O       22.68228722      21.87579536      12.91647148
O       20.57377243      21.17057610      13.42990208
C       20.11452675      22.52635193      13.39303970
H       22.75091743      19.14328003      10.13113594
H       24.47789192      19.28399467      10.43851852
H       23.43786621      20.71195412      10.62681293
H       23.37171173      18.17004204      12.38622761
H       24.13073540      19.70433235      12.86877346
H       20.46573448      23.09470749      14.26389408
H       19.02190590      22.47807312      13.42030621
H       20.45612526      23.01593208      12.47134781
C        5.51983070      20.53067589      17.92404747
C        5.98298359      21.91155624      17.47011375
O        6.57966089      21.84822083      16.13038445
C        7.79126787      21.25378609      16.02781868
O        8.46899128      20.83217621      16.93792915
O        8.11882210      21.18557930      14.71803284
C        9.35965347      20.48577118      14.46505833
H        4.73139238      20.12449074      17.27554512
H        5.13458252      20.65724754      18.94691849
H        6.35602427      19.83082581      17.97366905
H        5.13608789      22.60474968      17.38064575
H        6.70011902      22.33763504      18.18360329
H       10.20632076      21.05993652      14.85448170
H        9.43904877      20.34004593      13.38277149
H        9.34041214      19.51860809      14.97958755
C       36.41815948      19.28401375      12.07128525
C       35.52461624      20.54071426      12.19153309
O       34.16150665      20.08870316      12.24380684
C       33.65290833      19.79134369      11.01044941
O       33.38574600      20.60133553      10.15331936
O       33.46224976      18.44620132      10.91867924
C       32.57037735      17.99897385       9.88727379
H       36.16618729      18.59473991      12.89039421
H       37.47641754      19.56741333      12.13167000
H       36.23331833      18.76033974      11.12166405
H       35.70854187      21.08246040      13.13344383
H       35.65579605      21.22510529      11.33940601
H       32.34051895      18.80194283       9.16908360
H       31.62576103      17.69248009      10.36695290
H       33.00637054      17.13144112       9.37395859
C       31.49151039      37.20540619      30.31006241
C       31.83060074      35.71837234      30.50907707
O       31.25085258      35.34733963      31.78854942
C       32.10135651      35.34966660      32.83861923
O       33.31703568      35.36309433      32.77154541
O       31.37796402      35.32010651      33.97833633
C       32.14355087      35.28112411      35.19280624
H       30.40968895      37.37011337      30.42602921
H       31.79653740      37.52145386      29.30603600
H       32.02027893      37.81118393      31.05888939
H       31.38448524      35.07744598      29.73646545
H       32.91496658      35.54873276      30.51586723
H       33.10165405      34.77517700      35.03690338
H       31.55600548      34.73967743      35.93799591
H       32.34046555      36.29362488      35.56304169
C       17.79201317       6.56531572      25.25875092
C       17.07292175       7.65510130      26.08031654
O       16.23621559       8.46990299      25.24409485
C       16.82313728       9.57702637      24.75660515
O       17.99891853       9.89732265      24.86702728
O       15.86742115      10.27187443      24.10622025
C       16.40346527      11.33359337      23.31149673
H       17.08209991       5.88918686      24.76271439
H       18.40283966       5.97033978      25.94422913
H       18.43572235       7.00813723      24.48690033
H       16.41835785       7.23628902      26.85310364
H       17.80270958       8.29354954      26.59540939
H       17.17808151      11.87939835      23.86392593
H       15.55104828      11.95627022      23.01053810
H       16.83974075      10.89039803      22.40530205
C       27.88042068      30.27624321      19.87121964
C       28.05479431      31.55611038      20.68031883
O       27.90326309      31.29820633      22.11590958
C       26.67328262      31.41727257      22.64098549
O       25.65012550      31.73225784      22.05941200
O       26.75028610      31.16152000      23.97597504
C       25.49107933      30.97269249      24.65880966
H       28.62389374      29.50927925      20.12972832
H       28.01254845      30.44953346      18.79308891
H       26.85596848      29.88271141      19.95637703
H       29.05670547      32.00146484      20.56739426
H       27.29512024      32.28830719      20.38088608
H       24.84281540      31.85516930      24.57995796
H       25.72019958      30.75804901      25.70702744
H       24.93870163      30.12537956      24.22693825
C       12.23944569      18.63578987       1.62119019
C       11.70826721      19.57888794       0.53706157
O       12.76238823      20.50067329       0.11727351
C       13.00774384      21.49583054       1.03481483
O       12.29765701      21.77263451       1.96930385
O       14.18167305      22.12621117       0.70539671
C       14.39528275      23.32187271       1.49535990
H       13.08797264      18.02770424       1.28452015
H       11.42130375      17.96294785       1.89678395
H       12.53559303      19.17742538       2.52621961
H       11.38221169      19.06927872      -0.38422859
H       10.84094715      20.15341187       0.90552843
H       13.51573181      23.97528648       1.45714414
H       15.29572105      23.80826759       1.10039282
H       14.53818035      23.09041405       2.55995011
C       35.09326935       7.59667683      22.32934380
C       34.53435135       6.19693136      22.06894684
O       34.57467651       5.86791039      20.68459702
C       33.59951401       6.44621229      19.94587517
O       32.65212631       7.02730036      20.43699455
O       33.78863144       6.20030355      18.63744736
C       32.70915985       6.69221067      17.81328011
H       36.14655304       7.62715864      22.02178383
H       34.98659897       7.84307528      23.39340210
H       34.54113770       8.34873390      21.74611664
H       35.14307785       5.43970299      22.57466125
H       33.50801086       6.10656643      22.45283318
H       31.81056023       6.06282234      17.90899849
H       33.05775452       6.65538025      16.77521324
H       32.42398453       7.70316172      18.11807060
C        5.23251867      30.33901024      34.61913300
C        6.12808990      31.56028748      34.41920471
O        5.85165548      32.14143753      33.13897705
C        6.69813871      31.95466995      32.09333420
O        7.74570227      31.32975769      32.11969757
O        6.17709160      32.60227585      31.03646469
C        6.91279697      32.43228149      29.81693268
H        4.17793512      30.55634308      34.39396667
H        5.30128098      30.00699615      35.66213608
H        5.52208233      29.51373100      33.96013260
H        5.90848875      32.33791351      35.17122269
H        7.19541883      31.29361916      34.48540878
H        7.98131943      32.58768082      29.99244690
H        6.49224806      33.14185333      29.09498787
H        6.79387331      31.42912865      29.39530945
C       11.83085251      13.84630871       4.49216604
C       12.33360195      14.79031467       5.60200024
O       11.33213615      15.76455879       5.96458483
C       11.30119991      16.84711266       5.14342451
O       12.10135937      17.11814690       4.26938581
O       10.20160675      17.57070160       5.46433592
C       10.24748421      18.88181686       4.90408707
H       10.95832539      13.27312374       4.83163166
H       12.61909485      13.15011787       4.18887377
H       11.53112984      14.42915535       3.61108470
H       12.53388023      14.26048756       6.54638720
H       13.23627090      15.32886791       5.26359940
H       11.26246262      19.28932953       4.98389864
H        9.55301285      19.49042511       5.50136566
H        9.96410275      18.88595200       3.83907104
C       35.13919830      36.49619675      23.09607887
C       35.00942612      35.12947083      22.41059494
O       33.59881973      34.81138229      22.45410347
C       33.22420502      33.84472656      23.33051109
O       33.93878555      33.19304657      24.05915070
O       31.85785866      33.74417877      23.28657913
C       31.28288078      33.31815720      24.53690529
H       34.46710205      37.19865799      22.58403587
H       36.16454697      36.88151550      23.05532455
H       34.82991028      36.40751266      24.14518738
H       35.30128860      35.13474274      21.34243202
H       35.59310532      34.35281754      22.92639923
H       31.82288361      32.44460297      24.93508148
H       30.23067474      33.07862854      24.33416176
H       31.33354378      34.12059021      25.28426552
C       21.96174049      32.99361420      23.12545204
C       22.92430496      33.50790787      22.04454994
O       22.17966270      34.19062042      21.01581764
C       21.60582542      33.41805267      20.05729294
O       21.72315788      32.20979309      19.93800545
O       20.86064529      34.20956039      19.26213646
C       19.94096565      33.54094315      18.36597252
H       21.29159546      33.79787064      23.46201897
H       22.49619293      32.61848450      24.00468445
H       21.33688164      32.18861008      22.71666527
H       23.64666939      34.23606873      22.44222069
H       23.50885010      32.70214844      21.57638931
H       20.47004128      32.91870880      17.63145638
H       19.37858200      34.34875870      17.87991905
H       19.26705551      32.87516403      18.92312241
C       11.58223057      35.52959061      18.29147530
C       11.64435959      37.00093842      17.91687584
O       10.34144211      37.50541687      17.53978157
C        9.87847900      37.20765686      16.32948112
O       10.56545448      36.70801544      15.42251968
O        8.63085747      37.67351532      16.18133354
C        7.74325371      37.05153656      15.23680592
H       10.85418701      35.38142395      19.09619141
H       12.56046200      35.21799088      18.66394615
H       11.30904102      34.88413620      17.44809151
H       11.92543221      37.62967682      18.77836990
H       12.35606670      37.20357513      17.09524155
H        7.96972370      37.33502960      14.20060158
H        6.73328352      37.36671448      15.52209282
H        7.79268646      35.95747375      15.32633781
C       36.99005508      22.44918633      30.10068703
C       36.39926529      23.72296143      29.47065926
O       35.03104782      23.50923347      29.08490562
C       34.92538452      22.77836800      27.93219566
O       35.83113861      22.57993126      27.14088631
O       33.64796066      22.35750389      27.77033615
C       33.52983475      21.49644279      26.61233330
H       36.37412262      22.11425781      30.94379807
H       37.99894714      22.67463303      30.46520615
H       37.04070282      21.63132668      29.36930084
H       36.38398743      24.55531120      30.19509125
H       36.99300003      24.02137947      28.58820152
H       33.97907257      21.93474388      25.71271133
H       32.45308304      21.32986832      26.47177124
H       34.02035904      20.52938461      26.78147316
C        9.29287052      36.88979721      25.63761902
C        9.48630810      38.31267548      26.18066216
O        8.51667500      39.13029480      25.50202560
C        9.01134586      40.07597351      24.65007782
O       10.12894154      40.54543686      24.68447876
O        8.02436924      40.34386444      23.76171684
C        8.33101559      41.25767517      22.68514442
H        8.29473114      36.50033188      25.85072899
H       10.04824638      36.22104645      26.04990387
H        9.42281532      36.90471649      24.55034065
H        9.33613014      38.39781189      27.26713753
H       10.50160885      38.65863800      25.93933487
H        9.38997459      41.52407074      22.72816086
H        7.73363018      42.16538620      22.81539154
H        8.09543037      40.75789642      21.73788261
C       29.64630508      21.04744339      25.16623688
C       29.60618591      22.34734726      25.97585487
O       28.31142044      22.74415779      26.47860336
C       27.53516388      23.26087952      25.48976707
O       27.73876953      23.16116714      24.29653358
O       26.53870583      24.01350212      26.05867767
C       25.56281281      24.43884087      25.11148643
H       29.35666847      20.16627693      25.74468994
H       30.65208054      20.87753296      24.75109673
H       28.99348068      21.09624290      24.28435516
H       30.26185608      22.34420586      26.86061096
H       29.94634247      23.15690804      25.31900787
H       25.61078072      25.53290176      24.98419380
H       24.57145691      24.15570068      25.48155785
H       25.73970985      23.95201302      24.13842964
C       18.15419579       4.63508463      10.30657864
C       18.01274300       5.40656662       8.99201012
O       19.15477371       6.29762554       8.80884647
C       19.23905373       7.38786793       9.58817863
O       18.43570328       7.77268219      10.41277122
O       20.39894485       8.04676342       9.31403446
C       20.52363396       9.26111031      10.07502556
H       19.08904457       4.06489468      10.36428928
H       17.31646919       3.93082690      10.40307045
H       18.11542892       5.30218363      11.17264366
H       18.03900528       4.76325560       8.09691811
H       17.08118057       5.98683739       8.95446396
H       19.78645706      10.00768089       9.73546886
H       21.54409790       9.62749100       9.93118668
H       20.32984352       9.09008980      11.14201260
C       37.75474548      22.26327133      16.30591774
C       37.87544632      22.44053459      17.82783890
O       38.25065613      21.19148445      18.47958565
C       37.25693130      20.30763435      18.67991257
O       36.10187912      20.42795563      18.32989311
O       37.76644516      19.19855499      19.28913689
C       36.79798889      18.29193878      19.86239815
H       38.65051651      21.83835602      15.84571648
H       37.53890610      23.24623108      15.86969662
H       36.90178680      21.61699867      16.05593300
H       38.65001297      23.15998650      18.12565422
H       36.92476273      22.79279327      18.26467896
H       36.21506119      18.78299522      20.64996147
H       37.35869598      17.44666862      20.27977943
H       36.09557343      17.93658447      19.09156227
C       27.65932846      31.29858208      10.25737667
C       27.29387856      31.69213676      11.69872189
O       28.22782707      32.69575882      12.15309525
C       29.48938560      32.37461853      12.45732403
O       29.89705658      31.29931450      12.86543083
O       30.27809715      33.47945023      12.29364014
C       31.57637978      33.39320755      12.91481400
H       27.71438980      32.17755508       9.61124039
H       26.93595314      30.59163857       9.83932686
H       28.62220764      30.77744675      10.22514629
H       26.31353951      32.18445969      11.78677940
H       27.29921532      30.81775093      12.36603928
H       31.50949860      32.83959579      13.86114407
H       31.88926888      34.42630386      13.10217190
H       32.30291748      32.87904358      12.27787399
C       40.72250748      26.65751076      16.67120743
C       39.94905853      27.88965797      16.19642258
O       40.89675140      28.98380661      16.19547462
C       40.52540588      30.19981194      16.64592934
O       39.57327271      30.45817566      17.36723137
O       41.41567612      31.10070419      16.17902756
C       41.44910049      32.34403229      16.91225243
H       41.52121735      26.35493088      15.98640442
H       40.02355576      25.82198524      16.79804230
H       41.16904449      26.89343643      17.64424324
H       39.54351044      27.77607918      15.17604542
H       39.11355591      28.12019920      16.87135124
H       40.43439484      32.74064636      17.04606819
H       42.05830002      33.03823090      16.32020187
H       41.89283371      32.20308685      17.90277672
C        7.35938406      29.61539459      16.63485336
C        6.58462334      30.85825729      17.09564781
O        5.25735426      30.48572159      17.54915810
C        4.38255835      30.21991730      16.56328201
O        4.53364944      30.39464951      15.36159420
O        3.22351980      29.79704094      17.13368416
C        2.23472762      29.36664391      16.17665672
H        7.44288540      28.89001274      17.44482613
H        8.36425114      29.90752411      16.31815338
H        6.87139034      29.14669800      15.77231312
H        7.06920290      31.33934021      17.95630455
H        6.49734259      31.56858826      16.26340485
H        1.84932983      30.20716286      15.58603001
H        1.42235184      28.92334747      16.75783920
H        2.64528418      28.61737061      15.49276447
C       27.83406067      28.16104507      31.15308571
C       28.80349541      27.90402794      29.99768639
O       28.81596947      26.49082184      29.65348434
C       29.74698257      25.77037048      30.27614403
O       30.57942581      26.19321251      31.08510208
O       29.66637230      24.47030258      29.92874527
C       30.51563835      23.65512085      30.76055717
H       26.82516098      27.85947227      30.84882164
H       27.79861450      29.22269249      31.41688728
H       28.05586052      27.58161736      32.05829620
H       28.47399330      28.39873314      29.07185936
H       29.82510757      28.24475861      30.22434998
H       31.57490158      23.93350983      30.64107513
H       30.32568550      22.62015343      30.44862366
H       30.25246429      23.79718590      31.82064438
C       25.34302902      29.60681915       7.32828474
C       25.59792709      28.30393982       8.10606194
O       26.95868492      28.31843567       8.54948139
C       27.88746643      28.17667580       7.56196213
O       27.66538620      27.81026459       6.42155838
O       29.10538483      28.51202011       8.06804562
C       30.17263985      28.40875053       7.09337664
H       25.58799362      30.46765327       7.96002817
H       24.29494858      29.68602753       6.99800587
H       25.98392105      29.65380859       6.43952274
H       24.99788284      28.22413254       9.02058029
H       25.41414833      27.41626740       7.48446226
H       30.15441513      27.43004036       6.60328770
H       31.10948372      28.48822021       7.65285826
H       30.08991432      29.17931175       6.32098341
C       11.30819988      10.90666676      32.92730331
C       10.30245590      10.32931805      33.94904709
O        9.42404938       9.44201756      33.24449921
C        8.10367393       9.72455215      33.24052048
O        7.57512331      10.70801830      33.73396301
O        7.46395445       8.74699402      32.55716324
C        6.02945662       8.76358891      32.63576889
H       11.90988827      10.12791920      32.44048691
H       11.96656799      11.62666321      33.42705536
H       10.74032879      11.40926838      32.13666916
H       10.80897999       9.77121067      34.75111008
H        9.72238064      11.13840771      34.41257477
H        5.69035053       9.59407425      33.26685333
H        5.67766571       7.81334877      33.04413223
H        5.60729408       8.88631916      31.62932396
C       31.49814987      35.38098907      19.84881592
C       30.97702980      36.68705368      20.47797394
O       30.25780106      36.45648193      21.71947098
C       29.12913704      35.71089554      21.64109230
O       28.58666801      35.31949615      20.61981964
O       28.68655396      35.52082062      22.91759109
C       27.55960846      34.63383102      23.08909416
H       32.21768188      34.88003159      20.49969864
H       31.96518326      35.53155136      18.86221123
H       30.65784836      34.69822311      19.67328453
H       31.80984497      37.34021759      20.77326202
H       30.30991173      37.22318268      19.78167534
H       26.61053085      35.15933228      22.91341400
H       27.61095619      34.25429916      24.11450005
H       27.61095810      33.79799271      22.37903786
C       36.84560776      27.09267426      28.36548233
C       36.92200089      27.55788231      26.90511513
O       36.50056458      26.50759125      26.01887703
C       37.35040283      25.51072502      25.71892548
O       38.52377319      25.43643570      26.08215714
O       36.69896698      24.62297058      24.94923210
C       37.41307068      23.42002296      24.63168335
H       35.88872147      26.57502174      28.53027916
H       36.91949844      27.94101524      29.05570221
H       37.66100693      26.39165497      28.57851791
H       36.20714188      28.37156296      26.70658302
H       37.93807602      27.89352417      26.64966011
H       38.13684845      23.58308601      23.81826782
H       36.64130783      22.71871948      24.28260231
H       37.92134476      23.03465652      25.52181435
C       26.44274330      19.62487793      29.07427025
C       27.09458923      20.89566231      29.61600113
O       26.17790222      21.89485168      30.14230919
C       25.45078468      22.50086212      29.16393089
O       25.26712608      22.06649017      28.04888725
O       24.93199921      23.67204285      29.65050888
C       24.31989861      24.43561554      28.60164261
H       25.94769859      19.01280212      29.84281349
H       27.15416145      18.97436523      28.54317665
H       25.68315125      19.86211777      28.32104874
H       27.78270912      20.71970940      30.45900345
H       27.67511177      21.37935638      28.80476761
H       25.05444908      25.14280510      28.18048096
H       23.43719673      24.93772888      29.00877571
H       23.98699188      23.76352692      27.79294205
C       12.03661823      25.29948616      10.27468681
C       12.04149914      23.77550697      10.15695858
O       13.34196281      23.19387436      10.38519478
C       14.38420105      23.51280212       9.57754421
O       14.51888943      24.52781868       8.92433643
O       15.32427788      22.51008034       9.64322567
C       16.52814102      22.74021912       8.89992046
H       12.34736919      25.67405128      11.25330067
H       11.01009750      25.64347076      10.10095596
H       12.69251537      25.74795532       9.51953030
H       11.39020729      23.33159447      10.92060566
H       11.68011379      23.42634392       9.17588234
H       16.65159607      21.94897652       8.14019203
H       17.39046288      22.70909119       9.58185577
H       16.47406578      23.70996094       8.38675404
C       33.10321426      29.21977806      27.76180458
C       32.61904144      28.20087624      26.73185349
O       31.17529106      28.38712883      26.55702400
C       30.34269714      27.30730247      26.73771286
O       30.67853737      26.22591400      27.15803337
O       29.09932899      27.67821121      26.37818909
C       28.09461212      26.63756561      26.48106003
H       33.07638550      30.24242783      27.36000824
H       34.15201187      29.01342773      28.00982857
H       32.49721146      29.15798950      28.67994499
H       33.09156418      28.34661674      25.74533081
H       32.79664612      27.15544128      27.02377319
H       28.49744797      25.67087364      26.14706230
H       27.26061249      26.93931770      25.83495331
H       27.73903847      26.51422882      27.51174164
C       28.27643585       3.33687687      24.08482170
C       28.13424873       1.83494663      24.31162453
O       28.17473412       1.56933665      25.73789215
C       29.40285492       1.43407702      26.27073860
O       30.44241142       1.36518538      25.63211441
O       29.30701065       1.41850257      27.61712074
C       30.54541206       1.28111196      28.32143593
H       27.54513550       3.91839528      24.66164780
H       28.15715599       3.53396201      23.01496887
H       29.30031013       3.63091660      24.33651924
H       27.17073250       1.44874930      23.96159935
H       28.93160439       1.27147055      23.80204582
H       31.13076019       0.43252435      27.94647026
H       30.28421593       1.11673498      29.37355042
H       31.16306496       2.18659806      28.23179626
C       12.22545147       7.06791592       2.99849153
C       10.92340374       7.85656691       3.22431588
O       10.75487232       8.78214741       2.13768506
C       11.01992321      10.09144306       2.37687325
O       11.03357983      10.64035511       3.45574594
O       11.21249199      10.66563606       1.17176342
C       11.57573795      12.06273174       1.21368897
H       12.19425297       6.47585869       2.07437277
H       12.40921116       6.40301228       3.84547949
H       13.06665516       7.76145363       2.92445397
H       10.02388954       7.22807360       3.21988177
H       10.95179272       8.39675426       4.17820311
H       11.45981312      12.46209621       2.22772264
H       10.89975166      12.59034729       0.52834958
H       12.63006401      12.17024708       0.92162269
C       23.15649414      19.17391586      29.19404793
C       22.36175156      18.13462639      29.97599411
O       21.77154732      17.21042442      29.03926468
C       20.43750381      17.25889206      28.85003090
O       19.61504364      17.67066956      29.63617516
O       20.18470383      16.71713448      27.61579132
C       18.81009293      16.72043037      27.23502541
H       23.79854202      18.71125412      28.43282890
H       23.78788567      19.74627495      29.88729477
H       22.51183891      19.87380409      28.63974571
H       23.00781250      17.58753777      30.68251991
H       21.57204056      18.59363174      30.59504509
H       18.17984009      16.98447227      28.09770966
H       18.54058266      15.73231888      26.84178543
H       18.63518715      17.48350334      26.45653725
C       21.28638458      28.81943512      12.02059078
C       20.23751259      27.72106934      11.77558804
O       18.97182465      28.36303902      12.01568890
C       18.03179932      27.62654114      12.68419170
O       18.17163658      26.45556831      12.98627090
O       16.99905968      28.43445778      12.92743111
C       15.88916016      27.88683128      13.67481518
H       21.08027649      29.65845680      11.34440327
H       22.29949951      28.43614769      11.85428715
H       21.19714546      29.18430138      13.05189037
H       20.28041840      27.29887199      10.75763988
H       20.34572411      26.87588310      12.46514606
H       15.89479923      26.79780006      13.62749004
H       14.96008205      28.24788666      13.21027756
H       15.91529369      28.20647621      14.72040272
C       28.01646233      14.14944649      11.24801445
C       26.69728661      14.92397690      11.16741276
O       26.40044975      15.57181454      12.43236446
C       25.75857925      14.82981110      13.34897518
O       25.37243080      13.68130589      13.20416737
O       25.59215355      15.55930424      14.47824669
C       24.93089485      14.85231495      15.54437828
H       28.83292198      14.81662273      11.53088188
H       28.26321793      13.73174381      10.26219463
H       27.94345856      13.31301498      11.94847584
H       26.77360916      15.71992683      10.41574192
H       25.85518265      14.27329063      10.90149307
H       23.84645844      14.79506683      15.36551857
H       25.10303497      15.37780285      16.48635101
H       25.30774689      13.82215786      15.61311054
C       12.11453819      40.82983780      18.01950264
C       13.07502842      40.68667984      16.82556534
O       14.42371559      40.56312943      17.34161949
C       14.86283684      41.64786911      18.02172089
O       14.48179054      42.80384445      17.86478424
O       15.80198383      41.26336670      18.90476036
C       16.58764648      42.30505753      19.49465752
H       12.24750519      40.01216125      18.73369980
H       11.08190823      40.81237411      17.64904404
H       12.26795673      41.78874207      18.53265953
H       12.88699532      39.78878403      16.21959305
H       13.00515079      41.56921768      16.17152023
H       16.89227867      43.02196884      18.72203827
H       17.46298599      41.83330536      19.94949150
H       16.04039574      42.85566711      20.27095985
C       20.71109772      12.45925140      36.71287537
C       19.75585365      12.56116772      37.91259766
O       18.41392136      12.69456959      37.41239929
C       17.82363892      13.90654278      37.43824387
O       18.21931458      14.89008522      38.04928589
O       16.71310616      13.84665966      36.69622803
C       15.94586468      15.06697941      36.62368011
H       20.47199249      11.59302998      36.08930969
H       21.73635292      12.35711384      37.08060455
H       20.61833382      13.35558510      36.09200668
H       19.79808617      11.65460205      38.52551651
H       19.99817848      13.40728092      38.57160950
H       16.21827507      15.74316120      37.44204330
H       14.89082050      14.80303001      36.71822739
H       16.11959076      15.55897522      35.65711212
C        6.46923637      32.37378311      41.96570969
C        6.22962093      33.88747025      41.79045868
O        4.92838192      34.15182114      41.22555542
C        4.78577185      33.81697464      39.93537521
O        5.66237640      33.40177536      39.20116806
O        3.50228620      33.99354553      39.55180740
C        3.31401753      33.74643326      38.13614273
H        5.70996380      31.93694687      42.62530899
H        7.46248341      32.22721100      42.41220093
H        6.43692923      31.85376930      41.00371933
H        6.23132801      34.41434479      42.75834656
H        7.01312876      34.31797409      41.14974594
H        3.79159451      34.55021667      37.56442261
H        2.23203969      33.73552704      37.96894455
H        3.73880100      32.78948975      37.81738663
C       27.56052780      36.93898392      27.63110733
C       26.53201294      35.87792206      27.19285202
O       25.77879333      36.32571411      26.04788208
C       24.77451515      37.18277740      26.28161240
O       24.44018364      37.63866043      27.36157990
O       24.16769791      37.45561600      25.10857201
C       23.00908089      38.30807495      25.20389175
H       28.22777367      37.19462204      26.79785919
H       28.15488815      36.56816864      28.47502327
H       27.04201508      37.84275055      27.98157310
H       27.01621628      34.94313812      26.87810898
H       25.85410881      35.65256119      28.02569962
H       22.16667175      37.76883316      25.65230560
H       22.74622917      38.58997726      24.17852020
H       23.22020531      39.19328308      25.82194901
C       11.71768951      37.84233093      40.68151474
C       11.82027054      39.28289413      41.23282623
O       10.60152245      40.00415421      41.02919006
C       10.23477459      40.23917389      39.76559067
O       10.93734932      40.17353821      38.76953125
O        8.93628120      40.61694717      39.77522278
C        8.33626080      40.89504242      38.50008392
H       10.92827797      37.28637695      41.20116425
H       12.67910862      37.32496643      40.82312393
H       11.49312401      37.82580566      39.60941315
H       11.96299648      39.28689194      42.32497787
H       12.66001034      39.80585098      40.75136948
H        9.06527424      41.32097626      37.80392456
H        7.53928375      41.61960602      38.69760895
H        7.90880585      39.98959732      38.05528259
C       26.48259163      29.99787903      15.01297379
C       26.86560440      31.20493317      15.89548302
O       25.75395966      31.84192657      16.54809761
C       24.89781952      32.50141144      15.72623444
O       24.88477325      32.46120834      14.50457478
O       24.05480766      33.22111511      16.50721931
C       23.05182076      33.93498993      15.78183651
H       25.93537903      29.24777794      15.60732937
H       27.41853142      29.58267403      14.60326862
H       25.84534073      30.30278206      14.17035198
H       27.49484253      30.85806084      16.72929764
H       27.41448021      31.94025230      15.28625011
H       23.30597305      35.00204468      15.75243855
H       22.09483337      33.77896118      16.29524612
H       22.98036957      33.55134964      14.75249195
C        6.40805149      27.37911987      12.69263840
C        7.26082039      28.48199081      12.06721020
O        8.57656956      28.42306519      12.64028835
C        9.04494858      29.49118423      13.31297874
O        8.49589634      30.57589722      13.46897030
O       10.24983406      29.15283775      13.82840824
C       10.85969067      30.10091591      14.71472931
H        6.82013702      26.38144112      12.49343014
H        5.38943148      27.43581200      12.28055191
H        6.33948803      27.53589439      13.77684975
H        7.35096550      28.39448166      10.97151470
H        6.81006050      29.46126175      12.28785133
H       10.42329597      31.09573364      14.55384064
H       11.93564987      30.10594749      14.49981880
H       10.71197224      29.80083656      15.76129532
C       27.10221672      12.96361923      35.89476776
C       28.05051422      13.36104488      37.02454758
O       27.38785553      13.91338444      38.19649506
C       27.00648499      15.18607712      38.10549927
O       27.10332489      15.89557838      37.09368515
O       26.48523331      15.59204483      39.27062988
C       26.00556946      16.94223213      39.30561066
H       26.45240402      12.12218761      36.16016388
H       27.69824982      12.63969994      35.03295898
H       26.46920967      13.80638599      35.59405136
H       28.59278297      12.48358727      37.39102554
H       28.77828026      14.09276581      36.64890289
H       26.83660507      17.64553261      39.41238785
H       25.32610703      17.00817299      40.16186905
H       25.46718407      17.18885040      38.38239670
C       32.92423630      21.99355125      36.97725296
C       34.31901550      21.47520638      36.59867859
O       34.29054260      20.65135193      35.41213226
C       33.68237686      19.44601059      35.34391403
O       32.61607742      19.13829613      35.84797668
O       34.37635803      18.68992233      34.43273926
C       34.02794266      17.31317711      34.23025513
H       32.51177216      22.64710999      36.19562531
H       32.98434067      22.56023979      37.91350555
H       32.22666931      21.15930939      37.10179138
H       34.99045181      22.30106354      36.32217026
H       34.76850128      20.89922142      37.41556168
H       34.83740234      16.69593620      34.63441849
H       33.90711594      17.12615967      33.14989471
H       33.10596848      17.05618095      34.77703857
C       34.78052902       3.58444357       4.66091585
C       36.13117981       3.56470013       5.39828491
O       36.59498596       4.90571737       5.68053389
C       37.23552704       5.51188183       4.67197371
O       37.36191177       5.09226084       3.53434587
O       37.71904755       6.68285179       5.11640596
C       38.40086365       7.45131922       4.10084295
H       34.03437424       4.13852978       5.23995113
H       34.42776489       2.55502987       4.52642775
H       34.87363815       4.04407454       3.67129946
H       36.01968765       3.11881518       6.39178562
H       36.89674759       3.00479078       4.85353518
H       39.26975632       6.90090752       3.71791720
H       38.71720886       8.35950375       4.62398243
H       37.72244263       7.69852924       3.27396822
C       24.46490860      31.93952179      31.77425766
C       25.80437851      32.66192627      31.66463852
O       26.84637260      31.70529175      32.00287628
C       27.55600166      31.97936058      33.12307739
O       27.55708504      33.02682495      33.74489975
O       28.30021477      30.87846947      33.44245529
C       28.86430168      30.87630272      34.76189804
H       24.40866280      31.12482071      31.03975868
H       23.61861038      32.60978317      31.55887794
H       24.33895111      31.52897263      32.78509521
H       25.98284721      32.98601151      30.62360382
H       25.87818336      33.53355789      32.33569717
H       29.12149239      31.89480782      35.07835770
H       29.75856781      30.23955917      34.73972702
H       28.14072227      30.45074463      35.47382355
C       41.18967438       2.70053649      29.46838760
C       39.87796783       3.35315990      29.97697639
O       39.66919708       4.60009432      29.29158211
C       40.16706085       5.69933128      29.90849304
O       40.70055771       5.76493120      31.00273895
O       39.93147278       6.75221252      29.09040833
C       40.35757446       8.00739956      29.67474747
H       41.17675400       2.58314967      28.37739563
H       41.32002640       1.71226299      29.92148590
H       42.03950500       3.32720733      29.75766373
H       38.98697662       2.74846506      29.77204323
H       39.92921829       3.54808283      31.05490112
H       40.03944016       8.07816792      30.71879387
H       39.87148666       8.78405476      29.07121086
H       41.45125961       8.09123135      29.63684273
C       16.29919624      36.07503891      15.55467319
C       15.04411316      36.31452179      16.42482376
O       14.59003162      35.08810425      17.03338432
C       14.10008717      34.13764954      16.19039726
O       14.26430511      34.08309555      14.98166466
O       13.42609501      33.25619125      16.97740555
C       12.86449242      32.13357925      16.27997208
H       17.12818718      35.71685410      16.16835403
H       16.57348061      37.03681946      15.10665131
H       16.10897255      35.34498215      14.75787258
H       15.24784660      36.96379852      17.28895378
H       14.22962666      36.76671219      15.83523750
H       11.77429199      32.25914383      16.20734596
H       13.09973621      31.24015999      16.87063789
H       13.27741432      32.02986526      15.26309586
C       35.82985687      18.34501266      27.91097069
C       35.52878952      17.45982552      29.13103485
O       34.53701782      16.48548508      28.71579933
C       33.42665100      16.30636597      29.46840858
O       33.08818436      16.99549294      30.42675591
O       32.79483795      15.18940258      29.01312447
C       31.38228416      15.16425037      28.77924156
H       36.26865005      17.77959442      27.07469368
H       36.50671768      19.15482140      28.20798874
H       34.89722824      18.78135872      27.52439499
H       36.42105103      16.91006279      29.47456360
H       35.13148880      18.03980637      29.98048782
H       30.80945206      15.45855904      29.66802216
H       31.14295769      14.12753677      28.51258087
H       31.10158157      15.82224274      27.94245720
C        1.24412274      11.68946362      22.37894058
C        2.49492550      11.06473160      21.73788261
O        3.70988131      11.51641941      22.38909149
C        4.13370609      12.77757263      22.18399620
O        3.60389733      13.62263107      21.47033691
O        5.26378918      12.95118141      22.90247917
C        5.98233747      14.18476582      22.70602036
H        1.11818421      11.44622231      23.44108582
H        0.39205456      11.27891731      21.81579399
H        1.24161553      12.78123951      22.23940849
H        2.52679300       9.97161961      21.84841156
H        2.52933741      11.32818985      20.66890144
H        6.31151104      14.27470779      21.66044617
H        6.85441923      14.14182568      23.36879349
H        5.36425304      15.05126858      22.96547127
C        2.05643034      11.90124607      10.65177917
C        1.58376956      12.72632694       9.44577503
O        2.71873331      13.38879108       8.85163403
C        3.01046324      14.61065388       9.35050488
O        2.33049846      15.26265526      10.11899567
O        4.20710611      15.00786877       8.88097286
C        4.66701841      16.23346901       9.48144817
H        2.83230996      11.18401909      10.37613583
H        1.19608855      11.35573769      11.05043507
H        2.43767667      12.54798603      11.45252132
H        1.11410677      12.11671925       8.65981102
H        0.84732872      13.46819592       9.77384663
H        3.96197438      17.04683304       9.27040005
H        5.65587139      16.45898438       9.06210899
H        4.74999809      16.13300896      10.56967354
C       23.60507202      38.47481537      40.16584396
C       25.00437546      38.41997147      40.80390549
O       26.01692772      38.13872528      39.83100891
C       26.19593430      36.84741974      39.44046783
O       25.39814377      35.94679642      39.64603043
O       27.39397049      36.72184372      38.80820847
C       27.81977654      35.39005661      38.47870255
H       23.52839470      39.17454910      39.32890320
H       22.87455177      38.74313736      40.93791962
H       23.33670044      37.48847198      39.78639984
H       25.27589989      39.38832855      41.24966049
H       25.02694893      37.66318893      41.59523392
H       28.49665070      35.01344299      39.25775146
H       28.32787704      35.41157150      37.50774384
H       26.94418907      34.73598862      38.40810394
C       15.20264435      19.56040955      31.50944519
C       13.89019966      20.06782532      32.13447952
O       13.55256939      21.40503502      31.69775581
C       13.70567608      22.43657112      32.56492996
O       14.43939495      22.46288300      33.54294968
O       12.98857021      23.51053238      32.11369324
C       12.96711826      24.63233566      33.02192307
H       15.21562099      19.59291840      30.41344833
H       15.35008144      18.50503540      31.77260208
H       16.05942345      20.13358688      31.87772942
H       13.03784370      19.44564247      31.81663322
H       13.93812656      20.03767586      33.23433685
H       12.60019016      24.35072899      34.01692963
H       12.29025745      25.36819077      32.56973648
H       13.96757984      25.06129837      33.17520523
C       33.65607834      27.89727020      35.90682983
C       34.69395065      28.77248192      36.60007095
O       35.81707382      27.91184044      36.90166092
C       36.21508408      27.76132202      38.16312027
O       35.85852051      28.38432503      39.14793396
O       37.10749435      26.73801231      38.15719223
C       37.22397995      25.90182114      39.30578232
H       34.07063293      27.46240044      34.98993683
H       32.78180313      28.49556160      35.62208176
H       33.33885574      27.08071709      36.56312561
H       35.04298782      29.55134583      35.90056992
H       34.32105255      29.23857689      37.52248383
H       37.00535965      26.44517517      40.23339462
H       38.24973679      25.50963593      39.33286285
H       36.51726913      25.06861877      39.20038605
C       18.68492508      30.40210342      29.45690536
C       19.20440102      31.50558662      30.38373566
O       19.87814903      30.99168777      31.55964470
C       19.07089424      30.35402298      32.45354843
O       17.88752556      30.14884186      32.32237244
O       19.82635117      29.99878502      33.53453445
C       19.12667084      29.24516296      34.54264069
H       19.50100708      29.91991615      28.91354370
H       18.02449417      30.80370140      28.67730331
H       18.12041855      29.64561462      30.01256752
H       19.97379112      32.08094788      29.84854126
H       18.42122841      32.19712448      30.72587776
H       18.63535118      29.90629768      35.27529907
H       19.85240173      28.58975220      35.04002762
H       18.35590744      28.61205673      34.08067322
C       37.49209976      35.11104584      12.03938675
C       38.94595718      35.07858658      11.53733253
O       39.58610916      36.36547089      11.74235630
C       39.17324829      37.41328812      11.01789856
O       38.35725784      37.42087936      10.11009216
O       39.81793976      38.50276947      11.50678349
C       39.72394943      39.65579605      10.64780998
H       37.41289520      35.43887329      13.08274174
H       37.09804535      34.09329224      11.96459198
H       36.87664032      35.76140213      11.40561485
H       39.55469894      34.37842560      12.12287235
H       39.01075745      34.77457428      10.48234081
H       40.27493668      39.47552872       9.71262264
H       40.16603088      40.47699738      11.22229576
H       38.67720795      39.86706161      10.40232944
C        5.08497143      23.03324509       4.85503864
C        3.84303617      22.54840469       5.62409878
O        3.95288563      22.94465256       7.01778126
C        4.60424805      22.08339882       7.82069921
O        4.97895908      20.97516441       7.49046469
O        4.78171778      22.62708092       9.04112434
C        5.38696766      21.76621246      10.04015827
H        5.18879414      24.11469269       4.98931694
H        4.99995279      22.78427696       3.79067612
H        5.98861742      22.54191971       5.22663212
H        2.91922688      23.01687431       5.25737476
H        3.74636793      21.46042252       5.53696823
H        4.82423878      20.82650185      10.11881542
H        5.34750700      22.32002258      10.98948002
H        6.42592192      21.51782417       9.78425789
C       34.09862137      23.48847008      13.29706860
C       32.81323624      24.00223923      12.63439751
O       33.01365280      25.41294479      12.41216183
C       32.05931473      26.28571892      12.84536934
O       30.91306877      26.00489616      13.11993122
O       32.60026932      27.53146553      12.82322407
C       31.75453377      28.55853653      13.37881374
H       34.96662903      23.63989639      12.63687038
H       33.97858047      22.41727066      13.49820328
H       34.27183533      24.04536247      14.22476101
H       32.58585358      23.50744438      11.66685200
H       31.93120384      23.86115456      13.28014088
H       30.73217392      28.17319679      13.49805260
H       31.76122284      29.41783714      12.69473171
H       32.11721039      28.85689926      14.37081146
C       20.32843018       2.26648140      24.13212967
C       19.55159187       3.18493795      25.08920479
O       19.20105553       2.39212084      26.24874878
C       17.91867638       2.41507053      26.65993309
O       17.01574707       3.06486797      26.17412949
O       17.81770515       1.55691707      27.71655083
C       16.49664307       1.31533062      28.21364594
H       21.23533058       1.87832129      24.61155891
H       20.60867119       2.85209894      23.23936844
H       19.71795464       1.41648257      23.80202484
H       20.15037155       4.04814434      25.41975212
H       18.62553406       3.55017853      24.61622429
H       15.83409500       2.16627216      27.99097252
H       16.57680511       1.16412258      29.29742813
H       16.07196617       0.41392395      27.75102806
C       27.68501091      22.78956032      20.07689857
C       29.03491020      23.04944229      19.39688873
O       28.93635178      24.13566208      18.43397903
C       28.65778160      23.81637192      17.15202141
O       28.09961510      22.79786301      16.77588654
O       29.06541061      24.81103897      16.32645607
C       28.92378616      24.51776314      14.92364597
H       27.24680710      23.68180847      20.54611206
H       27.80655479      22.04117775      20.86689949
H       26.96666527      22.40099525      19.33876991
H       29.81316185      23.37066078      20.10548973
H       29.39883041      22.15875816      18.85575676
H       29.63563156      23.75513649      14.57544518
H       29.12516022      25.45063019      14.38330460
H       27.92296600      24.12439919      14.69398975
C       19.14002037      30.45249748       2.55159140
C       19.52048302      31.61562538       3.48459411
O       18.56692696      32.69106293       3.46583891
C       18.73338509      33.66540527       2.56178308
O       19.54341125      33.69922638       1.64517152
O       17.80311394      34.60963058       2.82548094
C       17.89996910      35.79910278       2.02663040
H       18.16526794      30.03269196       2.82691145
H       19.90219688      29.66777802       2.64466643
H       19.10999870      30.76849747       1.50138223
H       19.55430984      31.29134941       4.53330421
H       20.50739670      32.00590134       3.20630240
H       18.83349037      36.32221222       2.26195002
H       17.02715492      36.40441132       2.30055070
H       17.88818932      35.55673599       0.95483959
C       41.24472809      36.44857788      16.88378906
C       40.48827744      36.04320526      15.61124229
O       39.07272720      36.36055756      15.70336628
C       38.27204132      35.41222763      16.22469711
O       38.63434982      34.45866013      16.89127541
O       36.99694443      35.67678070      15.86589909
C       35.99649429      34.79164505      16.40381050
H       41.15380096      37.52552032      17.07773590
H       42.30249405      36.18652344      16.77495384
H       40.84697342      35.92130661      17.75681877
H       40.85080719      36.60091019      14.73451424
H       40.60388565      34.97365570      15.39695168
H       35.82896042      33.92422485      15.75836754
H       35.06636429      35.36205673      16.48871231
H       36.28654099      34.44758606      17.40043640
C       15.60354519      24.33074379      24.69770241
C       16.23546600      25.11914825      25.84958267
O       16.33729362      26.48904991      25.40015602
C       17.57513046      27.02846146      25.34424210
O       18.61891174      26.54447174      25.72673035
O       17.44496155      28.27182961      24.76869202
C       18.70820236      28.90529442      24.52244759
H       14.76407146      24.89771271      24.27568626
H       15.22303391      23.35938263      25.03530693
H       16.29687309      24.15201187      23.87117004
H       15.60925579      25.13554382      26.74713707
H       17.22616959      24.75335503      26.16015434
H       19.50647545      28.48182487      25.14761734
H       18.58927917      29.97150040      24.74088097
H       19.01035118      28.76509094      23.46974182
C       38.79313278      17.26506042       9.21727848
C       38.11325836      17.19802094       7.83612299
O       37.80831909      18.54617691       7.43923855
C       36.50239182      18.93657875       7.48160934
O       35.53483582      18.19948387       7.48530388
O       36.46739197      20.28092194       7.51685190
C       35.17285538      20.90929985       7.56146717
H       39.62024689      17.98621368       9.21420860
H       39.17114258      16.27806664       9.49977398
H       38.07804489      17.59931755       9.98044109
H       38.78175354      16.75120926       7.07615423
H       37.19054413      16.60259247       7.86964512
H       34.37935638      20.15533447       7.50769663
H       35.09698868      21.60552025       6.71501160
H       35.05365753      21.44074059       8.50853729
C       25.56933594      33.79345703      19.61064148
C       24.89354134      35.14509964      19.40496254
O       25.92052841      36.14157867      19.12289429
C       26.28760338      36.99790192      20.08560753
O       25.90995216      37.03071594      21.24637794
O       27.17559433      37.87559891      19.54785919
C       27.69376945      38.84229660      20.46772385
H       26.15521240      33.47622681      18.73765945
H       24.80395699      33.01713181      19.76803207
H       26.20049858      33.86206055      20.50485611
H       24.22346687      35.14445877      18.52742386
H       24.32512283      35.46854782      20.28816414
H       26.88657761      39.41241455      20.95222092
H       28.31921577      39.51100922      19.86245918
H       28.29713821      38.35993576      21.25344467
C       24.53495598      34.14720535      34.69800186
C       23.35995483      34.72527313      33.88422394
O       23.90996361      35.30027771      32.67769623
C       23.80955505      36.65110779      32.48220444
O       23.10884666      37.42869568      33.08275223
O       24.58816719      36.93967819      31.38834953
C       24.55468559      38.31973648      30.99421501
H       24.67246056      33.07646942      34.49335480
H       24.36489677      34.27440262      35.76959991
H       25.45752907      34.66925049      34.43074036
H       22.64822388      33.94771194      33.51908875
H       22.78380966      35.49794006      34.42018509
H       23.73035240      38.82525253      31.50884247
H       24.39793777      38.35403824      29.90574455
H       25.50669098      38.79212189      31.27420998
C       34.47541809       9.71480560      38.47801208
C       35.24517059       9.44623661      39.77735901
O       35.62026978      10.66779804      40.45740128
C       36.70699310      11.29088593      39.94919586
O       37.24009323      11.04341221      38.88288498
O       37.08148575      12.25775528      40.81035995
C       38.18535995      13.06572628      40.35582733
H       33.50073624      10.17588520      38.67800903
H       34.30290985       8.78013802      37.93789291
H       35.05982590      10.38040257      37.83872223
H       34.63198471       8.90983009      40.50906754
H       36.13611221       8.84299469      39.58268738
H       39.08500671      12.44349098      40.25677109
H       38.33563614      13.82609749      41.12764359
H       37.96590042      13.54065895      39.39450455
C       12.95408344      17.33342171      10.04846478
C       12.58827400      18.36114120       8.97992229
O       11.69052792      19.34232903       9.55832481
C       10.54353809      19.53197861       8.85605621
O       10.10280323      18.81731606       7.97098017
O        9.89206696      20.66579628       9.28774834
C        8.79194546      20.97932625       8.42080879
H       13.51433277      17.77611923      10.88210773
H       13.57818604      16.54081154       9.60393333
H       12.04964066      16.85420799      10.44666195
H       13.47830200      18.89673996       8.60842419
H       12.10537338      17.89499855       8.10012817
H        9.07553005      20.88511658       7.36523485
H        8.50693703      22.01666641       8.62801361
H        7.94398022      20.29736900       8.57577705
C        7.49682426      41.59207535      13.32734966
C        7.56515026      40.49927902      12.24549866
O        6.32979202      40.54300690      11.47353458
C        5.37710714      39.65658951      11.79680824
O        5.47882986      38.69874573      12.54327679
O        4.23268270      40.01563644      11.15987015
C        3.06930423      39.22811508      11.47341251
H        7.37920713      42.57697296      12.85635185
H        8.39200687      41.59497452      13.95861816
H        6.63256550      41.41883087      13.97436142
H        8.38109207      40.67288589      11.53009415
H        7.67310333      39.50148773      12.68185234
H        3.30793715      38.16218185      11.40874863
H        2.29010653      39.48423004      10.74925995
H        2.75044870      39.44059753      12.49829578
C       20.13783455      22.35811996       7.98848820
C       20.43184280      20.87170029       8.26542759
O       19.18595695      20.14719200       8.45664883
C       18.60231400      20.27867126       9.67116356
O       18.96308327      21.01629639      10.57588673
O       17.50740051      19.46540260       9.72467327
C       16.84387016      19.50325394      11.00552368
H       19.33064651      22.43150711       7.24955845
H       21.04356766      22.83399773       7.60275745
H       19.79865265      22.87610054       8.89607430
H       20.92704964      20.36739159       7.42287254
H       21.06508064      20.75260925       9.15398121
H       17.41142654      18.98106575      11.78680420
H       15.86489964      19.02964592      10.87429714
H       16.69690132      20.53570747      11.34111404
C        7.78844833      25.80685997      36.77496338
C        7.75421619      24.29131508      36.99044418
O        7.55385113      24.05646133      38.41078186
C        8.62028217      23.64999962      39.12022400
O        9.71790600      23.35540009      38.66564178
O        8.32375050      23.63418770      40.44249725
C        9.42023754      23.36964798      41.32138062
H        6.88911152      26.27394485      37.19474792
H        7.80137396      25.99831581      35.69559097
H        8.66460419      26.25892448      37.25384521
H        6.91310549      23.82356644      36.45771027
H        8.68003368      23.81977463      36.63835144
H       10.13869095      22.67025375      40.87966156
H        9.01876926      22.93351746      42.24171829
H        9.95794678      24.30065918      41.55972672
C       11.69879436      29.07683754      23.05062103
C       12.45036316      29.87741470      24.14036751
O       11.71410942      31.06855202      24.46313858
C       11.82238865      32.07397842      23.54587173
O       12.58359241      32.06649780      22.59501648
O       10.90210629      33.01864243      23.83727646
C       10.71669102      34.00380707      22.78890610
H       10.71471024      28.76233482      23.41141129
H       12.27799892      28.19121170      22.76877213
H       11.55058956      29.68487167      22.15053558
H       12.54075432      29.32819748      25.08802795
H       13.45199966      30.13470459      23.76365662
H       11.68034935      34.27296829      22.33887100
H       10.24402332      34.87279510      23.25661659
H       10.08048439      33.60333252      21.98683167
C        1.81065881       4.59451437      31.72932434
C        2.29420447       3.75770998      32.92021561
O        2.24935460       4.48307943      34.16008377
C        3.33950520       5.18596649      34.50180817
O        4.19424391       5.61914253      33.74502945
O        3.29172087       5.45374489      35.83943176
C        4.38000917       6.23682594      36.31658173
H        0.77093118       4.91201115      31.84603310
H        1.86882532       3.97928381      30.81888580
H        2.46651363       5.46553898      31.60822105
H        1.64330602       2.89223409      33.06552124
H        3.32669044       3.43041325      32.75910187
H        5.33361626       5.70729780      36.20637131
H        4.20565701       6.44035196      37.38003540
H        4.46354103       7.17540455      35.75569534
C       10.76422215       7.93049049      18.81229019
C        9.36786842       8.48476315      19.13529778
O        8.47045040       8.40470695      17.99721909
C        8.49592590       9.48330307      17.17235565
O        9.25464821      10.43093014      17.29317284
O        7.55381632       9.36350060      16.20349121
C        7.54620790      10.46654034      15.27727032
H       10.73576546       6.87270355      18.52318573
H       11.40171909       8.03987885      19.69539452
H       11.19588375       8.48578835      17.96889305
H        8.86144257       7.94490004      19.94648552
H        9.44132900       9.54140091      19.43882179
H        7.34051228      11.40646935      15.80040836
H        6.73836756      10.26464558      14.56364918
H        8.50419998      10.55699635      14.75733471
C        2.21001530      33.37339401      22.78634644
C        1.46371257      33.30577850      24.13203049
O        1.74922585      34.47423935      24.93439674
C        2.84277391      34.41101074      25.69984245
O        3.56242871      33.43102646      25.84520531
O        3.02612782      35.59537888      26.31696892
C        4.17410564      35.63135147      27.18234825
H        1.91592014      34.27471542      22.23791695
H        1.95798874      32.50842285      22.16504860
H        3.28889632      33.35224152      22.95852852
H        0.37596980      33.29264069      24.00666809
H        1.75812697      32.40993881      24.68975449
H        4.06824684      34.91388321      28.00482941
H        4.23625183      36.64206696      27.59353638
H        5.09012699      35.38756943      26.63195419
C       18.41780472      27.78593063      17.85501289
C       18.26259422      29.26126862      17.50776291
O       18.73788643      30.15155411      18.55170250
C       18.31484032      30.09259605      19.82578087
O       17.59648132      29.26658440      20.35756111
O       18.81789780      31.18806458      20.48133469
C       18.36639786      31.43729401      21.81230736
H       19.44154167      27.57839394      18.17708206
H       18.18609047      27.17586136      16.97290993
H       17.70222855      27.50024033      18.63162994
H       18.85653114      29.51316833      16.61670685
H       17.20974731      29.51331329      17.29710197
H       17.49851418      32.11390686      21.78835297
H       19.16388130      31.93550301      22.38032913
H       18.04897690      30.50344467      22.30061340
C       16.66874123      12.88221931      15.65457249
C       15.59047318      13.89446926      16.05998230
O       14.30879879      13.26817417      15.98759174
C       13.77547932      13.01601505      14.76424599
O       13.79611874      13.75530434      13.78535843
O       13.15411282      11.83434868      14.85220623
C       12.21157074      11.38706017      13.87311745
H       16.58827400      11.95894432      16.24406624
H       17.66589928      13.31681824      15.77303982
H       16.54958916      12.58412647      14.60009384
H       15.69140148      14.25316811      17.09446716
H       15.59776306      14.76707840      15.39219093
H       11.48860455      12.17003250      13.60025787
H       11.69445133      10.54061317      14.34552956
H       12.68597412      11.03244019      12.94204521
C       35.16990662      18.25291824      16.19644547
C       33.76181030      18.48634529      16.78108025
O       32.90749741      17.48437119      16.22192001
C       32.62614822      17.71048546      14.89956760
O       32.61166000      18.80723572      14.38606739
O       32.34332657      16.52995300      14.29772472
C       31.83081055      16.65634155      12.95798206
H       35.51206589      17.23761749      16.41778183
H       35.84117126      19.00496101      16.61795235
H       35.10741425      18.36083412      15.10522938
H       33.69867706      18.40737915      17.87762642
H       33.38905716      19.48275757      16.48768616
H       31.71406937      17.71685791      12.69365406
H       30.85860252      16.14153481      12.90986443
H       32.51401520      16.15825081      12.24921799
C       28.43933296       8.40180302      17.48399734
C       27.45287895       9.26216888      18.26676369
O       26.85784531       8.44953156      19.30756569
C       25.88938904       7.64161396      18.81808662
O       25.07486153       7.96356821      17.95230675
O       25.90727425       6.44605923      19.43549538
C       24.73659897       5.66054821      19.12932205
H       29.29378128       8.04867935      18.07743263
H       28.77599144       8.92160034      16.57310867
H       27.91896629       7.48982096      17.13769341
H       27.85421562      10.13386250      18.80111122
H       26.66683006       9.63415146      17.59369087
H       23.84054184       6.29289579      19.16438103
H       24.66399384       4.91187286      19.91427231
H       24.79260063       5.18564367      18.13765144
C       18.44570160      18.18006516      18.88139915
C       17.62231064      17.99059868      17.59908485
O       17.83963966      19.13090134      16.74830055
C       16.90179253      20.10271645      16.73151016
O       15.75322533      20.01486778      17.12247467
O       17.44899559      21.20259285      16.16510582
C       16.66045761      22.41296005      16.28889084
H       19.52072334      18.21343613      18.67232323
H       18.24651718      17.36896896      19.59088326
H       18.17588615      19.12737465      19.36394310
H       17.91068268      17.10116577      17.01404762
H       16.54631233      17.90909004      17.81079865
H       15.59678841      22.20682144      16.11269379
H       17.03713608      23.12575912      15.54869366
H       16.72652245      22.83569908      17.29690361
C       10.00817680      25.85808182      19.40894699
C        9.02344513      26.83247375      18.74694061
O        9.56160927      28.16841125      18.90748596
C        8.96920967      29.00685883      19.78242683
O        7.93501568      28.82023048      20.39811897
O        9.68290329      30.15759468      19.84650230
C        9.09914494      31.16835403      20.69873619
H       11.01581192      25.95570564      18.98802757
H        9.66732121      24.82388306      19.29499817
H       10.06462288      26.08571815      20.47605133
H        8.90936852      26.64931870      17.66422272
H        8.02609062      26.77788353      19.20548058
H        8.01503849      31.23880386      20.53144264
H        9.63892555      32.09478378      20.45948982
H        9.23893070      30.93662071      21.76525116
C        4.25020456      38.19361115      19.21684456
C        5.33889723      38.39438248      18.14772797
O        6.49967670      37.65582657      18.56438446
C        7.44710112      38.35150146      19.24279785
O        7.56486464      39.56890106      19.27730560
O        8.23193169      37.45621109      19.88486671
C        9.35618782      37.99661636      20.58044243
H        3.97373486      37.14126587      19.27851677
H        3.35372043      38.77318192      18.96695328
H        4.62254953      38.52528381      20.19117928
H        5.03739452      38.00976181      17.15475845
H        5.58895159      39.46504593      18.05027771
H        9.66943264      38.94363403      20.11639786
H       10.16182232      37.25474167      20.52816200
H        9.14690971      38.19142151      21.63856697
C       11.39399815      13.03420258      17.39812088
C       10.85401154      13.96363544      16.32221794
O       11.83465004      14.98245811      16.00888824
C       12.08255577      15.92325878      16.95793343
O       11.37211800      16.17090225      17.92323875
O       13.22853661      16.57619667      16.64226723
C       13.41989708      17.81316376      17.33850098
H       12.20074177      12.40398216      17.01669693
H       10.57210445      12.36084557      17.66381264
H       11.72279072      13.57774925      18.29596710
H       10.66126537      13.42824554      15.37935066
H        9.90426826      14.45021915      16.59829712
H       12.61069489      18.51135445      17.08431053
H       14.37651062      18.22510719      16.98661995
H       13.42518330      17.68246460      18.42701149
C       34.02648544      26.71018600      20.84856796
C       35.41160965      26.37307930      20.31509781
O       35.40934372      24.95577049      19.94452667
C       36.04634476      24.11368561      20.76059723
O       36.81328201      24.38661003      21.67335129
O       35.70622635      22.84662056      20.37994385
C       36.14513016      21.83722687      21.29646111
H       33.26273727      26.55005264      20.07592010
H       33.93741608      27.75241089      21.17659950
H       33.80361176      26.06422234      21.69804001
H       35.65433121      26.90658951      19.37387085
H       36.21150589      26.52918243      21.05165100
H       37.20551682      21.95631218      21.55672646
H       35.93061447      20.88212395      20.79630661
H       35.55551529      21.86553383      22.22373962
C       34.86020660      14.51779556       6.84741640
C       34.36070633      13.15456200       7.35119915
O       35.15188599      12.09838772       6.81096268
C       35.01980972      11.84431362       5.49622965
O       34.20983505      12.36044598       4.74097013
O       35.92387009      10.90288639       5.11567974
C       35.60495377      10.23107147       3.89062452
H       35.91658401      14.67221165       7.08144283
H       34.28702927      15.33914185       7.29404974
H       34.72700882      14.56303978       5.75863409
H       34.43800735      13.08349991       8.44397163
H       33.30419922      12.99535561       7.09364891
H       34.63866043       9.73642159       4.00488806
H       36.38281250       9.47538471       3.73264813
H       35.54524994      10.92545509       3.04058480
C       28.84718132      13.29627132      30.00108528
C       27.73738861      13.30155087      31.05349541
O       27.84469604      12.11519432      31.85589027
C       27.43401527      10.98625183      31.20349503
O       26.82173157      10.93380451      30.15370941
O       27.76998901       9.93129921      31.98786354
C       27.09525490       8.72068977      31.64881134
H       29.82616806      13.17775536      30.47548676
H       28.80796242      14.22379112      29.41530037
H       28.72212029      12.44657993      29.31729126
H       27.76541901      14.13656330      31.76408577
H       26.73839951      13.30368137      30.58381271
H       26.01411819       8.85681915      31.80785179
H       27.48486900       7.94773149      32.31763458
H       27.22449112       8.43554878      30.58538628
C       13.23647022      16.46644402      33.64361572
C       11.95193481      16.00518990      34.36361313
O       11.36937046      17.06199265      35.15184021
C       11.98508453      17.32951927      36.31293488
O       13.05601692      16.86677742      36.68207169
O       11.25733757      18.22827530      37.03158951
C       11.84752560      18.67177391      38.26270294
H       13.00238037      17.28491402      32.94618225
H       13.65509224      15.61861420      33.08398819
H       13.99359703      16.79637527      34.36124802
H       11.17339706      15.71584702      33.64463043
H       12.18169785      15.15386486      35.01285934
H       11.84130383      17.86361313      39.00646210
H       11.24892998      19.52773285      38.59511566
H       12.88202381      19.00462532      38.09844589
C        9.50680065      23.09234428       2.47138667
C        9.88288593      23.01193619       3.96280026
O       10.22167492      24.29104614       4.52704477
C       11.44207954      24.77769852       4.15882540
O       12.21482277      24.26566696       3.37227654
O       11.64358139      25.98020744       4.78171635
C       13.03569698      26.34483528       4.77687645
H        8.61306286      23.70469093       2.29758310
H        9.30849552      22.07478905       2.11553836
H       10.36212063      23.44876480       1.88901532
H        9.06304932      22.63873291       4.59126472
H       10.75246811      22.34930420       4.06870890
H       13.55700684      25.76943779       5.54888201
H       13.10113621      27.39860153       5.04622126
H       13.48886967      26.13149834       3.80012417
C       12.88960934      23.89613914      39.12119293
C       14.15819550      24.17541885      39.94705582
O       14.33663273      25.59153366      40.19057083
C       14.74477482      26.26755905      39.07775497
O       14.92883205      25.75630569      37.98669052
O       14.89300919      27.58009720      39.34672546
C       15.52599239      28.29291344      38.23888397
H       11.95429707      24.06847382      39.66205215
H       12.87239742      22.85306358      38.79194260
H       12.87201786      24.50460625      38.20895004
H       14.12907600      23.72091484      40.94450378
H       15.03628159      23.78388596      39.41287613
H       16.47493744      27.82802391      37.95490265
H       15.68576431      29.31213379      38.59302139
H       14.88584900      28.29744530      37.34978485
C       32.93109131      29.05249023       3.24872255
C       32.03929138      30.09337234       3.96562314
O       30.67073059      29.66054153       3.89526772
C       29.87307167      30.20846176       2.96454692
O       30.17229080      31.05176735       2.13581085
O       28.65580750      29.63134575       3.07232785
C       27.63748932      30.16185188       2.21701908
H       32.70236206      28.03985596       3.59386897
H       33.98730850      29.26228523       3.45195293
H       32.75062180      29.07647705       2.16875243
H       32.29279709      30.18371391       5.03088903
H       32.14210129      31.07966042       3.49436307
H       27.77876663      31.23888969       2.08378577
H       26.68213081      29.96784973       2.71371555
H       27.64678574      29.67467117       1.23128462
C       36.22030640      25.76755333      16.60949326
C       34.92881393      24.93758202      16.76757622
O       33.85886002      25.49294472      15.98903179
C       33.13967514      26.48443222      16.60835838
O       33.51134109      27.12065697      17.57746124
O       31.99010086      26.67091942      15.92113113
C       30.98124504      27.39875412      16.65271187
H       36.56266022      25.78049660      15.56191730
H       37.02109146      25.38392830      17.25547791
H       35.99568939      26.78589630      16.95477867
H       35.04359818      23.90638924      16.39418602
H       34.63790512      24.90334702      17.82971764
H       30.62383080      26.81990814      17.51194000
H       30.15180588      27.56426811      15.95601463
H       31.35317421      28.35290718      17.04010773
C       27.59479141       4.50443411      33.18597412
C       27.23220825       3.09761500      32.69588089
O       25.89076805       2.97620583      32.18357849
C       24.80527306       3.51235008      32.80379105
O       24.77266693       4.30210829      33.72411346
O       23.70379066       2.95654011      32.21055603
C       22.45357132       3.38480878      32.74611282
H       27.46581078       5.23214769      32.37953568
H       28.63132095       4.50818634      33.53709412
H       26.97095680       4.81316996      34.03237915
H       27.85945129       2.79177094      31.83847809
H       27.36048698       2.36518598      33.50784302
H       21.86222649       2.50521779      33.02465820
H       21.90603065       3.97219729      31.99969482
H       22.61844063       4.01503468      33.62437439
C       16.45712090      36.78322983      11.13652802
C       15.03748703      36.57577896      11.71815395
O       14.38191128      35.53478622      10.97142220
C       13.31097221      35.84990692      10.21461296
O       12.79643059      36.94794846      10.10712242
O       12.88890362      34.72742081       9.57300854
C       11.65467548      34.87231064       8.85368061
H       17.06701088      35.87982559      11.23868275
H       16.95173454      37.60848999      11.66380787
H       16.37707329      36.99837112      10.06442833
H       15.08823109      36.26927185      12.77500820
H       14.45697403      37.50996399      11.67312813
H       11.16648960      35.81786346       9.12672424
H       11.00967979      34.03073120       9.13552666
H       11.83494759      34.86118317       7.76751614
C       39.08153152      27.64842606       7.59910154
C       40.15353394      27.05291557       6.66993332
O       39.69251251      25.78864861       6.11985588
C       40.11565399      24.67294693       6.73695850
O       40.93123627      24.58917046       7.62805128
O       39.47652435      23.61851692       6.18159580
C       39.55532074      22.40547371       6.94299841
H       38.09656525      27.55844498       7.12670088
H       39.28435898      28.70355797       7.79731369
H       39.03301239      27.11833191       8.55111217
H       40.34527206      27.68924141       5.79284525
H       41.09137344      26.89922905       7.21855497
H       40.59736252      22.12154007       7.13672972
H       39.03722382      21.62982941       6.37105036
H       39.03767395      22.53635406       7.89905214
C       15.22251225      38.16945267      36.68005371
C       15.43269634      37.99068451      35.16735077
O       16.73175812      37.47199249      34.88610840
C       17.66767883      38.29961777      34.35771179
O       17.55900383      39.51403427      34.26554108
O       18.71273232      37.54898834      33.93608475
C       19.95191002      38.24892044      33.78242111
H       15.44148540      37.22816849      37.19676208
H       14.17479515      38.41809082      36.89155960
H       15.86482620      38.95389938      37.10043335
H       14.73090649      37.24658585      34.76137543
H       15.26972866      38.94209671      34.63546371
H       20.03333664      38.73352814      32.79514694
H       20.75342560      37.51010132      33.89615250
H       20.04297066      39.02093124      34.55568314
C       22.87504578       1.24047017      37.66608429
C       23.27593231       2.49998999      36.89109039
O       24.67039871       2.39680862      36.56977463
C       25.47057533       3.41776609      36.93493271
O       25.12250710       4.48005486      37.41568756
O       26.75814438       3.04347277      36.71749878
C       27.75237656       3.96605015      37.18105316
H       23.15328217       0.32998988      37.12417984
H       21.78649712       1.24190080      37.81966019
H       23.36055946       1.22772157      38.65155029
H       22.71696281       2.60670543      35.94917297
H       23.09481239       3.39770246      37.49612427
H       27.29166603       4.94676065      37.34646225
H       28.52122307       4.05200768      36.40328217
H       28.18914604       3.61715460      38.12862396
C       15.62740707      30.11377525      34.43423080
C       14.84540367      29.25213242      33.45209885
O       14.42539501      28.04386520      34.14077377
C       15.28559303      27.01408958      34.05584335
O       16.10741615      26.79715538      33.17440796
O       15.02573395      26.18245888      35.10404587
C       15.94763851      25.09790611      35.23955917
H       15.01962185      30.65749931      35.16803360
H       16.20416260      30.82919121      33.84707260
H       16.32632446      29.48895454      35.00126648
H       13.92476273      29.72258377      33.06744766
H       15.46803665      28.95797157      32.58957672
H       16.12919235      24.60750008      34.27034760
H       15.46506500      24.38707352      35.91841125
H       16.90602112      25.45619392      35.63653946
C       35.50918961      13.41863632      28.54807854
C       35.67789078      13.43166161      27.02371979
O       35.50453568      14.75236416      26.47764587
C       34.23113251      15.14618683      26.20760918
O       33.23527527      14.45304203      26.27046585
O       34.25910187      16.42102051      25.75759888
C       32.95084000      17.01011276      25.64862251
H       36.12305832      14.17928982      29.04016495
H       35.83252716      12.43719101      28.89321899
H       34.46927261      13.58494186      28.84523010
H       36.69622421      13.13933849      26.72575378
H       34.99031448      12.74134731      26.50428391
H       32.43652344      16.59771538      24.76921463
H       33.08120346      18.09531784      25.56537628
H       32.30889893      16.75440979      26.50390053
C       26.45321465      35.56192780      13.27793694
C       27.94970322      35.68356323      13.59170532
O       28.61023140      36.53242874      12.61687565
C       28.59483337      36.23556900      11.29933262
O       27.93591499      35.39728546      10.72945595
O       29.47755241      37.08094788      10.65833759
C       29.62790108      36.76456070       9.25871944
H       25.90796661      36.50024414      13.44707870
H       25.97207832      34.80051422      13.89773273
H       26.29889679      35.27322006      12.23295116
H       28.15890503      36.18420792      14.54409885
H       28.44955635      34.70527267      13.59577656
H       30.34190369      35.94325256       9.10500050
H       29.97319794      37.67437363       8.74916172
H       28.66735840      36.43007278       8.84664345
C       19.68841553      34.43261337      27.00979424
C       19.56643867      33.12124252      26.21334839
O       20.14772987      32.02138519      26.97556686
C       21.47127533      32.07544327      27.19931221
O       22.29012680      32.80636978      26.66341019
O       21.77232742      31.11926651      28.12353706
C       23.16034126      30.98100853      28.46674538
H       19.11516571      34.39684677      27.94314575
H       19.21937752      35.20668030      26.39452171
H       20.73423958      34.69796753      27.18920517
H       18.51240349      32.84294891      26.05704880
H       20.04082870      33.17613983      25.22083473
H       23.72691536      30.46310806      27.67971420
H       23.17373085      30.38046074      29.38714409
H       23.63659668      31.95490265      28.64726830
C       22.56994057      22.96094131      32.29681396
C       22.70597267      21.56780243      31.66301155
O       21.38534546      20.97127342      31.57442474
C       21.11811638      19.89814377      32.35827255
O       21.88318634      19.35344505      33.15031433
O       19.85855865      19.49329758      32.06241989
C       19.20563126      18.56554413      32.92501450
H       22.04872513      23.64664650      31.61578560
H       23.55170631      23.38950348      32.53134537
H       21.99883842      22.91567993      33.23232651
H       23.07750702      21.61237526      30.61848450
H       23.37089729      20.89626312      32.22449493
H       19.69907951      17.59093857      32.92182541
H       18.18931580      18.43943787      32.52784348
H       19.14012527      18.93622208      33.95518875
C       12.53843117      21.46399879      35.74071503
C       11.15522385      21.85283661      35.22457886
O       10.55220318      20.72952843      34.55009079
C       10.48853111      20.69642448      33.20721436
O       10.66535091      21.64974785      32.46619034
O       10.10578251      19.45510292      32.79179764
C        9.74170017      19.36854553      31.40092087
H       12.46387482      20.66737175      36.48957825
H       13.03175068      22.33478355      36.18669128
H       13.17061424      21.11684990      34.91399002
H       10.47417068      22.10743523      36.05094910
H       11.20688343      22.72341919      34.54935074
H        9.65936756      20.35981369      30.93720818
H        8.76596260      18.86827278      31.34899712
H       10.46839333      18.77209663      30.83345222
C       11.61678219      22.50223541      20.55784607
C       10.44471073      21.52389145      20.41328621
O        9.28803158      22.31487846      20.06088638
C        8.20290375      22.25120926      20.86138535
O        7.99779081      21.47868538      21.77756119
O        7.32557583      23.20306969      20.43560791
C        6.13805342      23.34538460      21.23690414
H       11.80990696      23.03064537      19.61660004
H       12.52982140      22.00618744      20.89460945
H       11.36262226      23.24333191      21.32766342
H       10.59473801      20.75931168      19.63585472
H       10.23082256      21.01550674      21.35972595
H        5.84406757      22.38685608      21.67216301
H        5.34357119      23.72656250      20.58375359
H        6.28717613      24.05143166      22.05769730
C       12.50551987      12.65237045      25.86816597
C       13.28674412      11.65098858      25.02170753
O       12.47872829      11.21504402      23.89841461
C       11.76253319      10.08757591      24.12656212
O       11.50795269       9.62083721      25.22140694
O       11.34902573       9.56521893      22.94586754
C       10.17337418       8.74280071      23.07914925
H       12.23836040      13.53508091      25.27762032
H       13.05596066      12.96384716      26.76012611
H       11.56271172      12.20473862      26.20446968
H       14.19625187      12.09364414      24.58501434
H       13.58983898      10.77426434      25.60966682
H       10.41720295       7.74176121      23.45276642
H        9.67677975       8.70130539      22.10307693
H        9.47864342       9.20967579      23.78704643
C       20.74864388      11.62278652      18.60342216
C       20.68171692      12.82684135      17.65854454
O       21.08985138      12.53227901      16.30023003
C       22.22932625      11.88277054      16.03092384
O       23.13084602      11.61605072      16.83423805
O       22.27137756      11.61244965      14.71184540
C       23.47755814      10.97608185      14.25157547
H       19.99580383      10.86106873      18.36278725
H       20.56421280      11.96880150      19.62897491
H       21.73155594      11.14793682      18.58468437
H       19.64098549      13.17275238      17.53510284
H       21.25808525      13.68297577      18.04170418
H       24.14821434      11.73141861      13.81825447
H       23.18532372      10.22608662      13.50621605
H       23.97022438      10.47436905      15.09003258
C       35.40161514       1.58818495      10.40730476
C       36.28507233       1.48917508      11.66229057
O       36.82735062       2.76999593      12.02886295
C       37.59241486       3.38722086      11.09401608
O       37.97743225       2.92796755      10.02856159
O       37.85866165       4.63728762      11.56072521
C       38.67485428       5.42260742      10.67311668
H       34.55257797       2.26572919      10.55309010
H       35.02129364       0.59187478      10.16562557
H       35.98783875       1.92402196       9.54845047
H       35.70452499       1.18207824      12.54433346
H       37.09572983       0.76934689      11.49038219
H       39.73868561       5.25883818      10.89971542
H       38.40964508       6.47108555      10.84483337
H       38.48876190       5.14124584       9.63049412
C       22.57144547      17.54434013      25.55927086
C       23.34894753      16.84760284      24.43350601
O       22.56451607      15.71144199      23.95135498
C       22.92282677      14.52173805      24.44713402
O       24.01495934      14.18665981      24.87997627
O       21.85248566      13.66195679      24.31021118
C       21.93276405      12.50688076      25.19156265
H       21.59538269      17.90013504      25.20532990
H       23.11697388      18.41410828      25.94067001
H       22.37702942      16.88155556      26.40602303
H       23.52853584      17.48934555      23.55920219
H       24.33428955      16.48559570      24.76990509
H       22.89487839      11.98249817      25.06571579
H       21.06486320      11.88543224      24.94011497
H       21.87031746      12.81812191      26.24462700
C       38.96997070      40.78767776       7.13972664
C       38.02688599      41.79579544       6.47163391
O       37.65860367      41.41190338       5.12675333
C       38.61019135      41.37558746       4.19460011
O       39.76898193      41.71649551       4.33162498
O       38.08113098      40.91156387       3.03824496
C       39.01958847      40.68697739       1.97763181
H       38.46955872      39.83323669       7.29990530
H       39.23850632      41.19111633       8.12308693
H       39.88891602      40.61851120       6.56596279
H       37.07295227      41.84605789       7.01020622
H       38.47681046      42.80022049       6.45584154
H       39.31761169      41.64014053       1.52532232
H       38.52024841      40.05465317       1.23625827
H       39.90748978      40.17477036       2.36184049
C       18.85765076      35.32017899      22.07398987
C       18.27122498      36.36706924      21.12814903
O       19.24509621      37.43663406      21.04216766
C       18.86844444      38.66714859      21.48585129
O       17.78486443      38.99848938      21.90887451
O       19.95987511      39.49135590      21.40404701
C       19.65610313      40.88180542      21.62250137
H       19.85301208      34.98878098      21.75045967
H       18.18610191      34.45363617      22.11506653
H       18.92614174      35.70886993      23.09700775
H       18.09525490      35.99501038      20.09842873
H       17.31539536      36.78490829      21.48500252
H       18.65494347      40.98826981      22.07154274
H       19.68791199      41.41640091      20.66212845
H       20.40697479      41.30287933      22.30118179
C       33.31533432       7.41091537      28.20216942
C       32.43575287       6.56289864      29.12888718
O       33.23608398       5.50352240      29.69219971
C       33.23577499       4.31662607      29.06304932
O       32.58443832       3.98675442      28.08572197
O       34.12638474       3.51770282      29.72658348
C       34.03853607       2.12694669      29.37663651
H       34.20709991       7.75101519      28.73920441
H       32.74603271       8.27550507      27.83507347
H       33.62549591       6.84517574      27.30918694
H       32.06954193       7.13823605      29.98629189
H       31.56337738       6.14388990      28.60329437
H       33.01330185       1.77615416      29.54564667
H       34.74633026       1.60481775      30.03080559
H       34.28153610       1.94828749      28.32214737
C       16.80460548       3.14712286      22.79645729
C       15.35089970       2.94351888      22.34534836
O       14.83967209       4.21119499      21.88973999
C       14.23112011       5.01299429      22.78987885
O       13.69150162       4.66019869      23.83483505
O       14.24234676       6.28148127      22.33635139
C       13.56625557       7.21361876      23.22611618
H       17.43951797       3.50863147      21.97770882
H       17.21018028       2.19902086      23.16235542
H       16.81047630       3.86802888      23.62226486
H       15.23897839       2.23341632      21.51283455
H       14.74862099       2.59297752      23.18743706
H       12.52552700       6.90951777      23.37819481
H       13.60743237       8.18721199      22.72796249
H       14.03754807       7.27277422      24.21216202
O       30.07993889      15.13256073      17.97269821
C       31.23420334      14.89793015      18.19083405
O       32.03501511      14.22827911      17.32108498
C       33.34708023      14.15206623      17.82265663
F       34.18115234      14.78131390      16.93075752
C       33.27481842      14.87865639      19.18849182
O       31.87853432      15.14479542      19.37499428
H       33.66229630      13.10137367      17.89298630
H       33.60731888      14.22178745      20.00780296
H       33.83307648      15.82709980      19.22306824
O       21.12050438       0.32383657      14.07297325
C       20.72531700       0.82847399      15.10233974
O       20.18273354       0.12663276      16.13548279
C       19.85002899       0.99051005      17.20607185
F       20.55580521       0.61243194      18.33916855
C       20.28396416       2.38853192      16.74700165
O       20.72247314       2.16092706      15.39466572
H       18.77270126       0.93010587      17.43035698
H       19.44492531       3.09537005      16.77029610
H       21.10010719       2.78677392      17.36360168
O       36.50506973      35.73543167      40.31605911
C       36.84960175      35.55901337      39.18457413
O       37.16014481      34.36760712      38.62215042
C       37.56974792      34.50384521      37.27407837
F       36.68363190      33.85194016      36.45643997
C       37.53635788      36.05086517      37.03871918
O       37.01988602      36.55321884      38.27373123
H       38.57118607      34.06607819      37.12075806
H       38.54913330      36.44771194      36.87531662
H       36.88598633      36.30641937      36.18592834
O        2.10397363       7.81144476       6.76796722
C        3.21837544       7.45824909       6.49878883
O        3.57002044       6.38535500       5.72465038
C        4.97607279       6.22141790       5.65190601
F        5.37142324       6.26545525       4.32654619
C        5.52418232       7.39325190       6.50221872
O        4.34821320       8.02022457       7.04040861
H        5.25590420       5.23674870       6.07265282
H        6.11525345       7.00905514       7.36537647
H        6.12022686       8.09336185       5.90323114
O        4.31413460      25.75194359      31.50010872
C        5.06500435      26.67225456      31.27992439
O        4.91557026      27.57230568      30.27114677
C        5.95987701      28.53478813      30.30684471
F        5.43876076      29.75560951      30.72270012
C        6.94872475      27.99442482      31.35848236
O        6.19231606      26.92627335      31.99765587
H        6.39084911      28.63767624      29.29713058
H        7.84013748      27.57014465      30.87602425
H        7.21966267      28.75009918      32.10748291
O       16.38534164       5.37456274      28.57897186
C       17.35172462       4.86894846      29.10349655
O       18.46140480       4.41980696      28.44155121
C       19.42797279       3.95765471      29.34902000
F       20.46159744       4.87475252      29.39597702
C       18.68355560       3.93237543      30.71222115
O       17.48274231       4.65486860      30.43755913
H       19.81842804       2.98755407      29.00206566
H       18.43974495       2.89327645      30.99350548
H       19.25529480       4.41744423      31.51724434
O        8.12456131      19.21473312      19.79281235
C        7.68895197      18.27331543      19.18377304
O        6.52209282      17.61763000      19.51688957
C        6.25575256      16.59356689      18.59195709
F        5.06413031      16.90204048      17.91428185
C        7.46097040      16.58165741      17.62001038
O        8.27941704      17.65767097      18.11590385
H        6.11178493      15.64366817      19.13091660
H        8.02934837      15.64557076      17.63160515
H        7.13662672      16.78804207      16.58914757
O       17.48234367      25.66668320      28.52918816
C       16.84549141      24.97033310      29.27183342
O       15.97201443      23.98594666      28.88158798
C       15.36898232      23.44322014      30.02465630
F       16.03004074      22.23576164      30.27355003
C       15.67810059      24.46023369      31.13102150
O       16.86106491      25.08518410      30.63076019
H       14.30223274      23.25252533      29.83077812
H       14.87422466      25.20504761      31.23436165
H       15.84932423      24.01836967      32.12278748
O       18.47441292       9.21605682      28.86123276
C       19.61572647       9.30437565      29.24994659
O       19.95454025       9.61268139      30.54750061
C       21.36007309       9.43713284      30.71319199
F       21.51818085       8.21162319      31.32959557
C       21.88018799       9.46126842      29.26927185
O       20.71470642       9.13919926      28.49327087
H       21.76697922      10.23233700      31.35500908
H       22.23070908      10.47637939      29.02823639
H       22.66744804       8.72956371      29.06200790
O       31.55422592       4.66458178       8.25187302
C       31.92068672       5.70478058       8.73356247
O       33.22771072       6.13627911       8.76349163
C       33.30150986       7.35885191       9.46622944
F       33.75366592       8.32689381       8.59095478
C       31.85114670       7.64219093       9.95000935
O       31.09530449       6.60128403       9.34222031
H       34.01594925       7.27181339      10.29761505
H       31.72974205       7.62848139      11.03860188
H       31.48830986       8.61673450       9.59200859
O        8.59928608      12.96024418      40.08998489
C        7.95169449      13.92997169      40.41591644
O        8.44042683      14.99761581      41.10288620
C        7.43893337      15.95723152      41.34379578
F        7.77863359      17.12417030      40.63608170
C        6.15653086      15.33528614      40.73155975
O        6.62400913      14.11065674      40.14882660
H        7.41291952      16.22974777      42.40539932
H        5.40599728      15.13539410      41.50713348
H        5.70931482      15.96410179      39.94639587
O       42.36484528      31.83324242      10.56859493
C       42.27354813      30.70909309      11.00352955
O       42.44575500      30.38742828      12.32353783
C       42.16112518      29.03349686      12.53639984
F       40.97980499      28.89978218      13.24979115
C       41.99906921      28.44700813      11.09679317
O       42.06781387      29.59847832      10.24296474
H       42.96982956      28.58452225      13.13470936
H       42.80590057      27.74148178      10.83877373
H       41.01611328      27.97239304      10.97283173
O       12.89644814       9.48187923      16.33882332
C       13.97416115       9.21978855      16.78102112
O       14.23548698       8.11881351      17.56116486
C       15.57774925       8.08633423      17.91869545
F       16.17592621       6.94593573      17.37935829
C       16.20611954       9.35537434      17.28892326
O       15.09636688       9.99112606      16.65242958
H       15.69602585       8.06431007      19.01164246
H       16.63772202      10.01050949      18.05811691
H       16.97642136       9.10553360      16.53839111
O       35.12267685      34.33614731      26.34446335
C       36.16125488      34.09128189      25.79237938
O       37.08824158      35.04705048      25.41710281
C       38.18825531      34.46080780      24.76883507
F       39.33886337      34.68393326      25.52440834
C       37.86024475      32.94666672      24.71515083
O       36.60622406      32.86101151      25.40813255
H       38.34336853      34.90231323      23.76725197
H       37.76082993      32.54855728      23.69428635
H       38.63363266      32.38045883      25.25104141
O        4.29122972      28.78602982       9.76072407
C        3.85129595      29.90435600       9.86534405
O        4.56969309      30.97361565      10.31610966
C        3.73881984      32.11158752      10.46780109
F        4.17322397      33.11232376       9.60808182
C        2.32444835      31.59695625      10.05918980
O        2.57623982      30.27335739       9.58848572
H        3.81746221      32.48358536      11.50340176
H        1.63232267      31.60514641      10.90685463
H        1.88764822      32.20051193       9.24983311
O        9.30913639      34.53264236      15.69162941
C       10.04897785      34.95326233      14.82971287
O        9.56769085      35.38888550      13.56629944
C       10.65072727      35.61470795      12.70402050
F       10.83584785      36.99456787      12.54670620
C       11.86063576      34.96284866      13.40258694
O       11.33746147      34.45900726      14.63609791
H       10.42201900      35.20629501      11.70618534
H       12.26616955      34.13866425      12.79696846
H       12.66901493      35.68415070      13.58244705
O       35.07381439      32.19737244      28.51691246
C       36.26414871      32.31083679      28.38082123
O       36.97526550      33.47243500      28.55387115
C       38.35614014      33.21424484      28.50719452
F       38.92588806      33.49794006      29.73213959
C       38.46099854      31.72052002      28.12064362
O       37.09953308      31.29859352      28.00669670
H       38.82833099      33.87422562      27.75721550
H       38.98783875      31.57726479      27.16256142
H       38.99172974      31.16215515      28.89894485
O       11.44473743      31.78248596      31.92585373
C       10.92309856      31.04581070      31.12783241
O       10.23765278      31.42740631      30.00533867
C        9.79943657      30.32376671      29.22996140
F       10.29109573      30.44414902      27.94996262
C       10.39987850      29.10864258      29.97812653
O       10.97339344      29.66716957      31.17767334
H        8.69502640      30.32386017      29.18636894
H        9.61608219      28.38885307      30.23017502
H       11.17147923      28.60145950      29.37927055
O       17.37189674      35.14113235      25.11852455
C       16.51231384      35.72663498      25.73463821
O       16.77260780      36.62062836      26.74638557
C       15.56802654      37.10535431      27.30119514
F       15.54095840      38.48125839      27.14007950
C       14.46232128      36.42345428      26.45598984
O       15.18225098      35.58755875      25.52723694
H       15.55633259      36.89168549      28.38005829
H       13.80328274      35.79914093      27.07456970
H       13.85327530      37.14645767      25.89023018
O       33.78366852      24.83531380      39.49995422
C       32.94432831      25.51103020      40.02954483
O       32.75968552      26.84787178      39.80400848
C       31.63745308      27.34479713      40.51340866
F       30.65958214      27.67011642      39.59684753
C       31.20433998      26.15326691      41.40840912
O       32.05072403      25.08847427      40.97287369
H       31.91501808      28.24291611      41.08437347
H       31.34901237      26.37497520      42.47533417
H       30.14637756      25.90554619      41.23939133
O       13.66618729      16.38229179      12.63721085
C       12.48457718      16.31256676      12.90068436
O       11.62632847      15.41216850      12.36431122
C       10.32195091      15.63560581      12.89833450
F        9.94812775      14.49120140      13.58448982
C       10.48059368      16.83482933      13.85765839
O       11.86354733      17.18892479      13.73517227
H        9.64288330      15.81109238      12.05567455
H        9.85207748      17.67409134      13.53291035
H       10.25781918      16.60350037      14.90884304
O       21.35984993      24.43851852      29.34453201
C       20.85865784      25.52272034      29.30219078
O       20.04572678      26.02449799      30.27136230
C       19.62600708      27.32648468      29.93617058
F       20.16759491      28.20515060      30.88684464
C       20.19488525      27.53989410      28.51219940
O       21.06741142      26.42205620      28.28904343
H       18.52657509      27.37301445      29.99956703
H       19.39376831      27.53731728      27.75485229
H       20.78759003      28.46215820      28.45583344
O       22.32116699      30.27526855      17.27892685
C       22.62405205      30.01830482      18.41259956
O       21.86933708      29.22169113      19.25927734
C       22.46099663      29.14333725      20.52107048
F       22.88282585      27.82821655      20.75800323
C       23.71028709      30.03903770      20.43858337
O       23.77007294      30.40726280      19.05580902
H       21.74032211      29.43905449      21.29983902
H       23.63848877      30.91023827      21.09714317
H       24.62424469      29.49281311      20.70958138
O       13.15297031      32.45697784      37.15749359
C       12.91528511      31.88953209      38.18536377
O       11.87948227      32.19307709      39.04698563
C       11.77647495      31.21587563      40.03799438
F       10.82773876      30.26807594      39.63787079
C       13.17893982      30.56543350      40.02096176
O       13.64100647      30.85580826      38.70302963
H       11.42805386      31.66638374      40.98139572
H       13.85393238      30.99105835      40.77251816
H       13.11646366      29.47683907      40.13046265
O       37.92851639      24.90498352       8.59754086
C       36.90299225      25.36135483       9.03557110
O       36.83344650      26.29614067      10.04560375
C       35.49758911      26.74064445      10.20519352
F       35.38066101      27.95921326       9.52567863
C       34.68536758      25.67984390       9.47137642
O       35.65236282      25.06720352       8.60079193
H       35.26165009      26.90272331      11.26755714
H       34.25521088      24.94977760      10.16840363
H       33.86219406      26.10623932       8.88130283
O       24.74530220      33.14154434       4.58604717
C       24.80625153      33.45230865       5.74844027
O       25.49774170      32.79386520       6.72624683
C       25.32939720      33.45365906       7.98254776
F       26.47719193      34.13972473       8.29114151
C       24.13702774      34.39127350       7.72544193
O       24.17139816      34.52209473       6.30381107
H       25.15816689      32.68924713       8.75665474
H       23.17656136      33.94571686       8.02237320
H       24.22658348      35.37690735       8.18772316
O       28.05211639      28.40895462      17.42364883
C       27.05314064      27.76498795      17.60457611
O       25.96541786      28.19123650      18.31317329
C       24.88851929      27.29152298      18.12451553
F       24.06725502      27.91194916      17.17682838
C       25.54675674      26.03024483      17.52867126
O       26.84041023      26.51876259      17.06943512
H       24.33715057      27.18663406      19.06654167
H       25.67594719      25.25005913      18.28915405
H       24.99741364      25.61713409      16.67679024
O        8.71737671      42.88510132       9.04019165
C        9.46612740      41.95923233       8.83443928
O        9.19877529      40.66568756       9.17046070
C       10.28956413      39.82706833       8.86870956
F        9.88715267      38.85919571       7.94727564
C       11.36619377      40.77219391       8.25472260
O       10.72107792      42.05881882       8.32605457
H       10.64149952      39.32596207       9.77742481
H       12.28463268      40.78074265       8.85040951
H       11.61129761      40.51910019       7.21234941
O       35.45612717      34.77694321       9.10996437
C       34.97807312      35.13399506       8.05906582
O       33.64373398      35.17898941       7.77939463
C       33.41111374      35.63180542       6.46184015
F       32.69265747      36.82120895       6.52829027
C       34.83982086      35.88516998       5.88271999
O       35.70982742      35.52303314       6.97682714
H       32.81866837      34.90616989       5.88605165
H       35.06184769      35.27952194       4.99104071
H       34.96635818      36.95748901       5.66821051
O       15.84146118      22.17743683       3.86774778
C       16.98044586      22.52969360       3.90905333
O       17.89560318      22.38746071       2.87882662
C       18.89509010      23.36887550       3.09984684
F       18.45591736      24.54759026       2.52639699
C       18.90700722      23.51989746       4.64317703
O       17.54707909      23.19897842       4.97252321
H       19.83855438      23.04389191       2.63697863
H       19.59447670      22.79743195       5.10959911
H       19.11398125      24.55235481       4.96747398
O       24.22219276       4.87677908      10.43458271
C       25.12479973       5.48191071       9.91422176
O       24.97265816       6.44202566       8.94114017
C       26.25844765       6.96186733       8.61170673
F       26.38964462       8.18683815       9.26020718
C       27.25136948       5.94619513       9.20364761
O       26.43256187       5.27083921      10.17997169
H       26.35865211       7.11948586       7.52458668
H       27.63138008       5.23672104       8.45751190
H       28.09869385       6.43090677       9.69627094
O       27.84126091      42.33005905      41.87156296
C       27.80133057      42.10625839      40.68837357
O       28.89035225      42.02931213      39.87225723
C       28.50223351      41.80573654      38.52597427
F       29.16340065      40.68147278      38.08833313
C       26.95630074      41.61372375      38.59107208
O       26.66902542      41.90844727      39.96692657
H       28.81397629      42.65586853      37.89361191
H       26.43903160      42.34677124      37.95227432
H       26.64122391      40.59133911      38.33776093
O       35.97046661      28.29538345      33.75271606
C       35.34733200      28.04695702      32.75096130
O       34.54455948      26.93705177      32.61116409
C       33.62680435      27.16717720      31.58068848
F       32.46117783      27.63665962      32.20790100
C       34.26039124      28.29179573      30.74708557
O       35.30358505      28.77011299      31.60363579
H       33.37176895      26.25549889      31.02360535
H       34.65840912      27.90695572      29.79930878
H       33.52997971      29.08988571      30.54899788
O       26.00419807      35.85153198      16.16762543
C       27.13330650      35.64441681      16.52172279
O       27.69868279      34.39677811      16.63182831
C       29.05412292      34.49261475      16.96490097
F       29.82249451      33.93153000      15.94098663
C       29.32338142      36.00471878      17.12582397
O       28.04840660      36.60004044      16.84577370
H       29.25989151      33.94562912      17.89537621
H       29.63315964      36.24861145      18.14829063
H       30.07560730      36.34416580      16.39535904
O        3.35307574      25.00699234      22.03345490
C        2.83128142      25.42583466      21.03295135
O        2.98412132      26.70645905      20.57038307
C        2.48597074      26.78842545      19.23341370
F        3.53330469      26.58610725      18.36321640
C        1.48059440      25.60442543      19.18016243
O        2.02357936      24.73141098      20.20465088
H        2.02440333      27.77540207      19.06750679
H        0.46704149      25.91842842      19.45513153
H        1.45260954      25.08711433      18.21498871
O        1.97722208      28.99261093      34.81638336
C        2.73048043      28.07378960      35.03926849
O        3.76669216      27.68240356      34.23311996
C        4.59940672      26.78255653      34.93756104
F        5.56766272      27.54087067      35.58588409
C        3.63792014      26.21221733      35.99801636
O        2.65751433      27.26099014      36.12205505
H        5.07652855      26.07225990      34.24715424
H        3.19060993      25.26871681      35.65234756
H        4.15788746      26.05743027      36.95306015
O       15.60102463       9.35375595      20.90941620
C       14.70966816      10.11659908      20.62498283
O       14.25907230      10.31898880      19.36070442
C       13.22008991      11.30927563      19.38320923
F       12.05357742      10.70658875      18.96751213
C       13.13415623      11.74223137      20.86478424
O       14.02440739      10.83848286      21.54606819
H       13.48672009      12.10392666      18.66486740
H       13.46645641      12.77858829      21.03463173
H       12.11621571      11.60895538      21.26547813
O       18.08721542      36.47518539      29.56062317
C       19.14981842      35.97559357      29.79306030
O       20.38337708      36.57474518      29.56904411
C       21.34016800      35.84965897      30.32069016
F       21.26111221      36.30706024      31.61886978
C       20.77126503      34.42688370      30.29254341
O       19.34952736      34.71258163      30.28665924
H       22.35305595      35.96662521      29.90172577
H       21.05828476      33.86030960      29.39031601
H       21.03387070      33.89190292      31.21333504
O       13.55851841       5.43618774      38.53516006
C       14.38869667       5.57580471      39.39685822
O       14.41164207       6.60501766      40.28493118
C       15.42907238       6.41693830      41.22816467
F       14.84869003       6.08940363      42.44895554
C       16.25498962       5.21734762      40.66170883
O       15.45678234       4.74999094      39.57419586
H       15.99704647       7.35224247      41.35572052
H       17.25635719       5.51503563      40.32121658
H       16.33016205       4.43647623      41.42658234
O       42.50110626      32.86008453      21.84903336
C       41.39545059      32.62644196      21.43855095
O       41.01095963      31.48898506      20.77382088
C       39.58983231      31.44041061      20.75159645
F       39.20925522      30.73289680      21.89459419
C       39.16068268      32.91005707      20.93581009
O       40.34121704      33.49639130      21.53753471
H       39.24238968      30.92563629      19.84005547
H       38.92689514      33.38780212      19.97310829
H       38.31476974      33.01991653      21.62762833
O       14.51575279      26.28916359      28.62299919
C       14.55156136      27.44684601      28.94439125
O       15.66955471      28.09530640      29.40288162
C       15.32113457      29.44324684      29.65369797
F       15.65113354      30.15846062      28.50811195
C       13.78380108      29.41193581      29.76685333
O       13.48588371      28.29399490      28.90817451
H       15.89153099      29.80734062      30.52340889
H       13.43171597      29.23114586      30.78969383
H       13.28473186      30.31332588      29.37935638
O       11.75902748      15.05426598      27.34026337
C       12.07301807      15.31743526      28.47409630
O       11.26566315      15.15405846      29.57436943
C       11.98057175      15.40764332      30.74995804
F       12.26300907      14.19148922      31.38085365
C       13.28712368      16.08764839      30.27766418
O       13.25226593      15.90546799      28.84950066
H       11.38374710      16.03321075      31.43463707
H       13.27943039      17.16092300      30.52484703
H       14.18188000      15.60356140      30.68577957
O       28.10604095      16.02654839       8.29810619
C       29.23270035      15.91534519       7.91330719
O       29.76514053      16.46402740       6.78563833
C       31.09675789      16.03115463       6.58887720
F       31.95460320      17.08631706       6.79630518
C       31.32567596      14.98651028       7.71682930
O       30.18189621      15.17039585       8.57000828
H       31.22967720      15.65154934       5.56111813
H       31.35214424      13.95969009       7.32518482
H       32.23628998      15.21206665       8.28772831
O       32.89061356       4.20199585      10.76462650
C       33.50960541       4.94273329      11.49352646
O       32.93572617       5.89546204      12.28454494
C       33.89494705       6.47635508      13.13080120
F       33.65481949       6.08565331      14.44480801
C       35.22711563       5.91775894      12.61723042
O       34.86664581       4.99561214      11.57540321
H       33.76269531       7.57322168      13.08316040
H       35.85012436       6.72481585      12.20041180
H       35.78983688       5.40516520      13.40683270
O       11.08387089      15.39332390      38.44076920
C       10.16032314      14.99486351      37.76376343
O       10.21810913      14.37130356      36.56887817
C        8.91960621      14.35339642      35.94345856
F        8.72217464      13.07408905      35.47023773
C        7.95521784      14.69787312      37.10967255
O        8.84894180      15.25572300      38.09387589
H        8.90373802      15.05880356      35.09320831
H        7.18058729      15.43583107      36.85179901
H        7.49967384      13.78156185      37.51368713
O       11.68341732      33.00814438      19.97026062
C       12.82265759      32.63999176      20.06504822
O       13.24193478      31.35884476      19.81357002
C       14.59968567      31.22849083      20.17499352
F       15.29071808      30.64804459      19.12741280
C       15.06920242      32.67985916      20.46162033
O       13.86466980      33.44698715      20.42058754
H       14.71972275      30.58300018      21.05817986
H       15.54183769      32.78350830      21.44981575
H       15.77074242      33.02286148      19.68015289
O       12.70495987      32.67387390      28.70177460
C       13.87108040      32.82277298      28.91728973
O       14.83105946      32.87748337      27.93650436
C       16.09245682      33.10217667      28.52140617
F       16.49879646      34.37023926      28.14138603
C       15.85327721      33.04664993      30.04075050
O       14.41328239      32.96057892      30.15218735
H       16.82546806      32.38473892      28.12409592
H       16.30653000      32.15388870      30.49473381
H       16.22909164      33.93059158      30.57044601
O       30.87434769      20.26522064      11.65827084
C       29.88830757      19.81649971      11.14028931
O       28.71113968      19.60104561      11.82765579
C       27.76914024      18.99317360      10.97335243
F       26.80986404      19.94791985      10.61530972
C       28.58611870      18.53796005       9.75331497
O       29.77964211      19.33492279       9.86155319
H       27.27230072      18.18177223      11.53107548
H       28.84983253      17.47439766       9.81856823
H       28.09274483      18.72635460       8.78806400
O       37.37630081      -0.01172845      23.03015709
C       36.75329590       1.00934565      23.20620155
O       37.11060333       1.95442343      24.13388062
C       36.20997238       3.05321908      24.10104942
F       36.84803391       4.11101151      23.46949959
C       35.04352188       2.52386951      23.23613167
O       35.60810089       1.36586928      22.57663536
H       35.93436432       3.34443521      25.12642288
H       34.18823624       2.22863245      23.85932922
H       34.72693634       3.23450327      22.46125984
O       22.70212364      25.80220222      18.01838112
C       22.24319077      25.91251183      16.90650940
O       20.93976402      26.21541405      16.65080833
C       20.72883034      26.36261940      15.24985886
F       20.56592751      27.71942711      14.99497890
C       22.03993988      25.82761574      14.61616898
O       22.92593384      25.69994354      15.75151539
H       19.81572533      25.83777809      14.92682743
H       21.92111778      24.84654808      14.14019585
H       22.45934105      26.54138947      13.89334774
O       28.68535805      32.43693924       6.59619808
C       28.76175880      33.60002518       6.30307865
O       27.79159355      34.32492065       5.66637182
C       28.11145973      35.69484329       5.70846176
F       27.39724731      36.34970474       6.70418978
C       29.63426018      35.70055008       6.03502131
O       29.89911652      34.36455917       6.49227571
H       27.85100174      36.15658188       4.74238873
H       30.24691582      35.91279984       5.14773369
H       29.85934639      36.41164780       6.83148336
O       24.25186157      41.09452820      10.12792969
C       24.31657410      40.84650421      11.29966068
O       23.22317505      40.98925400      12.17790890
C       23.53695679      40.45708084      13.44349670
F       22.74169540      39.28966522      13.59262085
C       25.02702904      40.11833954      13.35272884
O       25.39224815      40.44437027      12.00089931
H       23.22594643      41.15697479      14.23069763
H       25.61095428      40.71394730      14.05973721
H       25.23398399      39.05495071      13.53908348
O       31.32667923       9.45377159      12.89220333
C       30.84181213      10.22695541      13.67439747
O       29.78101349      11.05087757      13.40191078
C       29.21235657      11.52611732      14.60625839
F       28.07451439      10.77347946      14.86084843
C       30.31454468      11.26807022      15.65479946
O       31.24525833      10.40812016      14.97265053
H       28.95648766      12.59590530      14.51916122
H       30.78327179      12.21324825      15.96787739
H       29.89859962      10.74982643      16.52741241
O        6.04503393      35.48199463       6.87175035
C        4.96101189      35.62676239       6.35631657
O        4.10587692      34.65210724       5.94774103
C        2.86203599      35.20687485       5.54124260
F        1.91379738      34.93915558       6.51160812
C        3.12464213      36.73877335       5.48104763
O        4.41135025      36.84395599       6.11002874
H        2.53711987      34.74381638       4.59806824
H        3.17325282      37.09208679       4.43925381
H        2.39866376      37.31969833       6.06102276
O        2.37017131       7.25909805      22.79870605
C        3.02028394       6.31360435      22.43407059
O        3.75855422       5.53418207      23.27957916
C        4.31844282       4.45652390      22.57231522
F        3.60536695       3.30310488      22.91140747
C        4.05809355       4.77476168      21.08197403
O        3.16140628       5.89244080      21.15024757
H        5.36684752       4.31289673      22.86152077
H        4.98714066       5.04892778      20.55835724
H        3.55057454       3.95014238      20.56450272
O       41.20006561       3.93396306      33.96034622
C       40.18178177       4.57011223      33.81119919
O       40.03434372       5.89378977      34.15730286
C       38.69021225       6.30480051      34.02274704
F       38.62001419       7.30449295      33.05360794
C       37.95333481       5.03649664      33.51811218
O       38.99752045       4.07062197      33.37089920
H       38.33168793       6.72382593      34.97583771
H       37.21178818       4.70417023      34.25167084
H       37.46265030       5.19862843      32.54729843
O       28.71387863      35.06830215      41.68758392
C       29.02952003      36.22955322      41.55163956
O       30.31411552      36.68966293      41.49488831
C       30.31550789      38.09600449      41.29612350
F       30.98737717      38.37746048      40.12226868
C       28.80490875      38.47626495      41.18885040
O       28.14166069      37.24796295      41.53586197
H       30.84276962      38.57472992      42.13558960
H       28.49425507      39.23733139      41.91399002
H       28.52082825      38.76893616      40.16866684
O       14.52853298      25.72357750      12.10895061
C       14.42618084      24.60166740      12.52171040
O       13.32518864      24.13570404      13.23070240
C       13.51097107      22.81247139      13.63932896
F       12.46839428      22.02517319      13.14008617
C       14.88475800      22.40934181      13.02413368
O       15.37829590      23.62647629      12.44957542
H       13.50199890      22.78866959      14.74255180
H       15.57876778      22.05993462      13.79821396
H       14.77037621      21.64705086      12.23518467
O       29.30094337       5.86942196      18.24922752
C       28.69194603       5.21911860      17.43486595
O       28.87954712       5.32372427      16.07190704
C       28.06217766       4.39113235      15.40274620
F       28.86690140       3.29832864      15.06108856
C       27.04402161       4.01581955      16.46765327
O       27.68859100       4.34129286      17.72112083
H       27.66326141       4.82233810      14.47514153
H       26.09876442       4.57113028      16.35366821
H       26.82271385       2.94567060      16.38911819
O       21.23484802      27.23976517      23.76083946
C       20.50732422      26.64383888      23.00889587
O       19.87098503      25.46052361      23.28533173
C       18.95503998      25.16710663      22.24731255
F       17.68447495      25.56619644      22.64386749
C       19.40822029      26.03969193      21.05466461
O       20.22149086      27.02723694      21.71681786
H       18.98350906      24.08885002      22.02060509
H       19.99305153      25.46304321      20.32101440
H       18.55474663      26.52850723      20.56557655
O       15.78391647      37.53402328      31.46757317
C       14.83072567      37.18205643      30.83475494
O       14.51886749      35.87556839      30.52064705
C       13.13334942      35.79832458      30.17535210
F       12.40191841      35.50936508      31.30396652
C       12.81611633      37.24876785      29.70425797
O       13.89351845      38.02188110      30.27825737
H       12.97723198      35.03042603      29.39034843
H       12.81623650      37.31260300      28.60364532
H       11.85726452      37.61086655      30.09134865
O       38.59164047       0.01720656      30.15413094
C       38.28946686       0.32549235      29.02711296
O       37.02224350       0.65609878      28.63571358
C       37.00591660       1.07758820      27.28124619
F       36.69292831       2.43294048      27.27622604
C       38.45581436       0.82770717      26.79042625
O       39.14552307       0.38529766      27.98382568
H       36.24608994       0.53414190      26.69954681
H       38.48608398       0.05795132      26.00623894
H       38.90297318       1.76452744      26.43432808
O        9.33960342      11.21253967      21.85208511
C        9.40155983      12.27478123      21.28139877
O        9.47917271      12.46664906      19.93066406
C        9.10836983      13.80233669      19.64517021
F        7.76648235      13.80689240      19.25750732
C        9.30978870      14.53640652      20.98372459
O        9.33620739      13.46797371      21.95157814
H        9.70961571      14.17720413      18.80010033
H       10.25668049      15.09564972      20.98889923
H        8.48726845      15.22284412      21.23833084
O       20.27893448      23.67929649      40.94187927
C       19.57420731      24.31188393      40.20423126
O       18.21611214      24.48189545      40.33933258
C       17.72820282      25.38936424      39.37102890
F       17.42657280      26.57744598      40.03464890
C       18.91194916      25.57113647      38.38382721
O       20.03087616      25.00967216      39.11979675
H       16.82011414      25.00303078      38.89138794
H       18.80125046      25.03488159      37.42840576
H       19.10876274      26.63767242      38.19920349
O       22.41965294      12.94769859      28.37365150
C       23.40542412      13.63495064      28.25825691
O       23.40070915      14.94585705      27.89965439
C       24.71580124      15.43113995      27.71784210
F       24.94835854      16.52119637      28.51471710
C       25.62704468      14.24330044      28.11564064
O       24.68408775      13.18263340      28.40883636
H       24.81408119      15.72294807      26.66111565
H       26.31787300      13.92323112      27.32376862
H       26.20147324      14.51308441      29.00992012
O       10.87109089      41.94305420       2.75054288
C       10.40511417      41.25295639       3.62349963
O        9.76688766      41.72737503       4.74072361
C        9.17906284      40.68273544       5.46611786
F        7.80994225      40.67630005       5.22297478
C        9.87763691      39.41564941       4.88309956
O       10.48286915      39.88916779       3.66862464
H        9.31011581      40.87612534       6.53511381
H       10.64431953      39.02786636       5.56351900
H        9.15657139      38.62867355       4.63180351
O        8.44017601      24.59353828      27.57389832
C        7.64015007      23.70658684      27.44288826
O        7.94183350      22.37006569      27.50886917
C        6.78427649      21.59069443      27.31487465
F        6.62158298      20.81216431      28.46734047
C        5.62192583      22.61936188      27.21231270
O        6.30466270      23.88416100      27.18291283
H        6.92051506      20.91620255      26.44895554
H        5.03519535      22.46679115      26.29414940
H        4.95841217      22.59844589      28.08746719
O       14.83865547      29.84420395      16.06800842
C       15.65654659      30.71382523      15.91049671
O       16.43384743      30.85727310      14.78973675
C       17.30150414      31.96434402      14.92996597
F       17.05286598      32.84672928      13.88982773
C       16.93728828      32.56240845      16.31248856
O       15.90842819      31.69541550      16.81233788
H       18.34555054      31.61446190      14.85597897
H       17.78135300      32.51968765      17.01061058
H       16.51565170      33.57352066      16.24695587
O       30.44351196       5.20540142      21.15962410
C       30.88845062       4.41330719      20.35937691
O       30.14588737       3.58347321      19.58050537
C       30.97576904       2.69687557      18.88444328
F       30.69869041       2.83995676      17.51319504
C       32.41404343       3.12246132      19.22106171
O       32.23056412       4.20578003      20.13799477
H       30.74505043       1.65828109      19.16458511
H       32.96364212       2.31049061      19.71714592
H       32.97943115       3.44959664      18.32544899
O       10.59769249      42.00954437      15.26941872
C       11.02091217      41.53012085      14.24312687
O       11.55364895      42.23604202      13.19809628
C       11.78944111      41.40678787      12.08593941
F       13.11323833      41.53390503      11.68908691
C       11.52053642      39.97124100      12.60639858
O       11.02978230      40.20640564      13.93567181
H       11.14963531      41.68605423      11.22975254
H       10.76107597      39.45498276      12.00112534
H       12.44442940      39.37393188      12.62123394
O       37.14553452      31.28454781      31.18681717
C       38.12455750      30.70359612      31.57657433
O       39.42334366      31.12928200      31.38401604
C       40.32203293      30.23424721      31.97492981
F       40.86276245      30.84543228      33.10445404
C       39.46242142      29.01731110      32.36843872
O       38.12915802      29.50132179      32.18672180
H       41.13342667      29.99946785      31.27319717
H       39.65469360      28.14645576      31.72231865
H       39.63654709      28.74530411      33.42011261
O       19.58740997      14.16853428       4.82855034
C       19.10686874      15.26947880       4.85594654
O       18.28723907      15.69260025       5.86474609
C       17.76746750      16.98198128       5.56082153
F       17.93379784      17.82549286       6.63614798
C       18.58409500      17.41275787       4.31488895
O       19.24415398      16.20968056       3.87744832
H       16.68406296      16.88950157       5.37033939
H       17.92396164      17.77842712       3.51938605
H       19.32755470      18.17204475       4.58637094
O       26.20173073      21.36457062      39.00454330
C       26.78225517      20.93498230      38.03882217
O       27.51584816      21.66817284      37.15656281
C       28.19099617      20.82102585      36.24131012
F       29.51673508      20.77979088      36.56463242
C       27.54219818      19.43706322      36.45520020
O       26.68617439      19.65031433      37.59827805
H       28.05715942      21.19250870      35.21232605
H       26.93305397      19.15183067      35.58065033
H       28.28829575      18.65931320      36.66674423
O        2.53179765      33.69116592      31.61469078
C        3.03199673      34.24148560      32.55885696
O        4.34343338      34.60990524      32.67308044
C        4.61056280      35.18506622      33.93385315
F        4.89790249      36.52667618      33.77735519
C        3.26587796      35.02654648      34.70180511
O        2.36342621      34.60047913      33.69218826
H        5.48025703      34.68867111      34.38718796
H        3.35542369      34.25117493      35.47478104
H        2.93299651      35.96688080      35.16654205
O       16.16087914      17.46570015      14.30714035
C       17.28690720      17.05713081      14.21652889
O       18.39425087      17.74819374      13.80138397
C       19.55931091      16.94882965      13.82851315
F       20.41284180      17.40882492      14.79885960
C       19.03013039      15.52810764      14.18047237
O       17.63978577      15.75981903      14.46506596
H       20.05660057      16.97822380      12.84185028
H       19.12456512      14.81224918      13.35093212
H       19.54304886      15.13196087      15.06558418
O       31.70919991       8.62422466      25.90703011
C       30.84520531       7.77988958      25.90722656
O       29.50467491       8.02023697      25.78342819
C       28.79666138       6.80383015      25.64012909
F       28.63830185       6.55764532      24.25697517
C       29.77632904       5.79517317      26.26355934
O       31.06318092       6.43279219      26.06511116
H       27.80915260       6.91639519      26.11508369
H       29.55124474       5.69032669      27.33674049
H       29.75786018       4.82590628      25.75983238
O        3.06282282      38.04239655       8.70306969
C        4.12366056      38.50139236       8.35081005
O        4.24768925      39.55294800       7.50520134
C        5.60481358      39.73062134       7.12342930
F        5.99981594      40.97799683       7.57513714
C        6.36750650      38.61903381       7.90081739
O        5.34001017      38.04029465       8.71362686
H        5.72118616      39.68391800       6.02816391
H        6.78386402      37.84767532       7.24096775
H        7.15023804      39.04258728       8.53220844
O       26.70934105      30.41194344      29.14389992
C       27.61767006      31.18407059      29.27806473
O       28.83340073      30.87570572      29.84610176
C       29.68631363      31.97729492      29.88370895
F       30.81018639      31.72792435      29.05224228
C       28.83292007      33.14046097      29.31961632
O       27.61709404      32.48432541      28.87493896
H       30.04966164      32.14605713      30.90239906
H       28.60758018      33.86710358      30.11008453
H       29.29479790      33.60641098      28.43491554
O       27.98902893      16.34429932      20.27963066
C       28.04227066      15.26136780      20.79400063
O       28.82477379      14.21498680      20.37185860
C       28.75818443      13.17371655      21.32396126
F       29.92142105      13.22750187      22.06833649
C       27.51688194      13.52451992      22.15199280
O       27.29066086      14.91376019      21.87704086
H       28.71636200      12.22155857      20.77652359
H       26.64659119      12.96668911      21.77558517
H       27.62198830      13.38358974      23.23267555
O       13.70854282      10.87147427      28.14000893
C       12.53628826      11.02325058      28.37143707
O       11.54146099      10.12542629      28.10102272
C       10.30506420      10.59611225      28.62716675
F       10.09436512       9.93981266      29.82654762
C       10.55153179      12.10219860      28.88719749
O       11.99946022      12.15967751      28.93972397
H        9.49181271      10.37525558      27.91813660
H       10.18825054      12.71810818      28.04953384
H       10.13068390      12.46682644      29.83247375
O       26.43451118      16.26307869      31.15904808
C       25.58000565      15.59356499      31.67799568
O       25.72854233      15.04665184      32.95178986
C       24.62601852      14.20528412      33.26854324
F       24.09119225      14.63156605      34.48389053
C       23.65987396      14.37219143      32.06991196
O       24.40721321      15.19619083      31.13116837
H       24.99921417      13.17144012      33.38039398
H       23.41305733      13.42137241      31.57405663
H       22.73437500      14.89728546      32.35370255
O       17.29924393       1.98370802      16.04031563
C       16.67883110       2.45359874      16.96397781
O       17.24479103       3.09594154      18.03110123
C       16.25965500       3.41266108      19.00256729
F       16.00709343       4.76720619      18.97123528
C       15.04116058       2.62033153      18.51035500
O       15.32703495       2.40735245      17.11858368
H       16.65932083       3.13402748      19.98703003
H       14.95524788       1.64258003      19.00869560
H       14.09899330       3.17312670      18.61361885
O       32.41410065      34.34724426       2.81940007
C       31.41696739      34.97299957       2.54527640
O       30.31922340      34.50457382       1.91904080
C       29.27805710      35.48704529       1.87028170
F       28.22284889      35.05290604       2.64448476
C       29.94086838      36.75481033       2.49226117
O       31.26525307      36.29527664       2.86153793
H       28.93844032      35.60344315       0.83131474
H       30.02622223      37.54377747       1.73280823
H       29.40922546      37.13581467       3.36919188
O       32.65612411      13.03120518      31.71744156
C       33.43527222      12.14441776      31.49324989
O       33.09892654      10.91610146      30.98205566
C       34.24980164      10.23108292      30.54949188
F       34.37137604      10.39021111      29.16877747
C       35.39202499      10.93497849      31.31263733
O       34.79142761      12.18070793      31.70083046
H       34.14510345       9.15872574      30.76043320
H       35.65943909      10.37085342      32.22016525
H       36.26609039      11.11159325      30.66917419
O       39.86351395      17.19893074      26.86100197
C       39.48262405      16.34275055      26.09405136
O       38.39300919      16.47257996      25.28343964
C       38.22015381      15.34406376      24.44093132
F       38.49670029      15.71514511      23.14225006
C       39.28952026      14.35420895      24.95595741
O       40.06874084      15.12315178      25.89546394
H       37.18350220      14.98233604      24.51693153
H       38.79674149      13.51316643      25.46473503
H       39.91426849      13.95755005      24.13796806
O        8.83821583      18.99176788      26.63096237
C        9.74675655      19.71556854      26.96075630
O       10.34469986      20.65055847      26.17064095
C       11.33834267      21.34056091      26.91338921
F       11.01274490      22.67509842      26.96080399
C       11.27642536      20.75198936      28.33764076
O       10.30261803      19.70274353      28.20271301
H       12.31414318      21.21820831      26.41317558
H       12.23865318      20.33326912      28.65362930
H       10.93633366      21.48600197      29.08086586
O        9.20697308       0.72504014      24.15497971
C       10.09130001       1.53583813      24.15192795
O       11.40888119       1.27136707      24.39086342
C       12.14513493       2.37774253      23.93908501
F       12.44981003       2.14074945      22.59188271
C       11.15050793       3.55842066      24.03676033
O        9.90677071       2.85860491      23.89574432
H       13.06993389       2.49099731      24.50986290
H       11.19853115       4.10006571      24.99280930
H       11.27677345       4.25650263      23.19775200
O       21.57668495      17.33777237      18.82668304
C       22.75208282      17.51148796      19.03883171
O       23.25388908      18.13714600      20.14274788
C       24.66442108      18.00310326      20.18916321
F       24.97949791      17.24370193      21.30599976
C       25.02365685      17.28542900      18.87391281
O       23.75179482      17.09309769      18.21916962
H       25.12265015      19.00415993      20.29119492
H       25.66746712      17.90319252      18.22830009
H       25.50860786      16.30933571      19.01532745
O       13.96986866      22.40739250      22.55493927
C       14.95466805      21.72417831      22.52330399
O       14.97508621      20.36353302      22.67465973
C       16.28797913      19.88327217      22.48322678
F       16.39665413      19.37098885      21.19493675
C       17.16912460      21.14816666      22.64427185
O       16.23780823      22.17107010      22.29980278
H       16.51324272      19.10366821      23.22349167
H       17.50190926      21.27581787      23.68844223
H       18.02940750      21.15897560      21.95628166
O       26.96342850       9.69973755      35.36766434
C       28.16647148       9.77549648      35.44247437
O       28.96474648      10.50977802      34.60993958
C       30.29810143      10.50474739      35.03868103
F       30.58256912      11.72291088      35.62598419
C       30.34148598       9.36390209      36.10056686
O       28.93761826       9.15028667      36.37075806
H       30.97564125      10.34767151      34.17850494
H       30.79933167       8.45337677      35.69477844
H       30.86119080       9.69052124      37.00967407
O       18.66473770       3.44585061      12.70292187
C       19.60872650       4.14692783      12.96493626
O       20.91433907       3.76732802      12.90942669
C       21.71456909       4.75762272      13.52787399
F       22.51700974       5.30923986      12.56289291
C       20.71514893       5.82161903      14.03643990
O       19.50875473       5.44742966      13.36527157
H       22.32909203       4.31090784      14.32795715
H       20.57606506       5.83978415      15.12889290
H       21.00908470       6.82481909      13.69629478
O       23.60058212       8.51889896      20.82999611
C       23.01982307       8.33786869      21.88380432
O       23.43635559       8.85472488      23.08031082
C       22.61753082       8.38322926      24.16078758
F       22.23700142       9.47529316      24.91444016
C       21.44501495       7.71388960      23.41005135
O       21.85588455       7.68159342      22.02651215
H       23.22481155       7.70101118      24.77968788
H       21.27814674       6.68701410      23.75771141
H       20.50823021       8.28970718      23.49197006
O        7.17335272      29.69609833       6.14741468
C        7.55569887      28.55952835       5.99178123
O        7.01029587      27.64660645       5.12861395
C        7.87779665      26.52450371       5.02057123
F        8.61732006      26.72047997       3.85804033
C        8.75744724      26.63216972       6.28438616
O        8.59435749      28.00209999       6.66079664
H        7.30873585      25.59175873       4.91741848
H        8.35839272      25.98899269       7.08630371
H        9.80280590      26.37161636       6.08587980
O       19.66074371      24.04010582      27.13068008
C       19.23931694      22.92442894      27.24315453
O       19.94006538      21.80660248      26.81791496
C       19.22559166      20.63718796      27.19296455
F       20.07143974      19.88576889      27.98859596
C       18.00412369      21.16222763      27.97241592
O       18.02536964      22.58177757      27.71749306
H       18.98498917      20.06204224      26.27850723
H       17.05319405      20.76026344      27.58865929
H       18.09413719      20.98832130      29.05557823
O       28.74356842       5.39976597      11.69138622
C       28.27726746       6.43958902      12.04859066
O       28.75513458       7.68615770      11.70764637
C       28.01681137       8.66851521      12.40433407
F       27.59397697       9.63429928      11.51654434
C       26.82401276       7.91712666      13.04065037
O       27.20971298       6.55217075      12.90075684
H       28.66958427       9.12416935      13.16320515
H       26.67776871       8.17140484      14.09888458
H       25.87416077       8.09302044      12.50750923
O       24.73033905      18.40238380      32.69763947
C       24.61667442      19.08640480      33.67754364
O       25.00387192      20.41021156      33.80626678
C       24.53432465      20.95029831      35.03002167
F       23.75613403      22.05243301      34.77702713
C       23.73238945      19.80254936      35.65356827
O       24.12037277      18.65499878      34.88513565
H       25.39329529      21.25682831      35.64883423
H       24.01070023      19.69006157      36.70459366
H       22.64535904      19.96230698      35.56853485
O       15.85547733      17.30671310      28.30551720
C       15.96994305      16.11640739      28.18413925
O       16.26454926      15.25929832      29.23589897
C       16.07822800      13.92424488      28.81970596
F       14.90284729      13.47493935      29.41882515
C       15.95770645      13.99009800      27.27955055
O       15.85943222      15.40737057      27.02475548
H       16.92190933      13.29959869      29.14361000
H       16.84175301      13.56298542      26.78138924
H       15.05675793      13.48815918      26.90299797
O       13.67151833      27.35976601       7.68579769
C       12.86849976      28.09828377       8.19697666
O       11.57915592      28.27436066       7.73498821
C       10.81976318      28.98623276       8.69467354
F       10.02181911      28.07507706       9.36808777
C       11.87775421      29.58958626       9.63721657
O       13.06956768      28.85650826       9.31034470
H       10.17220688      29.70845985       8.17168427
H       12.02117348      30.65907669       9.42759800
H       11.61780071      29.47306824      10.69388199
O       30.36318588      14.15595341      14.82549381
C       31.08594894      13.78675079      13.93618774
O       32.39714813      13.40773010      14.06660557
C       32.90417862      12.99690342      12.80535793
F       33.35180283      11.69581223      12.90406704
C       31.70232582      13.07851601      11.82643414
O       30.68358612      13.66810703      12.64946747
H       33.74791336      13.65025997      12.52426720
H       31.89568329      13.71168709      10.95063972
H       31.38146591      12.08457565      11.48591995
O       32.96325302       9.84927845       5.77351379
C       32.29982376       9.63201046       4.79209328
O       31.85778427      10.58492088       3.90040040
C       31.62642860       9.93243790       2.66007447
F       32.84512711       9.78013515       2.00622344
C       31.13463593       8.54643059       3.12048459
O       31.88986015       8.40127277       4.34369087
H       30.94115257      10.50782299       2.02403998
H       30.05694580       8.56476307       3.33818674
H       31.38686943       7.76158524       2.39844227
O       42.15908432      41.72182083      39.53176880
C       41.44637680      41.26454163      38.68316650
O       40.85997009      40.03767776      38.71551514
C       39.99723053      39.85694122      37.60309982
F       38.68782043      39.91195297      38.04413605
C       40.31080246      41.07140350      36.67403412
O       41.11829758      41.89895248      37.52534866
H       40.17558289      38.89558411      37.10293961
H       40.86567688      40.77328873      35.77465057
H       39.38546753      41.59053421      36.39588165
O       30.39556885      16.89422607      35.90383148
C       30.69758987      16.71952629      34.73971558
O       31.09785080      15.52266979      34.20626068
C       31.05077171      15.59949684      32.78187561
F       29.86132431      15.00595760      32.37862015
C       30.97295761      17.09914780      32.49335861
O       30.53402901      17.65169716      33.76368332
H       31.89373589      15.06262779      32.31930542
H       31.96597672      17.47813034      32.22843933
H       30.25306320      17.31684113      31.69386292
O       15.92457485      39.89190674      24.38755608
C       17.08061409      39.59297943      24.54864311
O       18.10317993      40.51586914      24.76703835
C       19.32499313      39.85834885      24.96224022
F       19.81273842      40.14860916      26.22712708
C       19.00180626      38.35746384      24.77741814
O       17.58794594      38.33501816      24.57470131
H       20.06478310      40.21051788      24.22484779
H       19.52542496      37.90620041      23.91569328
H       19.26334953      37.79656219      25.68588638
O       29.12320328      20.35555458      21.35765266
C       29.30787468      19.75586700      20.33107948
O       30.50041962      19.74132729      19.62284470
C       30.40798187      18.78118134      18.57437325
F       31.21609879      17.71184731      18.92249870
C       28.91981506      18.42827225      18.50592995
O       28.33765793      19.09482765      19.64408493
H       30.80637741      19.19964600      17.63226318
H       28.47397041      18.83999443      17.59023094
H       28.76915741      17.34067917      18.54059792
O       40.18940735      32.16136169       3.74028826
C       39.34585190      32.15623474       4.59931803
O       39.57009125      32.45129395       5.91120148
C       38.39028168      32.34466934       6.69290304
F       38.10561371      33.58611298       7.21355200
C       37.32774734      31.87419701       5.65834618
O       38.03211212      31.85163116       4.40482807
H       38.55416489      31.64949989       7.53313112
H       36.95911026      30.86578941       5.88706732
H       36.48432541      32.57744217       5.61752367
O       34.17936707      31.65542221      15.14811516
C       35.02133560      30.89185905      15.54323769
O       35.37123108      29.73395538      14.90966415
C       36.50724030      29.20606995      15.55009365
F       37.63158417      29.64631271      14.83979702
C       36.48627472      29.84914398      16.93950081
O       35.70719528      31.03723907      16.70366096
H       36.47145081      28.11199379      15.47839451
H       35.96840286      29.23261070      17.68996239
H       37.49010849      30.12702942      17.28785515
O       16.63845634      31.93957520      38.45584106
C       16.86707687      32.04085159      39.62544632
O       16.31154442      32.98024368      40.47342682
C       16.58370781      32.69427490      41.81301498
F       15.40553379      32.26212311      42.42903137
C       17.62773132      31.53960609      41.73124695
O       17.71990204      31.23719597      40.33787918
H       16.94237328      33.58289337      42.35298538
H       18.59570503      31.84459877      42.15393066
H       17.25253487      30.66572189      42.28451157
O        6.89536333      29.99816132      27.43840027
C        5.70280457      30.09636688      27.27247810
O        4.93513966      29.25740051      26.52385139
C        3.57697439      29.42138672      26.93680000
F        3.38239455      28.44632530      27.90395927
C        3.55061865      30.82919693      27.57997894
O        4.94272614      31.07372475      27.84541702
H        2.90172982      29.24756622      26.08752632
H        3.17415762      31.59016800      26.88072014
H        2.98863196      30.88138199      28.51832199
O       19.84515381      11.74906635      22.36274338
C       18.98795891      12.27028751      21.66419220
O       18.31095505      11.65286350      20.66466141
C       17.41784859      12.55745411      20.00192070
F       16.10193253      12.19821167      20.28062630
C       17.71964455      13.92335892      20.67022324
O       18.64290810      13.57197666      21.75838852
H       17.57102203      12.50702095      18.90937233
H       18.22325706      14.59537220      19.96508980
H       16.80563164      14.36808777      21.09199524
O        3.09907389      24.36302376      15.04931545
C        2.57948089      23.29390717      15.26524448
O        1.25680661      23.00314903      15.31888866
C        1.04151320      21.60878181      15.51652908
F        0.75155276      21.04950142      14.28400135
C        2.39742708      21.11698341      16.04853821
O        3.29949951      22.14466286      15.51374340
H        0.17859630      21.47804642      16.18358421
H        2.46261525      21.14861107      17.14297295
H        2.68730092      20.13770294      15.64933014
O       31.89778137      28.49572182      19.78871918
C       31.94271469      29.47826576      19.09634590
O       30.88407516      30.36435699      19.03017616
C       31.17880058      31.36954308      18.08759499
F       31.35278511      32.57703018      18.77155113
C       32.47685242      30.89271164      17.40349007
O       32.94399643      29.82008171      18.23975945
H       30.32523537      31.48396873      17.39497948
H       32.30070114      30.51700401      16.38011551
H       33.21564865      31.70486259      17.35837936
O        8.55983734      23.30695724      24.72428513
C        9.37280369      24.12561417      24.37939262
O       10.29199600      24.66053200      25.22331429
C       11.18771267      25.48753166      24.53103447
F       12.39945984      24.83059692      24.39461136
C       10.51337910      25.66929436      23.13778114
O        9.51220322      24.61980820      23.11331177
H       11.34143448      26.41391182      25.10970688
H       10.02334309      26.65332031      23.05831528
H       11.21183014      25.51533699      22.30205154
O       34.13820648      26.66297531      24.45656776
C       33.19870377      25.95946503      24.20224190
O       33.24132919      24.80256653      23.45821190
C       31.98501015      24.14470100      23.65023613
F       32.17350006      23.35586739      24.78486443
C       31.04577446      25.30158806      24.00461197
O       31.94264221      26.19910049      24.67443848
H       31.77523041      23.51275444      22.77462387
H       30.65489006      25.75873184      23.08872986
H       30.21305466      25.06176758      24.68174362
O       19.89981270      26.04671669      35.52176285
C       21.09636116      26.09599495      35.61550903
O       21.94154167      25.02416801      35.58403397
C       23.29306793      25.44915199      35.69283676
F       23.93585396      25.11174202      34.52535629
C       23.20488548      26.97589684      35.89875793
O       21.79078484      27.24960518      35.85439301
H       23.75009155      24.94568825      36.55787277
H       23.60103989      27.30313301      36.87163162
H       23.71670532      27.53443336      35.09953308
O        9.76821804      16.06594849       1.31601560
C        8.95694542      15.58046150       2.05923533
O        7.83643389      14.89673424       1.65877521
C        7.07041979      14.51026440       2.78698874
F        6.99424267      13.12158966       2.80442238
C        7.85855055      15.03914833       4.02052450
O        8.97783852      15.72130585       3.42467904
H        6.05499411      14.93081284       2.70015669
H        7.28750420      15.74923325       4.63761854
H        8.23214340      14.22061539       4.65396023
O       15.07301044       8.14809799      14.68301010
C       15.48699093       7.01911402      14.70016670
O       16.81916809       6.68103075      14.75809669
C       16.94407272       5.28959799      14.86334515
F       17.52250099       4.99578285      16.08933067
C       15.51740837       4.74426746      14.70473099
O       14.70188522       5.91548777      14.62480736
H       17.61594009       4.90448380      14.08614922
H       15.42463589       4.16037560      13.77559471
H       15.21092415       4.15059900      15.57503033
O       28.72859383       2.78471136       7.02216578
C       27.70659256       2.46919513       7.56870174
O       26.73083305       1.67542481       7.00843573
C       25.78706932       1.35698748       8.00882339
F       26.14558601       0.10321671       8.50044346
C       25.98443413       2.44023418       9.08097839
O       27.33102036       2.86420345       8.81731987
H       24.77783966       1.29398322       7.57904387
H       25.27567673       3.27129436       8.96967316
H       25.90828323       2.07488251      10.10796452
O        0.32649085      15.37444305      22.37542915
C        1.26677775      15.72161770      21.70654106
O        1.40815723      15.48778439      20.37382889
C        2.61731791      16.04113770      19.90555763
F        2.29843545      17.12747765      19.11082077
C        3.32677031      16.54907036      21.17216682
O        2.33575678      16.40810585      22.20470238
H        3.17163229      15.30715370      19.30328751
H        4.20713711      15.94376659      21.40837860
H        3.59276652      17.60750771      21.05718803
O       37.42207718      21.10965157      38.70142365
C       37.15892792      20.81966400      39.83225250
O       38.03730774      20.31819534      40.77241135
C       37.30075455      19.83051682      41.87819672
F       37.63183975      20.62165833      42.98934174
C       35.83446503      20.00947189      41.47876740
O       35.91685104      20.96300316      40.42510223
H       37.61992645      18.79931831      42.07447815
H       35.36632538      19.08262634      41.11046982
H       35.22198486      20.37681007      42.30725098
O        1.51126671      41.20777512      18.15221786
C        2.02118301      40.94501877      17.09863472
O        2.46641278      41.86884308      16.19193077
C        3.09901595      41.24043655      15.09944630
F        4.44660664      41.54300690      15.14466476
C        2.87292004      39.71625137      15.32719994
O        2.25087094      39.70181656      16.62160873
H        2.68445516      41.60427475      14.14614964
H        2.19858360      39.28227615      14.57877636
H        3.81923318      39.16170502      15.32638645
O       32.16958237      19.76507568      41.76648331
C       30.99729729      19.85807610      41.50138474
O       30.33062935      21.02474022      41.22735214
C       29.01186562      20.73584366      40.76585388
F       29.06264496      20.68630028      39.38471603
C       28.76605606      19.31039238      41.30108261
O       30.10484505      18.82174683      41.48751450
H       28.30876350      21.51179886      41.09452820
H       28.20962906      19.33403587      42.25103378
H       28.23475838      18.69551277      40.56373978
O       19.19125366      22.65824318      30.07522583
C       19.04229546      22.80527496      31.25774002
O       18.32124329      21.95094490      32.06056595
C       18.51321602      22.32003403      33.40351868
F       19.49090195      21.49366951      33.94244385
C       19.05086899      23.75140190      33.34385300
O       19.53394127      23.82820892      31.99937820
H       17.55590820      22.20948410      33.93922043
H       18.26390457      24.50452995      33.51126862
H       19.85050774      23.93910599      34.07122040
O       29.19309616      24.31031227      22.10848808
C       28.49807167      25.28401947      22.08892441
O       28.73638916      26.42426682      21.32850838
C       27.46407127      26.99003029      21.08184624
F       26.96126938      26.33664131      19.95658302
C       26.63207817      26.61770821      22.31928253
O       27.29950523      25.42308998      22.75252724
H       27.51404381      28.06479454      20.87096214
H       26.64720917      27.38792610      23.10965157
H       25.59493828      26.39278793      22.03846550
O       39.67351151      31.77751350      12.35201931
C       38.72111893      31.08178902      12.12091923
O       37.41151047      31.44273949      12.36447048
C       36.52241516      30.44852257      11.89488506
F       35.91347122      30.91415215      10.72979832
C       37.45016861      29.24286079      11.60387421
O       38.76900864      29.82582855      11.58535576
H       35.74173737      30.29509163      12.65409946
H       37.39194489      28.50785255      12.42030239
H       37.26860428      28.76230049      10.63621998
O       10.24355030      31.24109650      11.30713558
C        9.24017715      31.89235687      11.46632481
O        9.21625328      33.07430649      12.17234135
C        7.89901590      33.60144424      12.21259308
F        7.84875870      34.74821091      11.41433048
C        7.05660009      32.49010849      11.56118488
O        8.02448940      31.65450859      10.90237808
H        7.65916014      33.87561035      13.25203133
H        6.48976564      31.92305946      12.31132030
H        6.39673185      32.89920425      10.78660011
O       13.49145699       4.37397718      11.90597057
C       13.28675747       5.55576563      11.74432087
O       12.06774712       6.15962601      11.77429295
C       12.19484997       7.56225061      11.57769394
F       11.67016506       8.23979664      12.65586281
C       13.72672462       7.78195667      11.48332024
O       14.28183556       6.45124292      11.49457932
H       11.63948250       7.84739447      10.66548061
H       13.99884415       8.25848293      10.52722454
H       14.10044098       8.36326885      12.33842087
O        1.59639597      35.51163864      16.97872543
C        2.51956415      34.95815659      17.52191925
O        3.47367907      34.21596527      16.88482475
C        4.42180824      33.72524643      17.80717468
F        5.62292480      34.36287308      17.60463333
C        3.82302737      34.08935928      19.19952965
O        2.74224615      34.95539093      18.86656570
H        4.54789639      32.64802933      17.63504410
H        3.43156147      33.20726395      19.73511124
H        4.53911018      34.61401749      19.85179710
O       37.13907242       4.27911758      14.89730930
C       37.71469879       3.25688672      15.13681984
O       37.17558670       2.01152825      15.11445713
C       38.15406036       1.04727447      15.42484856
F       38.53305435       0.36572605      14.27791691
C       39.33820343       1.86402118      16.00340843
O       39.04179764       3.17921567      15.52630424
H       37.70381927       0.33174214      16.12647247
H       39.38020325       1.85208547      17.10017204
H       40.29078293       1.51816952      15.58133602
O        4.11686325      18.42334747       1.34801996
C        5.20455694      18.72207260       1.78204560
O        6.24945641      19.22764015       1.04779863
C        7.13379383      19.86293030       1.97040486
F        6.63657236      21.14083862       2.18344760
C        6.94851828      19.03363037       3.25968742
O        5.58268738      18.60297203       3.07957125
H        8.16023350      19.87715912       1.57287955
H        7.64905024      18.18484879       3.27573466
H        7.05398560      19.62772751       4.17672157
O        6.35763121       8.45019436      28.97506332
C        6.22035599       9.61221695      29.26271248
O        5.02506638      10.24372387      29.46358109
C        5.20108271      11.58719158      29.87999344
F        4.68162918      11.74490929      31.15464973
C        6.74665165      11.76818562      29.88398552
O        7.24900007      10.49220753      29.41607285
H        4.65972185      12.25053215      29.18448830
H        7.04844618      12.55001450      29.17241287
H        7.12241173      11.96879101      30.89633179
O       42.69845200       8.55318451      35.20021439
C       42.30285263       7.67983770      35.93148422
O       41.35574341       7.87881660      36.91011429
C       41.08630753       6.68415165      37.58994293
F       39.74385071       6.36154604      37.41125107
C       42.02735138       5.63944864      36.91151047
O       42.74597931       6.40219688      35.93647766
H       41.22408295       6.84377527      38.67312241
H       42.73357391       5.21132135      37.63671494
H       41.47241974       4.83948231      36.40110016
O       30.84740067      14.84033585      24.26936340
C       29.88940430      15.53283691      24.48060799
O       28.58662987      15.13371658      24.35268402
C       27.69076729      16.19658089      24.70034981
F       27.03942490      15.81579590      25.85826111
C       28.61631966      17.40077400      24.97181320
O       29.95075798      16.84410858      24.86660004
H       26.96302605      16.33649826      23.88250542
H       28.47947311      18.15680504      24.18449974
H       28.43253708      17.83225632      25.96678543
O       28.82888412      17.54769707      27.97429657
C       29.65046501      18.31742096      28.38433456
O       30.73978043      17.98250961      29.15783691
C       31.63917732      19.06247520      29.16632843
F       32.48844528      18.90579605      28.07194138
C       30.69599915      20.26247787      28.94989204
O       29.66384125      19.66685677      28.14153481
H       32.20967484      19.05732536      30.10314941
H       30.26822662      20.62606812      29.89870644
H       31.15336037      21.07634735      28.37147713
O       23.94533920      21.29659462      21.87977791
C       23.23548317      21.56523514      22.81679726
O       22.09738350      20.87035751      23.16719246
C       21.58555984      21.40780830      24.37278175
F       21.91079903      20.53614807      25.39733505
C       22.33090591      22.73530197      24.58864021
O       23.38165283      22.66238976      23.62021828
H       20.49217796      21.51618958      24.28668594
H       21.69217873      23.61352539      24.39733124
H       22.73449135      22.81957626      25.60594559
O       14.41424656      12.46923542       3.11490989
C       15.16714191      11.61605358       2.73028731
O       14.88432503      10.27862740       2.77494955
C       15.89412498       9.53349400       2.14067388
F       15.44209480       9.10773373       0.89709252
C       17.05831718      10.54805279       1.97979867
O       16.41721916      11.80742168       2.20635915
H       16.15824509       8.65428257       2.75322652
H       17.85387611      10.39260769       2.72161317
H       17.48554230      10.51742744       0.96608800
O       14.17170906      24.20314980      16.66582108
C       13.51479626      25.09601402      16.17238045
O       12.15866947      25.23693466      16.30137634
C       11.71144867      26.41240311      15.64360523
F       11.37240791      27.35258675      16.60619736
C       12.94480228      26.86864281      14.81857872
O       14.00960445      26.03570747      15.33304691
H       10.82011795      26.17601776      15.04065418
H       12.83208370      26.69282150      13.73637295
H       13.18130398      27.91811752      15.03687763
O       25.22564316       6.58723068      25.96565247
C       24.76710510       5.60728407      26.48418808
O       23.43707848       5.42023420      26.79508781
C       23.20856094       4.15179157      27.33660889
F       22.32106209       3.46155524      26.49113083
C       24.60649300       3.47491693      27.33738708
O       25.48653793       4.48130178      26.81330872
H       22.74020195       4.25552988      28.32569122
H       24.90536118       3.18766284      28.35043144
H       24.61908531       2.59975696      26.66841698
O        8.72357655      36.43753433      35.30229568
C        9.65865517      36.94357300      34.73834991
O        9.53428173      37.76928711      33.64464569
C       10.79711151      38.19677353      33.20593262
F       10.91591644      39.57089233      33.43605423
C       11.80991840      37.43619537      34.10114288
O       10.97392559      36.76027298      35.05323792
H       10.91103363      38.01188660      32.12652588
H       12.43185806      36.72948837      33.53505707
H       12.45890903      38.15390396      34.61765671
O       34.70557022      18.48034096       0.92730415
C       33.84427643      18.91557503       1.65449655
O       32.87384415      18.18108940       2.26605654
C       32.12298965      18.99857712       3.14546609
F       32.55501938      18.75432205       4.43745375
C       32.50542831      20.44258499       2.73756671
O       33.70485306      20.22622108       1.99118745
H       31.04571724      18.78003883       3.06842399
H       31.72654152      20.88804626       2.09754491
H       32.68665695      21.08205414       3.60959125
O       41.43968201      37.95545197       5.06950045
C       40.32049561      37.58168030       4.80621052
O       39.27318573      38.41101837       4.51742220
C       38.06505585      37.69246292       4.33277655
F       37.63284302      37.85427475       3.01997375
C       38.49275208      36.21120834       4.55675220
O       39.90101242      36.29039383       4.79647636
H       37.29758835      38.08435440       5.01440668
H       37.96578217      35.78697968       5.41742325
H       38.30149460      35.60107422       3.66001248
O       36.98369980      42.71225357      34.03575134
C       37.14819717      41.52274704      34.14860916
O       38.09963226      40.76427078      33.51587296
C       38.02465820      39.41941833      33.91786575
F       39.19304276      39.10115051      34.62089539
C       36.79019547      39.37572861      34.86962891
O       36.40727234      40.74584198      34.99466705
H       37.96097565      38.76061630      33.04227066
H       35.98263168      38.77457047      34.42311478
H       37.05110168      38.98464203      35.86389923
O       41.01832199      23.91510582      34.53680420
C       40.20512772      23.04098511      34.38990402
O       39.82941055      22.16176987      35.37018204
C       38.81991196      21.27009010      34.89416504
F       37.72148132      21.33321381      35.70114517
C       38.51418686      21.78002548      33.44662857
O       39.50498962      22.81009865      33.23749542
H       39.22337723      20.24397087      34.88757324
H       38.62572098      20.99947548      32.68191147
H       37.50707626      22.21993637      33.38945007
O       35.72052765      32.89135361      33.72602463
C       34.59762955      32.47797394      33.62972641
O       34.00270081      31.98697090      32.50262070
C       32.86371231      31.23184776      32.89090347
F       33.32610703      29.93177223      33.09096527
C       32.47880936      31.83810043      34.25614548
O       33.72336197      32.40008163      34.69608307
H       32.10244370      31.23600197      32.09852600
H       31.71293831      32.62256622      34.15909958
H       32.14736557      31.07629395      34.97436523
O       15.11315727      16.10900307       2.20423484
C       15.30962849      17.26272392       2.47538352
O       14.99600887      17.82181931       3.68885493
C       15.29453468      19.19858170       3.72346950
F       16.19267464      19.43240547       4.75179291
C       15.93544006      19.45047188       2.32027388
O       15.86709595      18.18309402       1.62892306
H       14.37991142      19.78175354       3.92201710
H       15.36732388      20.21116257       1.76908457
H       16.98800850      19.74638176       2.42481899
O       24.03110695      13.85064507       5.45148802
C       24.32120895      13.25757790       6.44677258
O       24.69474220      13.85182858       7.63802433
C       25.02815247      12.89265728       8.57943535
F       24.16475487      13.01318359       9.68494701
C       24.81440163      11.54152012       7.86464024
O       24.31419182      11.89926529       6.58113480
H       26.05557060      13.05820560       8.94106293
H       25.73321152      10.94374180       7.77503204
H       24.04301453      10.96722031       8.40107155
O       33.69061661      29.08554649      23.42651367
C       32.50286102      29.18137741      23.35006142
O       31.79837418      30.26705551      23.85636139
C       30.52243042      30.25056648      23.23452377
F       30.66059875      30.95960426      22.05076599
C       30.30056572      28.76868057      22.92339516
O       31.64431763      28.27498627      22.78161812
H       29.78564453      30.74237823      23.88473320
H       29.77781105      28.28817177      23.77003098
H       29.74416161      28.60105324      21.99120903
O       16.59935760       6.92413807       3.74995446
C       16.28616524       5.88392305       3.21663094
O       15.05055332       5.33353901       3.30039525
C       14.96710873       4.12651873       2.57072377
F       14.07767105       4.28351498       1.51146114
C       16.42540359       3.89902210       2.05284381
O       17.10245323       5.10538816       2.45353937
H       14.57692528       3.33160830       3.22652292
H       16.89595604       3.02396369       2.52356505
H       16.44247055       3.80246806       0.95614433
O       21.51555061      26.28155899      32.91695023
C       22.35290527      26.85558891      32.27298737
O       22.94727898      28.01378441      32.72503281
C       24.14208984      28.19344902      31.97421455
F       25.19009018      27.64263153      32.67042542
C       23.87509537      27.42579079      30.66500664
O       22.86673546      26.47366714      31.07731438
H       24.30291748      29.27647209      31.85497284
H       23.46903038      28.07485962      29.87420273
H       24.75136948      26.88669586      30.28367996
O        9.72778606       8.27537346      14.80251122
C       10.20592117       7.23387671      15.15717316
O        9.50708580       6.06105804      15.30492592
C       10.36476040       5.04485846      15.75320244
F       10.47991848       4.07524300      14.75160027
C       11.72753716       5.73382568      16.03030205
O       11.50891876       7.04622316      15.52280807
H        9.91210938       4.55974054      16.63288879
H       11.97703266       5.79358721      17.10034180
H       12.54487038       5.24110413      15.49110413
O       37.07200241      13.04377365      22.65563011
C       35.86801910      13.09301376      22.59025192
O       35.04143524      12.22495937      21.91025162
C       33.91680527      12.11022186      22.78290939
F       34.38255310      11.27416229      23.79823112
C       33.74800110      13.53255749      23.33906174
O       35.11985779      13.99817371      23.29640770
H       33.04638672      11.67681408      22.27133369
H       33.09862518      14.13491058      22.68506241
H       33.34878922      13.60826397      24.35902214
O        8.95383453      37.61865616       2.00059438
C        8.44913960      38.66958237       1.69647360
O        7.71929121      39.43442917       2.57008147
C        7.27263260      40.62008286       1.95407999
F        7.85305357      41.71974182       2.56273794
C        7.75721216      40.47244263       0.47789890
O        8.51291943      39.25041580       0.47831526
H        6.18438530      40.69501495       2.10173798
H        6.92815208      40.38614655      -0.24027650
H        8.42144775      41.30274582       0.20556086
O       26.67619705      17.08311272       5.20987606
C       26.17385483      17.55556107       6.19414902
O       25.65057182      16.83816719       7.22648954
C       25.10689545      17.68427849       8.19749260
F       25.74056816      17.46793175       9.42882538
C       25.38119507      19.11857986       7.69541454
O       26.11046982      18.89927864       6.47801495
H       24.03748512      17.47226715       8.33861732
H       24.43861961      19.64951515       7.49309826
H       25.97363091      19.71029663       8.40148163
O        8.83015251      34.57093430      32.81819153
C        8.88583279      34.93502426      31.67921638
O        8.14825344      35.99119568      31.16679192
C        8.68499374      36.28192139      29.89050674
F        9.72683716      37.18803024      30.06779671
C        9.28790092      34.94340515      29.41672897
O        9.61191177      34.33493423      30.67931557
H        7.92240047      36.71417999      29.22915459
H        8.55199623      34.34532547      28.86536980
H       10.18560600      35.04766464      28.79763603
O       23.76277924       6.10152817      23.34477806
C       24.10396576       4.95336866      23.21949005
O       24.72179031       4.44901657      22.10482216
C       24.85836411       3.04762459      22.16860580
F       26.19055557       2.74347258      22.05127907
C       24.28079414       2.69616938      23.56810379
O       23.86590576       3.96276164      24.11984062
H       24.33435249       2.59100199      21.31046104
H       23.38186073       2.06704235      23.47835922
H       25.03614616       2.23822117      24.22329903
O        1.60933292      37.70145416      30.45899963
C        2.82157230      37.67171097      30.49708176
O        3.56856704      36.53741074      30.51791000
C        4.94649839      36.83162308      30.60685539
F        5.59848785      36.29071045      29.50665855
C        4.99594784      38.38228226      30.61488533
O        3.61801696      38.77339172      30.55804253
H        5.39748478      36.41010666      31.51034927
H        5.46745157      38.75152206      31.53601456
H        5.54523563      38.75593948      29.73786545
O        0.24150765      18.03742027      28.42732430
C        1.05650413      18.84134293      28.77412415
O        2.24382591      19.07285690      28.13956642
C        2.91501331      20.13225365      28.78187370
F        2.83323669      21.23064423      27.93170166
C        2.11540270      20.41530418      30.08950806
O        0.93746573      19.63628006      29.87883377
H        3.96844292      19.87199211      28.94913673
H        2.63843966      20.08778954      31.00303459
H        1.86929190      21.48627853      30.19132805
O       19.09021568      34.10229111      37.09191513
C       19.84630203      34.85525894      37.63631439
O       19.52995682      36.07822418      38.16807938
C       20.63469124      36.63449097      38.81790543
F       20.36267090      36.67999268      40.19130325
C       21.81735420      35.67040634      38.50233841
O       21.18574524      34.61736298      37.77713394
H       20.80219841      37.66384888      38.45616150
H       22.61625481      36.13597107      37.90514374
H       22.25074387      35.27085114      39.42998886
O       26.24130058      25.56952858      12.68400764
C       26.04129791      24.38816452      12.90289116
O       26.50456810      23.33266640      12.18255424
C       26.43741989      22.16229630      12.99522400
F       27.72288895      21.88748360      13.41490269
C       25.53802490      22.57427406      14.17911720
O       25.32440758      23.98979378      13.99166965
H       26.07263756      21.33491898      12.37200928
H       24.55135918      22.08401299      14.16014957
H       26.02035332      22.43998718      15.16014481
O       32.81033325      35.53186035      39.27220154
C       32.44145584      34.52173233      39.81442642
O       31.14678383      34.25896454      40.14701080
C       31.02570724      33.06727219      40.86315536
F       30.24212456      32.19351959      40.10659409
C       32.49304581      32.54275894      40.96060562
O       33.25443268      33.50885391      40.23652649
H       30.52819824      33.26480103      41.82246399
H       32.83131409      32.49725723      42.00572586
H       32.58790588      31.54923439      40.49263763
O       26.88682747      13.39351463       5.82292080
C       27.11365700      12.88441181       4.75659275
O       26.43908882      11.82221889       4.22993803
C       27.10687828      11.32639694       3.09787369
F       26.30681038      11.51123810       1.96866202
C       28.39042854      12.18587399       2.99227500
O       28.11989594      13.25974274       3.90199447
H       27.31084824      10.25023937       3.20715642
H       29.28181267      11.63800621       3.32259822
H       28.52831268      12.55989552       1.96707129
O       20.48011971      41.54319763      30.65828323
C       19.52600098      40.92863846      30.24588966
O       18.39771461      40.70684052      30.97356606
C       17.49172783      39.91318893      30.21079636
F       16.33788872      40.67549133      30.05389023
C       18.19996262      39.67850494      28.85181236
O       19.47500610      40.33238983      29.02743340
H       17.23113823      38.99726105      30.76341057
H       18.35719872      38.61679077      28.62427711
H       17.65513420      40.14324570      28.01539040
O       41.96361923      16.11911774      15.32266903
C       41.18539429      16.27917290      14.41834545
O       40.41289139      17.39498329      14.20703125
C       39.91537857      17.35832977      12.88303852
F       40.79042435      18.09651756      12.07037067
C       39.99488831      15.86495972      12.47835350
O       40.94594955      15.35690212      13.43824196
H       38.91385269      17.80306816      12.84208775
H       39.01967621      15.37739849      12.59488487
H       40.36568451      15.71691418      11.45639038
O       29.84455872       6.59771156      34.27789688
C       30.86019516       5.97544956      34.12798691
O       31.32480049       5.47969437      32.93989944
C       32.68862915       5.16433620      33.07088470
F       33.42847061       6.29558992      32.75313187
C       32.82741547       4.90389299      34.59421158
O       31.72693443       5.63705397      35.13513947
H       32.96156693       4.34385014      32.39365387
H       32.69389343       3.83201671      34.81213379
H       33.76919556       5.28054953      35.01441574
O        1.44829500      17.56855011      16.14491653
C        1.76846147      16.41042137      16.20052338
O        1.13726854      15.46386719      16.95164871
C        1.73566186      14.21255016      16.75918770
F        0.93605703      13.39303207      15.96856976
C        3.06599236      14.52656174      16.01214600
O        2.85156989      15.87267590      15.56038761
H        1.87173700      13.72512531      17.73532677
H        3.93153214      14.47945023      16.68485069
H        3.21519876      13.85127544      15.15866089
O       20.19014359      15.69648933      32.29532623
C       19.77154922      14.62967205      31.93747902
O       19.70709419      14.15112019      30.65491104
C       19.71245003      12.74158382      30.74230576
F       21.04871941      12.38438606      30.87196922
C       19.03438759      12.47377586      32.09922409
O       19.31742477      13.67322445      32.82197952
H       19.29822540      12.27320385      29.83629990
H       17.94391441      12.34100533      32.00331497
H       19.49714279      11.60826302      32.59258270
O       36.43460464      39.16719437       8.22056580
C       35.78082657      38.78264999       9.15996552
O       35.54710388      39.50753403      10.30884171
C       34.43573761      38.95211411      10.98284531
F       33.30034637      39.62306213      10.53112984
C       34.42472458      37.49176025      10.46786022
O       35.14809036      37.58233261       9.22898579
H       34.52162933      39.12247086      12.06678104
H       34.94594193      36.80265808      11.14676380
H       33.40264893      37.14332962      10.26617146
O       18.30677032       1.70155656      20.30520821
C       19.45870399       1.79176533      20.62678719
O       20.16156197       0.80761528      21.25003815
C       21.52385902       1.13800776      21.36183548
F       22.27808571       0.24935797      20.61991310
C       21.62029076       2.58859444      20.81388092
O       20.26597977       2.87839341      20.39409637
H       21.83126450       1.08060634      22.41407967
H       21.91473579       3.30046940      21.60213661
H       22.30397034       2.65487051      19.95350647
O        2.64576340      11.58136749      27.81253433
C        3.28772187      10.72509861      27.24258804
O        4.33796740      10.97027969      26.40320778
C        4.93139267       9.77601433      25.94430923
F        6.24801540       9.78361988      26.34829712
C        4.12201595       8.66579437      26.67268372
O        3.06815648       9.39346027      27.32221222
H        4.91768932       9.70151711      24.84145927
H        3.72615862       7.93772602      25.95282936
H        4.76352692       8.15959263      27.40700722
O       20.70869446      22.09780312      20.85825729
C       21.67934418      22.80811119      20.77818298
O       21.82448959      23.92860603      21.56402779
C       22.95826530      24.65611649      21.10475349
F       23.68484497      25.06900978      22.19753265
C       23.70109940      23.66078758      20.18966103
O       22.68037415      22.68680763      19.86937332
H       22.58867645      25.54209900      20.55914497
H       24.02259064      24.12658310      19.24627876
H       24.53048134      23.16066742      20.70413399
O        6.80577087      39.36712646      33.04684067
C        7.50841236      39.90536499      32.23081970
O        7.89202690      41.20348358      32.27499771
C        8.50991344      41.56627274      31.06015015
F        9.81182003      41.94874191      31.33216095
C        8.53476429      40.26318741      30.20365715
O        7.94628763      39.28820419      31.08592224
H        7.96993256      42.40448380      30.58665848
H        7.94387197      40.35757828      29.27814102
H        9.55547428      39.95080185      29.95204735
O       30.19916725      20.71142578      14.99160862
C       29.44143677      19.79037857      14.91301060
O       29.73503304      18.56051636      14.37201023
C       28.65511513      17.65608978      14.60241890
F       29.04151154      16.82459068      15.63332176
C       27.50185013      18.57886314      15.05689621
O       28.16162109      19.80826378      15.40846443
H       28.48426056      17.06907272      13.68297768
H       26.76766777      18.77671623      14.25869370
H       26.96650887      18.20565033      15.94008255
O       25.05634689       4.42987728      14.06601143
C       25.04448128       3.32868671      13.57658195
O       26.17645073       2.54370546      13.41358948
C       25.79816055       1.28785145      12.88341141
F       26.16023445       0.32077286      13.80477619
C       24.26380539       1.37107241      12.68379116
O       23.95066071       2.72213030      13.05266190
H       26.37059784       1.09343433      11.95457363
H       23.96502876       1.17792916      11.63543034
H       23.69962692       0.69969314      13.34732723
O       26.20486641       9.50991154      26.58789253
C       26.22602463       9.63535309      25.39922142
O       26.99735260       8.88753414      24.54431343
C       26.88100433       9.36930275      23.21058846
F       26.45103645       8.34446049      22.39319038
C       25.89833069      10.56018162      23.33767319
O       25.50150108      10.59414005      24.72262955
H       27.87498093       9.69024086      22.85130501
H       26.41155434      11.49800873      23.11650467
H       25.02143478      10.44208050      22.68600082
O       39.41046524       3.04595327      19.30872726
C       38.85086441       3.91280699      18.68029785
O       37.54784012       3.84299302      18.26428223
C       37.15028000       5.14707947      17.81671906
F       36.68539810       5.82627487      18.91304016
C       38.50333786       5.77123976      17.38988304
O       39.44360733       5.04819441      18.22827530
H       36.39490891       5.06736612      17.01773262
H       38.71984863       5.61291933      16.32421684
H       38.50508118       6.83449268      17.65558052
O       35.61951065      20.13360786      24.35783005
C       36.78731537      20.04965019      24.61877823
O       37.76881790      19.66899490      23.74077606
C       39.03328323      19.81641006      24.35558510
F       39.65533447      20.92595100      23.80166054
C       38.71878815      20.08284187      25.84848022
O       37.31455231      20.34331894      25.83382416
H       39.62540817      18.91082382      24.16663551
H       38.92852020      19.19445610      26.46347618
H       39.24096298      20.97530556      26.22459602
O        5.02262735      23.31603241      34.40924835
C        6.07992268      23.38479424      33.84154129
O        6.94305515      22.34606552      33.63199615
C        8.01235580      22.76191330      32.81106949
F        7.90112114      22.10465050      31.59708595
C        7.83199692      24.28787994      32.65137863
O        6.58027172      24.52712440      33.32357407
H        8.97579193      22.50620270      33.26871490
H        8.62410259      24.84799004      33.16845703
H        7.77049494      24.58481407      31.59119797
O        7.25677729       4.09986448      23.30941010
C        7.48199272       4.07985878      24.49758339
O        7.38799810       3.00210738      25.30536270
C        7.83719683       3.32372713      26.60867310
F        9.11295319       2.80010319      26.78182030
C        7.86444283       4.86977100      26.63563919
O        7.79948950       5.18040371      25.23813820
H        7.16396618       2.90883040      27.36933327
H        7.00353098       5.28333712      27.18355751
H        8.79454803       5.26775885      27.06911278
O       16.76951981       8.77047443      12.46650696
C       17.81366158       9.22816658      12.83160877
O       18.20543289      10.52390385      12.56537724
C       19.37810898      10.85950470      13.27139091
F       19.10363579      11.89446163      14.14390945
C       19.74436378       9.56909275      14.03173923
O       18.78155136       8.60552025      13.55755234
H       20.15877151      11.17218781      12.55443573
H       20.76060867       9.22631741      13.80422592
H       19.66300201       9.71918583      15.11968327
O       40.78816986       9.28105354      24.86025238
C       39.58407593       9.38645267      24.83952713
O       38.78718948       9.47414017      25.93703842
C       37.44521332       9.75477886      25.56621933
F       37.11953354      11.02347279      26.01158333
C       37.44395828       9.64793777      24.02503777
O       38.85317993       9.46520138      23.69653130
H       36.76862335       9.03481960      26.05639267
H       36.88040161       8.78622055      23.66538620
H       37.08383560      10.56532288      23.54201698
O       16.32864761      38.31050110      19.41509819
C       17.29878235      38.55545044      18.75593948
O       17.70380592      37.82567596      17.65297890
C       18.64473343      38.58148575      16.91793823
F       17.96063042      39.26622391      15.91761208
C       19.19759750      39.57331848      17.96687698
O       18.18829727      39.56756973      18.99977303
H       19.37404251      37.91212463      16.44076920
H       20.14901733      39.22946548      18.39600563
H       19.27959251      40.58435059      17.54626846
O       32.65218735      21.47222328      22.55054855
C       32.66390228      20.27891541      22.41046715
O       33.66475296      19.58021736      21.76630592
C       33.40507507      18.18526840      21.80649185
F       34.28599167      17.59662628      22.69198036
C       31.93531609      18.12055779      22.28256798
O       31.68195724      19.43604279      22.82432556
H       33.58949661      17.76396561      20.80153465
H       31.24204063      17.94066048      21.44795036
H       31.76566887      17.37276459      23.06916809
O       28.83712578       6.58438778      29.19891548
C       29.41617775       7.48018122      29.76012421
O       29.72900581       8.68611050      29.17961693
C       30.50972939       9.46390533      30.08200073
F       29.88374710      10.66709614      30.28786087
C       30.56909943       8.64582634      31.38968658
O       29.86821365       7.43671656      31.04721642
H       31.48520660       9.63617897      29.60235786
H       31.59761429       8.41173172      31.69387436
H       30.05971146       9.15740681      32.21569443
O       23.42467880      14.26164055      39.68858719
C       22.92995834      15.07508755      38.92146683
O       22.59102058      16.31907463      39.30303955
C       21.96396637      16.99478340      38.18001556
F       22.94075394      17.75291824      37.57949829
C       21.58235741      15.81791496      37.25710297
O       22.60811996      14.82677460      37.64908600
H       21.14423561      17.61554909      38.56669617
H       20.58341408      15.42448521      37.47862625
H       21.68667030      16.01200104      36.18370819
O       16.44128227      29.12383652       5.82399511
C       16.83429527      28.94590187       6.94773483
O       16.28882980      29.51914215       8.07584381
C       16.82061577      28.96197891       9.25237751
F       15.89502716      28.15743065       9.86642742
C       18.01171875      28.12034416       8.72686481
O       17.89084435      28.16207123       7.29962349
H       17.09978485      29.77166748       9.94514370
H       18.97733688      28.51911354       9.06895256
H       17.91255760      27.08373833       9.08292484
O       24.97117615      23.49650574       0.87395084
C       25.99615860      23.73365974       1.45539200
O       27.11057854      24.28606033       0.87243193
C       27.89159584      24.82661629       1.92141211
F       27.45154381      26.11302376       2.15723062
C       27.54869270      23.93922234       3.14448500
O       26.22053719      23.52125359       2.76555753
H       28.95675278      24.81502342       1.65033770
H       28.22673988      23.07672501       3.21867347
H       27.51837730      24.48983192       4.09523010
O       27.77762032      40.26604843      13.96653175
C       28.97797394      40.21630478      13.85280228
O       29.85869026      40.51378250      14.86100674
C       31.17132950      40.34431839      14.42746544
F       31.81219864      39.41313934      15.25096226
C       31.03088760      39.76599503      12.98796558
O       29.62635231      39.83937836      12.73495674
H       31.72687149      41.30296326      14.49832630
H       31.59358025      40.35086441      12.24591160
H       31.35731316      38.71679306      12.94037342
O       28.27872849       7.83437443       6.00962448
C       28.66671944       8.90464783       6.41578865
O       29.53943062       9.08400917       7.45667219
C       29.58765411      10.43987751       7.84652376
F       30.89062881      10.88937473       7.85534906
C       28.74516487      11.18238544       6.75970697
O       28.20907593      10.10004234       5.96593237
H       29.16813660      10.55327797       8.86231709
H       27.92440224      11.78298569       7.17774343
H       29.38434029      11.81088448       6.12197304
O       37.88098145      40.70864105      25.31380463
C       36.77985382      40.68156052      24.81273842
O       35.66528702      41.16485977      25.44812584
C       34.54088211      41.09971237      24.59011078
F       34.13915634      42.39996719      24.31133461
C       35.05868530      40.38173294      23.31573486
O       36.46285629      40.17644501      23.60081863
H       33.70766068      40.60723495      25.11417007
H       34.58027649      39.41383362      23.13410378
H       34.95349503      41.03015137      22.43378639
O        4.88765335      31.00222588      23.55804443
C        6.00244761      31.16498184      23.99100304
O        6.48117828      32.37557602      24.46058273
C        7.76990128      32.24372101      24.99831772
F        7.76761866      32.56830215      26.34681320
C        8.14107800      30.76661873      24.72733879
O        6.97019005      30.21912575      24.10132027
H        8.45944405      32.93969727      24.48423386
H        9.00973511      30.67601204      24.05880165
H        8.36180496      30.25520325      25.67153168
O       -0.41369501      30.66489983      28.86955261
C        0.32781625      30.32473373      29.76237679
O        0.28166568      30.83047104      31.04646683
C        0.99664539      29.96343231      31.89235497
F        0.11452639      28.96046448      32.28600693
C        2.02340484      29.36382675      30.91863632
O        1.29960024      29.39559174      29.67785263
H        1.38938594      30.47668839      32.77750397
H        2.92206430      29.99150276      30.87774277
H        2.29691410      28.33231354      31.15983772
O       39.04118729      25.33063507      18.99280357
C       39.52787399      25.99131012      19.87109756
O       40.87343597      26.03603935      20.19935036
C       41.06925583      27.14579582      21.06003380
F       41.37302780      28.23253441      20.25322151
C       39.67760468      27.32926941      21.71931458
O       38.84156799      26.85344315      20.66842842
H       41.90333939      26.96010399      21.75251961
H       39.54866409      26.71512604      22.62699127
H       39.43887711      28.37921143      21.94194412
O       35.53123093       5.62578630      41.69136047
C       36.59542465       5.05980349      41.70266342
O       37.81298828       5.64894247      41.48976135
C       38.84985352       4.70881653      41.53235626
F       39.74284363       5.06792212      42.53973007
C       38.14055634       3.37872410      41.91028595
O       36.75938797       3.73633099      41.89973450
H       39.40858078       4.67846918      40.58443069
H       38.33576202       2.56907845      41.19683075
H       38.45521927       3.08572245      42.92575073
O       10.48231125      35.02101135      38.22146606
C        9.70937538      34.25752258      37.69739914
O       10.03598404      33.05912781      37.09518814
C        8.85931206      32.38938522      36.72772598
F        8.57244492      31.44264984      37.73801041
C        7.78818226      33.49362946      36.75106049
O        8.36534309      34.44834137      37.64603424
H        9.00612640      31.84048271      35.78456497
H        7.66504765      33.91569519      35.73904037
H        6.81953049      33.18363190      37.16362381
O       31.76235008      25.17728806      18.51861763
C       31.96711159      24.04216957      18.16608047
O       31.50850677      23.45433235      17.02117348
C       32.06744766      22.16398811      16.85166740
F       32.88683319      22.16373634      15.73528385
C       32.87718582      21.94395256      18.15082741
O       32.72182846      23.16338348      18.90146255
H       31.24054718      21.46593285      16.65446281
H       32.44293976      21.11570168      18.73144341
H       33.94080734      21.74612617      17.94635391
O        4.97601032       2.93251204      29.33643723
C        5.94930458       3.45592833      29.82818222
O        7.19965696       2.89168859      29.90097237
C        8.07372189       3.76517701      30.56060982
F        9.13256359       4.03583860      29.67455864
C        7.26227760       5.06094742      30.79611206
O        5.95953512       4.71235991      30.33650208
H        8.48602486       3.32561183      31.47954941
H        7.22858334       5.35092354      31.85453606
H        7.64804554       5.90667343      30.19819069
O       26.41663361      24.63262939       8.41386795
C       25.28097343      24.75241470       8.77386761
O       24.17124367      24.16777992       8.19191837
C       23.04140854      24.35436440       9.03035641
F       22.75017738      23.14194107       9.64385128
C       23.48048592      25.39703941      10.08288383
O       24.88801956      25.53435707       9.83890343
H       22.17982292      24.65942383       8.41563034
H       22.96499825      26.36031914       9.94098949
H       23.31232071      25.05070877      11.11347580
O       38.44900131      12.43337917      29.69067001
C       39.51140594      12.19726658      29.17694855
O       40.72972488      12.43735027      29.74546051
C       41.75744629      11.97629929      28.89542961
F       42.42084122      10.95080090      29.55085182
C       41.03733826      11.45227432      27.62232971
O       39.65431976      11.66574192      27.94277191
H       42.48252106      12.78279877      28.69863510
H       41.31109619      12.02247047      26.72184563
H       41.20936584      10.38929844      27.41094017
O        2.26999068      39.19348526      22.98205566
C        3.29190612      38.58597183      23.18329811
O        4.36117029      39.08474731      23.87955284
C        5.34710836      38.10271454      24.04813576
F        5.42528534      37.81733704      25.41014862
C        4.83335972      36.89004135      23.21969604
O        3.55657840      37.32578278      22.75177765
H        6.33330870      38.46971893      23.72216988
H        5.50519466      36.63299942      22.38373756
H        4.70614767      36.00580215      23.86200714
O       19.79150772       5.55941677      35.46443939
C       19.74424362       6.68778896      35.87896347
O       20.64514160       7.25964594      36.74058533
C       20.40531349       8.64539433      36.79300308
F       21.26446533       9.26064587      35.88346863
C       18.94150352       8.79425430      36.28877258
O       18.76959801       7.58853054      35.53866196
H       20.62958336       9.02978706      37.79515076
H       18.22124863       8.85243797      37.11639786
H       18.83101082       9.65836811      35.61806870
O       18.98344421       4.04350710      37.78410721
C       18.03561211       4.44459724      37.15253067
O       17.40940666       3.80627751      36.12066650
C       16.22960663       4.50345564      35.76315308
F       15.14753056       3.71730208      36.12028503
C       16.26541519       5.80563974      36.62232208
O       17.43782997       5.63444090      37.42856216
H       16.20576096       4.65656757      34.67122269
H       16.38917923       6.69748497      35.99365234
H       15.38049984       5.91234922      37.26013184
O       12.66553307      43.39447784       5.69202375
C       13.45232296      42.49729156       5.55623102
O       14.16464806      41.95186615       6.59839725
C       14.87086201      40.83270645       6.15261745
F       14.25488091      39.67873383       6.65907955
C       14.73756504      40.85849762       4.60485077
O       13.76228619      41.88379669       4.39834595
H       15.89260483      40.86272430       6.54682636
H       15.69175243      41.12325287       4.12276602
H       14.34686565      39.90996552       4.20700407
O       33.92174530       9.30779457      19.49236298
C       32.92181015       9.96087456      19.59272575
O       31.65000153       9.44740677      19.59546471
C       30.71581078      10.50094318      19.74986839
F       30.34220695      10.59052753      21.08495712
C       31.53196907      11.73328018      19.33015060
O       32.87625885      11.33173847      19.65793037
H       29.83811569      10.29629326      19.13019753
H       31.44519615      11.83888435      18.23468208
H       31.24002075      12.65287781      19.85367393
O       14.79092026      20.01925468      26.44166183
C       14.15988731      19.03392029      26.15457153
O       12.92352772      18.75243378      26.68723106
C       12.33404160      17.69885063      25.94981956
F       11.55056667      18.27175522      24.95637703
C       13.54876232      16.98356247      25.33051682
O       14.54857826      18.03862000      25.30051422
H       11.70220757      17.10230255      26.62144279
H       13.88975048      16.17331123      25.98465919
H       13.36444187      16.60944939      24.31548882
O        1.40918815      25.93002701      39.64515686
C        2.35911083      26.66011047      39.73561478
O        3.62973595      26.26441193      40.05242538
C        4.49957800      27.37214088      40.10572815
F        5.49238348      27.23491478      39.14295578
C        3.58302903      28.60259056      39.79109573
O        2.29779649      28.00200653      39.55697632
H        4.98898649      27.43587303      41.09025192
H        3.51638722      29.32766724      40.61622238
H        3.93184495      29.12358284      38.88878250
O       24.67444420      30.36287308      34.50951004
C       23.79607964      30.58320999      35.30382156
O       23.90198708      31.41610527      36.40554047
C       22.59146500      31.84195900      36.72378159
F       22.28958130      32.87274170      35.83103561
C       21.72313499      30.66212463      36.28108978
O       22.52062225      30.12050819      35.21315384
H       22.51714516      32.21034622      37.75386047
H       21.58292961      29.93178749      37.09329224
H       20.74780655      30.98520470      35.89097595
O       19.12364388      42.40897751       5.80876398
C       20.25568771      42.01284027       5.68055201
O       21.31708145      42.78907394       5.29656315
C       22.51613998      42.04427719       5.33971167
F       23.32989693      42.60700607       6.30890417
C       22.08191490      40.60395813       5.73946190
O       20.66549492      40.75082016       5.89851379
H       23.04283714      42.09326553       4.36997271
H       22.30729294      39.84432220       4.97679996
H       22.54962349      40.32346725       6.69359875
