1810
Lattice="31.229999542236328 0.0 0.0 0.0 31.229999542236328 0.0 0.0 0.0 31.229999542236328" Properties=species:S:1:pos:R:3 pbc="T T T"
Na       9.27782536      14.93703747      16.75730133
Na      12.17051029      26.60350990      10.03872013
Na       6.40836859      15.41984177      27.08529282
Na      18.46178246      10.19750881      10.78002357
Na      21.16812325       8.18348694      27.94789124
Na      26.86706924      16.79789352      28.35803986
Na      15.71769905      17.51383972       4.49248123
Na      13.82176590      15.36319828      28.52117348
Na      25.43726540       9.61309433      12.55897713
Na      21.73473549       5.96862936      24.15086937
Na       6.51267862      32.25868225      14.02657604
Na       5.52858877      24.46467209      14.70459557
Na       9.77370930      18.91022682      13.68539143
Na      19.41192818      13.37066841      14.25292683
Na      13.79542351       5.49530077      17.69686508
Na      10.48826122      25.31782722      22.22478294
Na       8.43528366       5.17214632      23.27632904
Na      18.97235680      30.75695801      14.61294079
Na      11.53941536      17.96053886       5.56255388
Na       2.70649695      16.45159912       8.49073505
Na       4.90198088      21.47389603       0.62563133
Na      15.50960350      25.88696861      23.59701347
Na      27.82893562      29.74981689       3.25494194
Na      23.95021057       0.00655092      17.16002083
Na       8.07334614       1.78263748       8.69046879
P       30.06346512      23.73670959      28.90386009
F       30.63018227      22.37819290      28.18530083
F       29.55755615      25.10142899      29.63016129
F       31.24286079      24.60104179      28.14613914
F       28.92503548      22.86210823      29.68115997
F       31.10804176      23.48664474      30.15185738
F       29.05045700      23.99586105      27.64562035
P       13.85340118       1.10187864      12.01619053
F       13.40836239       2.59315586      12.49238873
F       14.26382351      -0.40553683      11.52981281
F       12.91043949       1.24882579      10.67431641
F       14.77034092       0.93065363      13.35566235
F       12.55326557       0.45486143      12.85062885
F       15.14051247       1.71387041      11.19687748
P       13.13812637      17.37139893       1.84076309
F       13.22408867      16.94686699       3.48195028
F       13.07560062      17.80668449       0.27236757
F       11.55984592      16.89485550       1.81402826
F       14.71530533      17.84855270       1.94682968
F       13.63284016      15.85971165       1.44515228
F       12.67413998      18.87201309       2.31759119
P       20.15120316       2.30834436       3.39946842
F       19.66768456       1.16777027       4.42897367
F       20.65587807       3.47104144       2.38154793
F       20.76914215       1.16419756       2.40871215
F       19.54436874       3.45266914       4.40333652
F       21.58092880       2.38115716       4.18903112
F       18.72677612       2.23583102       2.61123991
P       14.17131424      19.72591782      19.94486046
F       12.92297268      18.74049950      19.57240868
F       15.41706944      20.73043633      20.28379822
F       15.22811604      18.51031113      19.75385857
F       13.13210964      20.98450089      20.11293793
F       14.03051281      19.39412880      21.53889275
F       14.33833313      20.11595535      18.34884262
P       25.48083878      13.61482239      15.90062904
F       24.13044930      14.15631104      15.08835125
F       26.80125427      13.03812218      16.64514351
F       24.59062195      13.35827446      17.25082970
F       26.39330673      13.85731983      14.55079365
F       25.83360672      15.13608456      16.40499496
F       25.11248016      12.07377911      15.35985851
P       15.20914078      13.56359863      25.53660774
F       16.15185928      12.31396675      25.03359795
F       14.24779987      14.80053139      26.14119911
F       14.63537979      12.60905647      26.78198242
F       15.77228832      14.55982018      24.39367676
F       13.99864578      13.08814621      24.55677414
F       16.40441895      14.06569099      26.54532433
P       12.35872269      16.26939392      13.73038483
F       12.01287746      17.35284042      12.47699165
F       12.64804745      15.23109818      14.96081638
F       12.23208427      15.01596832      12.66794491
F       12.47066021      17.54992867      14.76464653
F       10.70277309      16.19270325      14.04304409
F       13.98465443      16.40524673      13.41719341
P       25.91575623       6.61959696      17.77910614
F       25.61624146       8.11163807      17.16469574
F       26.23174667       5.10387754      18.36260223
F       25.92238808       7.17875957      19.31749153
F       25.95021629       6.02262640      16.27660942
F       27.52260399       6.88464737      17.72470474
F       24.30603600       6.34067488      17.88833046
P        6.87336826      25.36322594       8.59731960
F        7.57599163      24.25806618       7.60043812
F        6.17531300      26.46088219       9.60096550
F        7.41900110      26.58556175       7.64532185
F        6.33007908      24.12376404       9.57217407
F        8.24296665      25.44145584       9.48655033
F        5.49096060      25.28127289       7.71567297
P       16.11224937       5.44403076      13.92423630
F       14.68355846       5.01313066      14.60038376
F       17.54715347       5.91331768      13.29449749
F       15.56958294       6.98041821      13.80187893
F       16.66455650       3.90595984      14.10325718
F       15.53241062       5.09676456      12.44490337
F       16.67601395       5.79136229      15.42441845
P       24.39850426      27.66369438      14.99072838
F       24.30510521      26.06201363      14.77835274
F       24.52272415      29.31628990      15.22308540
F       25.79140663      27.49027443      15.82434177
F       23.00703239      27.88820267      14.16159153
F       23.55194664      27.57610512      16.40023422
F       25.25857735      27.81366730      13.61207676
P        6.55386496      10.72878647       6.56265020
F        6.76544762      11.73563957       7.83577394
F        6.33267450       9.74290657       5.27066708
F        6.30243349      12.03114128       5.56475925
F        6.82717371       9.44504833       7.50662565
F        4.94548750      10.67465687       6.88115644
F        8.15943909      10.80558681       6.22487831
P       19.01389122      27.31662560      24.09838486
F       20.55957413      27.74104691      23.85848808
F       17.38961220      26.88123894      24.38537979
F       18.53521347      28.85251427      24.06860352
F       19.41137123      25.73450470      24.16519547
F       19.21415520      27.42119598      25.71841812
F       18.74440193      27.17395210      22.50622749
P       25.24024582       9.77614117      23.22856903
F       23.79599762       9.12118816      23.71580887
F       26.67338181      10.37155724      22.78225708
F       24.44022942      10.89520168      22.36717987
F       26.03432465       8.63638306      24.12071991
F       25.23532867       8.75382233      21.95547485
F       25.21864700      10.76747513      24.54027748
P       18.26652527      27.07897758      16.22938156
F       16.99624443      26.57694054      15.32547665
F       19.52261925      27.59822464      17.14035416
F       17.87016869      28.67299080      15.88375473
F       18.64817238      25.54305077      16.56342506
F       19.22476387      27.05789185      14.89981174
F       17.29911804      27.16970062      17.54590607
P        6.99769449      14.50391293      13.65281105
F        5.74705935      14.90681934      12.65071106
F        8.23963356      14.08515453      14.67121029
F        8.02883720      14.39420605      12.38099957
F        6.00033522      14.61254501      14.94543648
F        6.60914183      12.90273571      13.49412727
F        7.38867998      16.09240723      13.85722637
P       26.61820412      27.64871597       1.63019514
F       27.80383492      28.76442337       1.21479726
F       25.47753334      26.66373634       2.19082665
F       25.86854935      28.95975113       2.42680144
F       27.44911385      26.46854401       0.96583235
F       27.47408295      27.48067856       3.06993032
F       25.79327583      27.99865913       0.30243704
P       19.00767326       2.70821047      25.84253311
F       20.61346436       3.00352287      25.89751053
F       17.39874840       2.43041015      25.80665016
F       18.76183128       4.01078033      26.81280518
F       19.27960968       1.45469809      24.86941147
F       19.15220833       1.74762821      27.16313171
F       18.88031006       3.69930744      24.53046036
P        9.58201027      18.80839920      21.02813721
F        9.61547661      20.03164673      19.88584328
F        9.55739117      17.63662338      22.18045425
F        8.16114140      18.29291916      20.43408775
F       10.98750687      19.36569595      21.65689659
F        8.76972866      19.84111977      22.06418037
F       10.38863945      17.82034874      20.02036667
P        8.40425491      22.53426552      15.69545078
F        7.44530344      21.20606232      15.85248375
F        9.28585720      23.89287376      15.49087048
F        9.33702469      21.75144386      14.59625053
F        7.41067314      23.37196159      16.72111893
F        9.33090305      22.08275795      16.94045830
F        7.36990452      23.03165054      14.42267323
P       22.53015709      13.71539497      26.42163277
F       22.03771973      15.16907120      25.91181374
F       23.02330399      12.24493027      27.00684738
F       23.16281700      14.42109776      27.76537704
F       21.92010689      12.99641228      25.11352730
F       23.97869301      13.88243198      25.68076134
F       21.10269547      13.52904510      27.21657562
P        1.72944891      15.30521774      22.62373543
F        0.98667425      14.50852680      23.88898277
F        2.48416972      16.09113121      21.40566444
F        2.37402248      13.89336777      22.13802528
F        1.07360542      16.70861626      23.15983963
F        3.03785634      15.56796932      23.59777641
F        0.42889747      15.03069592      21.68937111
P       10.47553158      16.31838608      26.80308723
F       10.29292870      17.91903877      26.60138702
F       10.67406750      14.68468475      27.13007927
F       11.59458447      16.23781776      25.62877846
F        9.39514923      16.39596939      28.06824684
F        9.27414703      15.98515415      25.74802589
F       11.68325043      16.62804794      27.93051720
P       11.94115067      13.46065903      19.26299667
F       10.49413490      12.85925293      19.80582047
F       13.35410023      14.03840351      18.67637062
F       12.73269558      12.79602718      20.54117584
F       11.15516853      14.13282681      17.94698143
F       11.68372822      14.82540131      20.10561562
F       12.17174149      12.08125877      18.38274765
C       25.19681168      13.98240757      11.98895073
O       24.96619606      14.08521175      10.58510971
C       25.30716896      15.40536118      10.16040516
C       25.44248962      15.38100243       8.64818192
O       25.82808685      16.72135925       8.34445667
C       26.13277626      16.84509277       6.94964886
C       26.49445152      18.31032944       6.76755619
O       26.65496254      18.56466866       5.36584282
C       27.84552002      18.05374146       4.76655197
H       24.54012489      14.63215923      12.60039043
H       24.97778702      12.94786644      12.29398823
H       26.23564720      14.24115658      12.24616051
H       26.26594734      15.71350574      10.61585712
H       24.55117416      16.14036942      10.49791336
H       24.49567413      15.10881615       8.14600372
H       26.21263313      14.65255451       8.33191776
H       25.25350189      16.59765816       6.32802773
H       26.96016884      16.17472267       6.65474892
H       25.65786743      18.93879318       7.11932611
H       27.37887192      18.59460449       7.36314249
H       27.91607285      16.95754433       4.83762550
H       28.74113083      18.49957085       5.22325373
H       27.80257225      18.30117607       3.69636416
C       21.11972809      20.53563118      25.62616920
O       21.73116875      19.27807045      25.90263367
C       23.14654160      19.28542709      25.63002396
C       23.62206268      17.88316917      25.99072075
O       25.01136780      17.78827286      25.65888405
C       25.45029449      16.42584419      25.58111382
C       26.93208694      16.48904228      25.18425560
O       27.56447411      15.19352722      25.07722092
C       28.13371658      14.68396759      26.28861237
H       21.20586777      20.79430008      24.55594826
H       20.05122948      20.44728851      25.87641335
H       21.58192444      21.35125732      26.21015358
H       23.65158081      20.07976341      26.20909691
H       23.32768631      19.46371841      24.55131912
H       23.03955269      17.14710236      25.41029930
H       23.44951057      17.66419220      27.06527138
H       24.87504196      15.87264919      24.81504250
H       25.28751373      15.90282345      26.54810143
H       26.97633934      16.91550636      24.16398239
H       27.52430916      17.16810226      25.83804703
H       27.35060120      14.34444904      27.00062752
H       28.80158043      15.43490887      26.76031685
H       28.73184013      13.79495525      26.04085732
C       22.28200912      11.27586842      15.28566456
O       20.83888245      11.23360062      15.33864212
C       20.41863060      10.27972603      16.33425903
C       18.91879082      10.09042263      16.15735435
O       18.54158401       9.04703426      17.07462502
C       17.18740463       8.68307781      16.79497337
C       16.73710251       7.70690250      17.88875771
O       15.31013680       7.51340961      17.75364685
C       14.51144791       8.44692039      18.50801659
H       22.67502022      10.29125595      14.96618366
H       22.57929230      12.04256344      14.55514240
H       22.72022057      11.51481056      16.26853752
H       20.68608856      10.63472557      17.35330582
H       20.92298508       9.30508804      16.15121651
H       18.68056107       9.79979515      15.11140156
H       18.32666206      11.00620461      16.35025978
H       17.07767868       8.21842957      15.78761005
H       16.50953484       9.55863476      16.83300972
H       17.20786858       6.71944427      17.74695969
H       16.99219894       8.09356213      18.89297104
H       14.92831421       9.46560001      18.46500206
H       14.41954136       8.13173962      19.56051445
H       13.49201965       8.46092415      18.09403801
C       20.67351532      24.26116562      13.45211029
O       19.38313675      23.71316719      13.73626900
C       18.45278358      23.81030464      12.64163303
C       17.09468269      23.57813454      13.28215694
O       16.11054039      23.32736015      12.25567341
C       14.90880299      22.78844452      12.81028461
C       14.13282681      22.17354012      11.63895702
O       13.07243538      21.33280182      12.15919113
C       13.54846573      20.02050400      12.45404339
H       20.57142639      25.18751717      12.86205292
H       21.17186546      24.47646332      14.40176105
H       21.29939842      23.53901291      12.89278603
H       18.65661240      23.04509926      11.86516380
H       18.48917961      24.80830002      12.16371155
H       16.79828072      24.45520210      13.89970589
H       17.13754272      22.70602417      13.95706940
H       14.29365158      23.57234955      13.30449009
H       15.11765480      22.02800560      13.59031391
H       13.63084698      22.93018532      11.00607681
H       14.80493927      21.59079361      10.97392082
H       14.32609177      20.01658821      13.23774242
H       13.96184063      19.51026535      11.55385017
H       12.68943691      19.45089149      12.83022690
C       22.90697479      23.13850975      15.93103027
O       23.97187805      22.74282265      16.78085709
C       24.38743210      23.76711273      17.71881294
C       25.74526405      23.27276039      18.17287064
O       26.22045135      24.16345024      19.18919945
C       27.59146500      23.90357971      19.46973228
C       27.98203278      24.82304955      20.62146187
O       29.36486435      24.55546951      20.89416695
C       29.74893379      24.46088028      22.24961090
H       23.11574936      24.11344337      15.46684361
H       22.78153229      22.37021065      15.15427494
H       21.94207764      23.18524742      16.46791458
H       23.65170860      23.88140106      18.53507805
H       24.47321892      24.74050140      17.20134544
H       26.42655945      23.24088287      17.29724884
H       25.65899277      22.24254990      18.56134796
H       28.21968460      24.09637451      18.57796478
H       27.74565506      22.85234833      19.76958847
H       27.84726906      25.87952042      20.32559776
H       27.32158661      24.64341927      21.48757935
H       29.38662338      23.51919556      22.70077896
H       29.37907791      25.30849838      22.85777473
H       30.85254669      24.45445824      22.28667450
C        6.39818525      15.78007126       9.87312603
O        7.56836843      15.02078915       9.61248684
C        7.70726824      14.76249027       8.21452427
C        8.96518898      13.94800663       7.97973585
O        8.92943192      13.66045284       6.56925631
C       10.17455769      13.19354534       6.03487444
C        9.96924496      12.83071041       4.56597710
O       11.24983692      12.60807037       3.93667793
C       11.53721142      13.53942966       2.87589097
H        5.48445702      15.17702293       9.69592571
H        6.37074709      16.09353447      10.92388725
H        6.34175158      16.67324066       9.22063637
H        7.77291346      15.71289825       7.64346075
H        6.83747911      14.20835590       7.82120657
H        8.97648048      13.01571751       8.57504845
H        9.84072971      14.55879402       8.24485302
H       10.55432987      12.32570648       6.61696386
H       10.90843201      14.02144814       6.07862711
H        9.33886909      11.93123817       4.43437004
H        9.44253922      13.65974903       4.06474400
H       11.84385395      14.51800060       3.27157402
H       10.64996052      13.67050934       2.22920203
H       12.36465836      13.13261604       2.27333474
C        3.78611398      26.73648643       4.34090328
O        4.35225201      25.44598007       4.30229568
C        4.99454212      25.06654739       3.08466840
C        5.61035442      23.69948387       3.39094019
O        6.22491264      23.19669914       2.19449997
C        7.15574408      22.13732147       2.44027328
C        7.95874405      21.87104988       1.14736295
O        8.53396511      20.55772209       1.19115448
C        9.72240639      20.45276260       1.97905910
H        3.02504992      26.88434029       3.55518460
H        3.29187274      26.83596230       5.31724834
H        4.56916094      27.50622749       4.25812483
H        5.79387903      25.77768898       2.81520653
H        4.26566982      25.00829887       2.25800610
H        4.83910656      23.00772858       3.76738524
H        6.35340643      23.82312775       4.19837666
H        6.60702181      21.21419144       2.71023512
H        7.83412266      22.39016342       3.27355671
H        7.32156038      21.86376762       0.24358422
H        8.73172569      22.64583015       1.00715482
H        9.54790497      20.62604141       3.05242372
H       10.51104546      21.13286591       1.61877942
H       10.04677486      19.41186523       1.85151577
C       24.57921028       0.96973431      21.66990280
O       25.08375168       2.29559374      21.59479332
C       26.49764633       2.34649277      21.31283188
C       26.78919029       3.81948614      21.50804138
O       28.15361977       4.01229858      21.20214081
C       28.54812050       5.33267736      21.54791260
C       30.01945686       5.45037174      21.16342926
O       30.39862251       6.82993937      21.30036545
C       30.21316719       7.58848476      20.10185051
H       24.77926254       0.52134246      22.66116524
H       23.49353600       1.02393031      21.51657295
H       25.00229645       0.32369217      20.88042450
H       26.70994377       1.99006486      20.28256798
H       27.06423759       1.72045410      22.02521133
H       26.53551674       4.12865353      22.54201889
H       26.12675858       4.41290951      20.84487534
H       28.39422035       5.53759527      22.62708855
H       27.94574547       6.07198524      20.98395157
H       30.65959549       4.87219238      21.85128975
H       30.17125702       5.08572912      20.13029289
H       29.18304825       7.53948832      19.71182060
H       30.90085411       7.23968124      19.30773163
H       30.43276405       8.63194847      20.36443138
C       11.65794754       5.30335236      14.94366074
O       12.07003307       6.59730005      15.40044594
C       12.52401924       7.41550732      14.30568695
C       13.36240196       8.51900196      14.93913841
O       13.84106731       9.26998520      13.81738472
C       15.08327770       9.96421432      13.99898338
C       15.87153530       9.82296848      12.68126297
O       16.90909386      10.84043121      12.59929466
C       16.35664558      12.18652821      12.53674412
H       12.50796509       4.63012648      14.77128029
H       10.98847580       4.89536381      15.70916557
H       11.09355831       5.36843014      13.99727631
H       11.66633511       7.80382538      13.72224617
H       13.13067532       6.84536648      13.57890987
H       14.18797779       8.07518768      15.53120899
H       12.77770138       9.15167236      15.63981438
H       15.66673946       9.51258469      14.82290363
H       14.87122631      11.01724625      14.25735283
H       16.39656639       8.85492611      12.60542297
H       15.20380211       9.90994930      11.80156422
H       16.03227615      12.54359245      13.52621841
H       15.49681950      12.20899010      11.84242058
H       17.16937447      12.83174515      12.16114998
C       21.85956573      13.11721897      19.09904671
O       21.14252090      14.22965336      19.60870171
C       19.73962021      14.08586693      19.37158585
C       19.01298714      15.05575371      20.31413078
O       17.62123489      14.66894054      20.34298134
C       16.87791634      15.52300644      21.23598671
C       15.46490574      14.96878052      21.35994911
O       14.74644566      15.90046024      22.19251442
C       13.41749668      15.56609535      22.57328987
H       21.80421829      13.09203434      17.98370361
H       22.92054939      13.17725182      19.39022827
H       21.44397163      12.16553783      19.48775291
H       19.41693497      13.04052353      19.58078575
H       19.49324226      14.27218914      18.29187584
H       19.08492088      16.11215401      19.96243286
H       19.42915535      15.05637741      21.34491730
H       16.81814957      16.55462456      20.81859016
H       17.37686157      15.59566116      22.22976875
H       14.97902679      14.89309120      20.35630798
H       15.45868683      13.94579983      21.79927254
H       13.27460766      15.71097946      23.65666389
H       13.15903187      14.51647854      22.33253288
H       12.70539474      16.23147964      22.04461479
C        3.84028292      22.02126694      28.80649376
O        5.15587997      22.49983978      28.53320122
C        5.42767572      22.86431694      27.16243744
C        6.94622278      23.06236839      27.17795372
O        7.33069992      23.46693039      25.86013412
C        8.70641232      23.86893845      25.81629944
C        8.76824570      25.04717827      24.82770920
O       10.15651703      25.30995560      24.47749138
C       11.01558113      25.99670792      25.40218353
H        3.37480760      21.55531502      27.92587852
H        3.92923999      21.23921585      29.58475113
H        3.19286275      22.83270645      29.18313217
H        4.88584185      23.78212547      26.87352753
H        5.13325071      22.05756378      26.46895981
H        7.42492485      22.11347961      27.47563362
H        7.21037054      23.82771683      27.93265724
H        9.34960365      23.04989624      25.44662476
H        9.07399654      24.18318176      26.80713081
H        8.27817726      24.74647903      23.88569260
H        8.27518272      25.95578384      25.20744514
H       11.06963158      25.48436546      26.37639236
H       10.70798779      27.04754448      25.54142570
H       12.02300453      25.98674965      24.94182587
C       27.99547386      20.44399452      26.01837349
O       28.79874802      19.47257233      25.33277130
C       28.57048988      19.48326302      23.89683533
C       29.47238731      18.41387367      23.28183556
O       28.73740768      17.92703819      22.15742683
C       29.41800117      16.90402603      21.41269684
C       28.52083206      16.64824867      20.20162773
O       29.05142784      15.65785217      19.28339577
C       30.12647057      16.12293243      18.46119499
H       26.96285057      20.07141876      26.13613129
H       28.41263199      20.63215446      27.01611900
H       27.95992661      21.39363670      25.45643044
H       28.78360558      20.48725891      23.48737144
H       27.51654053      19.23847008      23.68048859
H       29.65399551      17.60538864      24.01536560
H       30.45715904      18.82382965      22.98548317
H       29.50374222      15.98754215      22.02623177
H       30.43502998      17.23413086      21.12372780
H       27.55051613      16.24009514      20.54204559
H       28.30143547      17.60368347      19.68110275
H       30.99352264      16.45672417      19.05048943
H       29.78566933      16.92295647      17.78459549
H       30.44948769      15.27409554      17.84711266
C       21.80641747      17.88243866      13.30554008
O       22.88395500      18.80545616      13.26068211
C       24.04084969      18.37760162      14.00155258
C       24.97206497      19.56927299      14.04751492
O       26.11401176      19.15875053      14.80239391
C       26.93086815      20.29012108      15.10009575
C       28.17984200      19.73420906      15.78992462
O       29.03466797      20.82369804      16.17565918
C       29.83056641      21.32268333      15.09650707
H       21.54972076      17.59657097      14.34015656
H       20.92286491      18.36155319      12.85239697
H       22.01502037      16.95326042      12.73587608
H       24.49111366      17.48471451      13.52562332
H       23.75999641      18.11578751      15.03323746
H       24.45534515      20.42921638      14.51978302
H       25.25330544      19.86491776      13.01958370
H       26.38253403      21.01188660      15.73628521
H       27.20403862      20.81195259      14.16160107
H       27.89568329      19.21029663      16.71742821
H       28.69451141      19.00655174      15.13381767
H       29.21680832      21.74581528      14.28748226
H       30.46424675      20.52790451      14.66327953
H       30.47282791      22.10810471      15.52446079
C       12.10889339       9.71897221      20.36910439
O       11.77878475       8.33045292      20.21133423
C       12.04865360       7.59171295      21.40000153
C       11.62433338       6.17735052      21.02623177
O       11.86536598       5.34041786      22.16916275
C       11.41986275       4.00209284      21.95113945
C       11.82587624       3.23030448      23.20958328
O       11.61092663       1.82739222      22.99687767
C       10.34000874       1.35525787      23.38918114
H       13.19843483       9.88716221      20.40666389
H       11.68069553      10.22774792      19.49548531
H       11.67191505      10.14617443      21.28639603
H       11.46838760       7.98770428      22.25915527
H       13.12119293       7.62258530      21.67859650
H       12.16921616       5.81313562      20.12699318
H       10.55695248       6.14996672      20.73007202
H       11.88550377       3.54939437      21.05054092
H       10.32096100       3.97950554      21.75549316
H       12.90504169       3.37986803      23.36511803
H       11.30807877       3.59274888      24.11799812
H        9.56493282       1.58307350      22.63532829
H       10.00450039       1.76239073      24.36173248
H       10.40073776       0.26252392      23.48278809
C        2.24146557      26.70650673      10.11682510
O        2.83935714      25.48368645      10.53325176
C        2.74292827      25.25929832      11.94883823
C        3.34880686      23.87774467      12.11651897
O        3.29950047      23.55459785      13.52121735
C        3.63544631      22.18435097      13.78221798
C        2.80566669      21.81188965      15.01992512
O        3.24265337      20.52217865      15.47991180
C        2.37931776      19.41916084      15.22561932
H        2.66789293      27.55900574      10.67131424
H        2.44888330      26.81945229       9.04805088
H        1.14797044      26.67301941      10.26520729
H        1.69972873      25.28640747      12.29961014
H        3.30545521      26.03090477      12.50670910
H        4.38839006      23.85085106      11.73719692
H        2.76225042      23.15153503      11.52515316
H        4.71761656      22.06659508      13.97913647
H        3.38587856      21.53589058      12.92330074
H        2.96577191      22.53857994      15.83821201
H        1.73527491      21.82817841      14.77057457
H        2.02120686      19.42273331      14.18160057
H        1.49744856      19.43501091      15.88614273
H        2.95654893      18.50565720      15.41505814
C       12.59702396      12.28379250      15.42524719
O       11.32063675      12.28608036      14.83716679
C       11.23057938      11.42748833      13.70288658
C        9.81995964      11.60326576      13.21979141
O        9.59156990      10.77680683      12.06187725
C        8.29124832      11.02972412      11.53489685
C        7.84286547       9.80928421      10.74707508
O        6.38385820       9.85816669      10.85358047
C        5.64813900       8.72770500      10.44385338
H       13.36306000      12.63083935      14.69290638
H       12.58886242      12.96833324      16.28091240
H       12.86684608      11.26726055      15.78317738
H       11.46693993      10.37430954      13.95248222
H       11.94896603      11.71890163      12.90176392
H        9.65926456      12.67133141      12.97983646
H        9.09963417      11.34516811      14.02374840
H        8.28054714      11.94808292      10.89943790
H        7.55912256      11.20826054      12.34541607
H        8.14369488       9.77905750       9.67559624
H        8.23474979       8.88159084      11.21344471
H        4.64948797       8.79362774      10.89851379
H        6.08835363       7.77837944      10.81503773
H        5.55658817       8.65502930       9.34496212
C       16.67266846      23.99888229      18.75624847
O       16.67683220      22.66943932      18.27326584
C       17.02539825      22.53981018      16.88388252
C       16.73105621      21.08768082      16.52390671
O       17.06075859      20.87788773      15.13338089
C       16.71940613      19.56217575      14.69037533
C       17.15108871      19.43735123      13.22025681
O       16.83581543      18.12165451      12.65899944
C       17.70736122      17.08323860      13.11791039
H       15.79007912      24.55378914      18.37312508
H       16.58788300      23.96917915      19.85390091
H       17.58849144      24.54031372      18.45590782
H       18.08695984      22.82130241      16.71275330
H       16.38590240      23.19780159      16.25222015
H       15.65900803      20.88400078      16.69112968
H       17.30268478      20.39716721      17.18092537
H       15.62775421      19.37163353      14.79518795
H       17.25325394      18.81854820      15.30290794
H       16.58209991      20.14209747      12.58193493
H       18.23339462      19.65971947      13.10491848
H       17.94227219      17.15869141      14.19422245
H       18.66776657      17.10022354      12.55318165
H       17.18491936      16.12826538      12.92792892
C        2.14644623      16.36020851      28.75671196
O        2.74846220      15.69480228      27.65172768
C        2.02683878      14.58031940      27.09714127
C        3.06412768      13.73917103      26.37102890
O        2.39666152      12.52013302      26.01452255
C        3.01490355      11.79587936      24.94258308
C        1.97771573      10.84780598      24.38280487
O        2.65474510      10.10562515      23.33687592
C        1.85619402       9.57916546      22.28463936
H        1.94176078      15.66054630      29.58483315
H        2.83114886      17.14789200      29.09592056
H        1.18324125      16.81258202      28.45728683
H        1.24530256      14.90902042      26.38798523
H        1.54038095      14.00602722      27.90368462
H        3.90903568      13.53750706      27.05441093
H        3.43434095      14.26015854      25.46565819
H        3.89076948      11.23511028      25.32825851
H        3.31268167      12.46580601      24.11152840
H        1.58096170      10.18351269      25.16774559
H        1.13618922      11.43405914      23.97622108
H        1.66657424      10.33468819      21.50517464
H        0.88452929       9.22120476      22.64834404
H        2.37751579       8.72810650      21.83212090
C       16.60306931       8.81983948       8.45026016
O       17.68829918       8.14132118       9.11650181
C       17.25461960       6.85527706       9.62841034
C       18.47584724       6.20335007      10.25328064
O       18.07326889       4.88284254      10.59153652
C       19.14669800       4.10021877      11.11082554
C       18.60280800       2.68889642      11.11633778
O       19.68650436       1.83700669      11.56601906
C       19.37765694       0.44921345      11.37386131
H       15.80714512       9.08469391       9.16905022
H       17.00548172       9.72318935       7.97243500
H       16.13634491       8.17058945       7.68415546
H       16.85555267       6.25011253       8.79175568
H       16.42188644       6.97335720      10.35224342
H       18.82021332       6.75703001      11.15198803
H       19.30607796       6.17852211       9.51857281
H       19.45311165       4.44615507      12.11634827
H       20.03145027       4.14252186      10.44511890
H       17.73107910       2.60192943      11.79005623
H       18.25913429       2.39106798      10.10863781
H       19.64700317       0.11072901      10.35477638
H       18.29765320       0.25967467      11.50540924
H       19.96327019      -0.12600948      12.10802650
C       19.84675407      27.53532219       9.76609325
O       20.25256348      26.20807648      10.07478237
C       21.48854446      25.84445763       9.42449856
C       21.85173035      24.52192879      10.08435345
O       22.93445969      23.94812012       9.35668945
C       23.60043716      22.96792030      10.16502476
C       24.72164345      22.40864754       9.28556061
O       25.48164749      21.41237640      10.00587749
C       26.39836693      21.92719841      10.97284603
H       19.62261391      27.63928413       8.68878078
H       18.93418694      27.72734261      10.34342766
H       20.62148666      28.26526260      10.04945374
H       22.26840210      26.60354805       9.60937977
H       21.34283638      25.72144890       8.33414364
H       20.96932983      23.85383987      10.06360435
H       22.08673668      24.69924164      11.14904213
H       22.88591957      22.16736794      10.42989349
H       23.98224068      23.41836357      11.09885788
H       24.28426552      21.88722038       8.41868877
H       25.37755203      23.21978188       8.94219303
H       25.90319824      22.49221802      11.78218079
H       27.17650795      22.55374908      10.50344753
H       26.86245728      21.04809189      11.44937611
C        5.63202477      16.54623795       0.17577402
O        4.94674492      15.68241596       1.09029830
C        4.87194538      14.33291817       0.58914739
C        4.21389771      13.56425953       1.72241282
O        3.99331331      12.22222042       1.26501143
C        3.46013474      11.43873692       2.33911610
C        3.14404225      10.06755543       1.75267875
O        2.50977588       9.32424927       2.81891084
C        3.15619469       8.14474392       3.24488235
H        5.25024271      16.41738701      -0.85602129
H        5.42589998      17.57230949       0.51841116
H        6.71819353      16.35809326       0.16862319
H        5.87280321      13.92138958       0.35690454
H        4.27978516      14.29333782      -0.34868920
H        3.26143241      14.04473686       2.01926613
H        4.84849977      13.59424782       2.62508249
H        2.53806281      11.89841270       2.75065041
H        4.18415785      11.35521126       3.17127824
H        2.43683267      10.15413952       0.90900928
H        4.04269981       9.57133961       1.35677600
H        4.01696301       8.34691525       3.90391588
H        3.48814535       7.51817417       2.40157127
H        2.42009521       7.57352924       3.83086824
C       28.67800713      10.68487549       9.03897476
O       29.16006470      11.97544479       8.71012592
C       28.79766273      12.95647907       9.69745922
C       29.52724648      14.23002148       9.30153084
O       29.06119347      15.26480103      10.16031742
C       29.62571144      16.51910973       9.77963066
C       28.97012711      17.56224823      10.70257378
O       29.08342552      18.87720871      10.15447712
C       30.43264389      19.35064316      10.08531952
H       27.58421326      10.61324596       8.90623856
H       29.15255928       9.95086479       8.37590313
H       28.89795494      10.41856861      10.08824539
H       29.07762146      12.64999962      10.71895981
H       27.70814514      13.13529396       9.71389771
H       29.30776978      14.44723606       8.23664474
H       30.62189674      14.09428501       9.39673996
H       29.40561485      16.74168587       8.71692085
H       30.72793961      16.51021576       9.90108967
H       27.88975525      17.35427856      10.76053429
H       29.38324165      17.52029228      11.72924519
H       31.03998375      18.75414467       9.38399410
H       30.92172813      19.35998917      11.07159424
H       30.35439682      20.37683296       9.69698620
C       11.31993675       5.92991304      30.08758545
O       11.59319687       7.10451746      30.84367180
C       11.27459812       8.26874542      30.05089760
C       11.67327881       9.48327255      30.88431358
O       11.46187496      10.60498524      30.01873016
C       12.15612602      11.77723885      30.48591423
C       11.91149330      12.84248734      29.42246628
O       12.26040840      14.11136818      30.00002670
C       11.16091824      14.92300129      30.46782303
H       11.92750454       5.89391661      29.16274643
H       11.52289104       5.06160212      30.72686005
H       10.26106071       5.92033863      29.77743721
H       10.19906044       8.28218746      29.80098343
H       11.83485317       8.24166012      29.09758759
H       12.73446560       9.42028904      31.19754791
H       11.06909657       9.56698895      31.80756378
H       13.24073887      11.57860184      30.57622719
H       11.79111195      12.11912537      31.46754646
H       12.53886223      12.67578220      28.52379227
H       10.87133884      12.81909561      29.05645561
H       10.68850803      14.51670074      31.37364197
H       10.38610268      14.99689960      29.68953514
H       11.55645561      15.92219067      30.68045235
C       14.57542706       7.65689421      23.96746445
O       15.25582600       7.22493553      22.77985764
C       15.39954472       5.79364014      22.66105461
C       16.28880119       5.49481535      21.46131325
O       16.24510193       4.06979609      21.32641602
C       16.63251114       3.55144286      20.05414581
C       16.28050613       2.06447029      20.10242844
O       16.63981247       1.38017261      18.89060593
C       15.65277100       1.26418006      17.88629150
H       15.22511768       7.62817574      24.85971642
H       14.21824932       8.68835068      23.80982208
H       13.68953228       7.02483892      24.16386795
H       14.39894295       5.36224794      22.50131989
H       15.81396198       5.38756418      23.60133743
H       17.31982231       5.85902119      21.63052177
H       15.88792992       5.99192429      20.55498314
H       17.71272469       3.69132543      19.85117722
H       16.05497169       4.02452135      19.23134995
H       16.83632660       1.59020102      20.92528915
H       15.20490265       1.98227000      20.32579994
H       15.33654499       2.23830342      17.47587967
H       14.76558685       0.73257238      18.26722336
H       16.06324959       0.66993719      17.06626511
C       14.52169514      18.65206718       7.22621679
O       13.63823605      18.81288528       8.33589363
C       13.06396103      20.13519859       8.39477158
C       11.84171677      20.01977539       9.29148674
O       11.34383297      21.33185959       9.48550797
C       10.35817146      21.39300537      10.53727150
C        9.85195732      22.82584381      10.57008839
O        8.89127445      23.03458023      11.62040234
C        7.72821999      22.22006607      11.58692551
H       15.24232006      19.48465729       7.14608669
H       15.04089737      17.68620491       7.32366323
H       13.93055153      18.63177681       6.27732801
H       12.75666428      20.47263336       7.38585329
H       13.78567791      20.85507965       8.81942463
H       12.10381413      19.53855705      10.25407791
H       11.08165741      19.38789558       8.79534149
H       10.81291389      21.13730049      11.51163673
H        9.52862835      20.69726753      10.32544518
H       10.67945957      23.51879120      10.79692364
H        9.44533157      23.11434555       9.58296967
H        7.82547379      21.29237556      12.17834377
H        7.40469694      21.95988846      10.56199265
H        6.88636971      22.77920341      12.02801132
C        8.13074398      25.94534683      13.17972183
O        9.38442707      26.49942970      13.57265377
C       10.47962570      25.74853134      13.00910664
C       11.74417305      26.40643120      13.52646160
O       12.81101894      26.09007454      12.61064339
C       14.05277634      26.67482948      13.04590988
C       15.03265190      26.45811462      11.87818813
O       16.39539719      26.57505226      12.28456688
C       16.70762825      27.86587524      12.82901192
H        8.08862114      24.86143684      13.37386894
H        7.34033823      26.45651245      13.75436401
H        7.92533445      26.08094215      12.09963989
H       10.40535069      25.80574036      11.90181255
H       10.41108322      24.67662621      13.26009369
H       11.99046707      26.07294846      14.55084515
H       11.60356426      27.50166321      13.55058861
H       14.40141201      26.16832924      13.96518421
H       13.91277885      27.75111389      13.26389980
H       14.91958237      25.44472885      11.46410084
H       14.80880642      27.17281151      11.06152916
H       16.16493797      28.06423378      13.76598454
H       16.47376251      28.65426254      12.09406185
H       17.77688408      27.85368538      13.08098316
C        6.73345613      17.04295158      17.16657257
O        8.13349342      17.19339943      17.40225601
C        8.67643738      18.14642525      16.46849060
C       10.12425613      18.38469505      16.87422371
O       10.57050419      19.45168304      16.01701164
C       11.78839779      20.04489136      16.54559326
C       12.21931553      21.15576744      15.58842754
O       13.45974827      21.72299767      16.03939819
C       13.29241371      22.67614937      17.09528160
H        6.52787971      16.65527534      16.15222740
H        6.34351206      16.33625793      17.90649223
H        6.21025229      18.00546265      17.27205658
H        8.11483288      19.09570503      16.51995659
H        8.53353119      17.74659729      15.43328762
H       10.77451134      17.49539948      16.75583649
H       10.17102146      18.67089272      17.94156265
H       12.57269001      19.27150917      16.62081718
H       11.60105324      20.41399193      17.57358360
H       12.37306213      20.75190926      14.56896591
H       11.44728088      21.93213272      15.45676136
H       12.46968842      22.38753128      17.77509117
H       13.06066799      23.67476273      16.66830826
H       14.20965385      22.71678734      17.70839500
C       25.24052811      18.96925926      30.22943306
O       25.27756691      17.53820610      30.04663849
C       24.06046295      16.84736633      30.42621613
C       24.48708344      15.39419460      30.60997009
O       23.31033707      14.62699413      30.87206078
C       23.58257103      13.22749996      30.80088806
C       22.24383926      12.52361870      30.63272095
O       22.58296776      11.20723152      30.15617561
C       21.69824791      10.62217331      29.21605682
H       24.81459427      19.22096634      31.21661949
H       26.28033257      19.32282448      30.17578506
H       24.64791489      19.43824387      29.43003654
H       23.30235863      16.92229843      29.62827492
H       23.64423943      17.28875160      31.35092735
H       25.22045708      15.31565762      31.42989159
H       24.97804642      15.03675747      29.67313576
H       24.14513969      12.87231827      31.68540001
H       24.15996742      13.00030613      29.88417435
H       21.67220879      12.44533253      31.57373810
H       21.63918686      13.06679344      29.88777351
H       22.31653595       9.78679943      28.82524490
H       21.41912460      11.28355122      28.37288475
H       20.76090240      10.27155113      29.68175125
C       14.05726814      16.72196770      17.64855576
O       15.42635822      16.43999481      17.95702934
C       16.24982834      17.30519867      17.17006493
C       17.68740845      17.08073997      17.64114571
O       18.52643585      17.76892662      16.68447876
C       19.66788292      18.46308517      17.22197723
C       20.11319923      19.44470406      16.10045433
O       21.53841972      19.58979607      16.03517914
C       22.15797806      20.02788162      17.26096535
H       13.75831318      16.25296974      16.68484116
H       13.40267086      16.33705711      18.44046593
H       13.89854336      17.80950356      17.52837563
H       15.92942619      18.35636139      17.30445862
H       16.12366295      17.07930565      16.08269882
H       17.93059158      15.99568748      17.65563774
H       17.82019615      17.46236229      18.67924118
H       20.47935486      17.73903847      17.45974731
H       19.40416336      18.98915863      18.16500473
H       19.80277824      19.03331757      15.12185097
H       19.61303520      20.42471504      16.19883537
H       21.88284302      19.35908318      18.10445976
H       21.83435822      21.06102180      17.49186325
H       23.25047493      19.97928047      17.11871529
C       28.85468864      11.77203083      19.04521370
O       27.67553902      11.00626850      18.82156754
C       26.42142487      11.54854012      19.35201836
C       25.42229462      10.58199978      18.76211739
O       24.15239143      10.64437103      19.45062447
C       23.39070129       9.48720551      19.13024902
C       22.24074554       9.45668697      20.12063408
O       21.60352516       8.14968491      20.09049225
C       20.51763344       8.06250572      19.18650436
H       29.11814690      11.84521198      20.11147118
H       29.67417526      11.25240803      18.53052902
H       28.73723984      12.79990959      18.66173363
H       26.26608086      12.59432507      19.01396751
H       26.42522430      11.59952736      20.45585060
H       25.84132957       9.56842995      18.87348938
H       25.26268768      10.74720860      17.66988564
H       23.97959900       8.56519985      19.27062035
H       23.04765892       9.48212337      18.06867409
H       22.62370300       9.63086319      21.14183235
H       21.46971130      10.23814392      19.96080589
H       20.83932877       8.02262402      18.12955284
H       19.80565834       8.90596676      19.29703712
H       19.96406364       7.12770081      19.39392853
C       21.28122902      15.07257748      15.57528114
O       21.91453743      15.40552044      16.79010391
C       22.89013672      16.46670532      16.71843338
C       23.50864410      16.50849724      18.11007309
O       24.17335129      17.77317047      18.19594765
C       24.83167267      17.94846535      19.45913696
C       25.24227524      19.42464828      19.47487068
O       25.90427017      19.77761650      20.71088219
C       25.08671188      20.39654350      21.70769691
H       21.95276451      15.07102680      14.69380665
H       20.91317558      14.02792263      15.74009323
H       20.41781235      15.74290371      15.36892605
H       22.38658905      17.42408562      16.48567390
H       23.63137817      16.23922729      15.92651081
H       24.20178032      15.65721989      18.25997543
H       22.71054840      16.42601967      18.87632751
H       25.68883514      17.25623131      19.55771065
H       24.14255333      17.74111176      20.30520439
H       25.93696785      19.61069107      18.63113785
H       24.35140419      20.05553627      19.28380775
H       24.20770454      19.76965332      21.95189857
H       24.70141983      21.37608147      21.35645294
H       25.67063522      20.51595306      22.63236046
C        5.69434834      13.08097839      17.96827698
O        6.71933937      12.36951447      17.27089882
C        7.50674629      11.48115921      18.08588600
C        8.10797119      10.42983246      17.15503311
O        8.51031971       9.34598160      18.00906563
C        8.94624138       8.21192741      17.26240921
C        9.05692863       7.05678129      18.25562668
O        9.42715549       5.86414766      17.51041412
C        8.73389149       4.65733576      17.77439690
H        6.04439259      13.61441231      18.86622429
H        5.26445293      13.80542088      17.26665306
H        4.88490295      12.40281963      18.29053497
H        6.86153173      11.01061630      18.84999084
H        8.28440094      12.04840088      18.63503265
H        8.96381474      10.82634163      16.56806755
H        7.34242821      10.09886646      16.42518806
H        9.92439556       8.38459587      16.76375580
H        8.22460175       7.92471457      16.47262001
H        9.82482529       7.29021692      19.01254082
H        8.10191250       6.92132187      18.79050636
H        7.82486439       4.56532431      17.15466309
H        8.44452477       4.55221319      18.83606720
H        9.38676834       3.80733061      17.52450562
C       16.70518684      23.17559433      25.13622665
O       16.01547623      23.62623024      23.95666122
C       14.87624454      22.81822586      23.56808853
C       14.35717583      23.34327316      22.23702240
O       12.95598698      23.04912758      22.19786644
C       12.35533524      23.48185539      20.97290039
C       10.97818375      22.81178474      20.87944031
O       10.36467075      23.09124947      19.60607910
C        9.61318874      24.29495049      19.52523994
H       17.01874352      22.12910843      24.99702835
H       17.57320595      23.83525848      25.27529335
H       16.04013252      23.22218895      26.01700783
H       14.09942913      22.87085724      24.35784149
H       15.18663502      21.76515961      23.44293785
H       14.88375759      22.87947273      21.37831497
H       14.51624107      24.43918228      22.13040733
H       12.93827629      23.18142509      20.08466530
H       12.31443596      24.59914207      20.94199181
H       11.10975552      21.72311783      20.91598701
H       10.28597260      23.04450989      21.71507263
H       10.24739838      25.18638039      19.75081635
H        8.72221470      24.25744247      20.19073105
H        9.23915958      24.40402985      18.50009537
C       28.08222771      10.93924236      14.16444206
O       28.92910576       9.90193081      14.67110252
C       28.27614212       8.62679863      14.65721798
C       29.32889366       7.68260956      15.20926857
O       28.80266762       6.34977961      15.12066841
C       29.59671402       5.45903015      15.91172218
C       28.95052338       4.08387280      15.85647869
O       29.78563118       3.28699040      16.71774864
C       29.90703201       1.92376387      16.36428261
H       27.11817741      10.98752403      14.69798851
H       28.57424164      11.90799809      14.31114578
H       27.89692497      10.80345345      13.07770824
H       27.97540474       8.33412266      13.62730122
H       27.36497879       8.61766720      15.28199005
H       29.54483223       7.95649624      16.25823212
H       30.27250862       7.76042700      14.63696384
H       29.67136574       5.82687235      16.95357895
H       30.61988068       5.38064861      15.50420856
H       27.90676498       4.09787083      16.22410965
H       28.91137695       3.69459629      14.82314682
H       30.42136955       1.79604721      15.39160919
H       28.92142296       1.43013179      16.30203819
H       30.48736572       1.42648172      17.15774155
C       18.89883804       8.76677036       2.78604770
O       18.11291122       8.09078217       3.77498198
C       17.37944603       7.01764345       3.15570998
C       16.19511986       6.71053648       4.06109047
O       15.35272598       5.85137987       3.26696634
C       14.32734871       5.24601746       4.06002665
C       13.67748928       4.21596098       3.12798572
O       12.62948704       3.55968904       3.86819673
C       13.08146000       2.48932338       4.69270468
H       18.24865341       9.19724083       2.00310826
H       19.45642281       9.55805397       3.30543780
H       19.60122490       8.08115101       2.28057694
H       18.02715874       6.13782549       2.98084307
H       16.97163010       7.33793592       2.18116522
H       15.65868378       7.63599634       4.33693457
H       16.49166489       6.23013163       5.00988913
H       13.56768799       5.98254919       4.39361906
H       14.72556973       4.75951958       4.96553802
H       13.18744278       4.72597361       2.28186989
H       14.40551758       3.50545859       2.70862365
H       13.60814762       2.84208608       5.59516859
H       13.72839642       1.79600644       4.12929630
H       12.18333054       1.95144010       5.02860403
C       28.02717781      12.96657658      22.73435593
O       26.87320328      13.29283905      21.97726822
C       25.93990326      14.13552380      22.67813110
C       24.68996239      14.29051399      21.83470917
O       23.90068817      15.23518372      22.56924820
C       22.65608788      15.50348568      21.91720200
C       22.06368637      16.71040726      22.65042305
O       20.86494827      17.18088531      21.99670029
C       21.13263512      18.25726700      21.09787369
H       27.73299599      12.45700932      23.67257690
H       28.62349892      12.26208305      22.14112663
H       28.62691879      13.85941696      22.97346687
H       26.39840889      15.12436771      22.87032700
H       25.67919540      13.70516968      23.66781235
H       24.16755104      13.32409573      21.66973495
H       24.91835022      14.65538120      20.80365944
H       21.96359444      14.64330292      21.94335938
H       22.79871178      15.71044445      20.83717537
H       21.77550125      16.43229103      23.68386459
H       22.80608177      17.53649330      22.70574951
H       21.79767227      17.93903351      20.26279640
H       21.59734726      19.11861992      21.62224960
H       20.16652107      18.56015015      20.65278244
C       16.12276268      13.89321709       3.27122593
O       14.92335033      14.07084846       4.03275633
C       15.12606907      14.22005177       5.44599819
C       13.72365284      14.39978313       6.01675463
O       13.80380630      14.92106533       7.34567070
C       12.50190353      14.99521446       7.95799828
C       12.61610317      15.59966087       9.35884666
O       11.33129215      15.40569687       9.98799610
C       10.45026779      16.52362823       9.95082283
H       16.59900475      12.92647362       3.49341774
H       15.85296249      13.92730618       2.20854759
H       16.83764839      14.70270538       3.49227333
H       15.73382092      15.11831474       5.67656326
H       15.62486076      13.33424282       5.87875032
H       13.19374561      13.43023300       5.97179127
H       13.13873291      15.08254242       5.36602592
H       12.05223656      13.98689938       8.00950336
H       11.81886959      15.60671520       7.32754803
H       13.35377598      15.06714630       9.98118782
H       12.89063454      16.66889191       9.31945324
H       10.06061172      16.72155762       8.92763233
H       10.92785835      17.43282890      10.34637833
H        9.56841373      16.28184891      10.56697655
C       24.45169067       5.31253290      24.92963600
O       25.13357735       5.96128225      25.99494743
C       24.53165436       7.17608309      26.49885368
C       25.63385391       7.92482138      27.22327042
O       25.17436790       9.24415779      27.50800133
C       26.31397820      10.12030506      27.63745689
C       25.82423973      11.47462273      28.12730980
O       26.97970772      12.20558834      28.62533760
C       27.13996124      12.47353363      30.01429749
H       24.20191193       6.03855276      24.12562561
H       25.09666634       4.53703594      24.49463463
H       23.53613853       4.80675888      25.29678345
H       23.68516159       6.92863083      27.16786575
H       24.14376831       7.79398632      25.67015266
H       26.49313354       7.94894505      26.52750778
H       25.95014381       7.43068218      28.16060829
H       26.82124901      10.18458939      26.64848900
H       27.03973389       9.71203995      28.36451340
H       25.38379860      12.06075859      27.29957771
H       25.04625320      11.36108589      28.90053368
H       27.49913788      11.58988094      30.57913017
H       26.19430161      12.80049229      30.47754860
H       27.87097931      13.29069233      30.12059212
C       20.55097961       9.11194992      12.82359219
O       19.96058846       8.25154686      13.79593754
C       20.60680199       6.96746874      13.80556870
C       20.03851318       6.25593376      15.02205086
O       20.00748253       4.84558153      14.76487637
C       19.54360390       4.17746973      15.94730473
C       19.43667984       2.71392322      15.53313351
O       18.83972931       1.92749357      16.58625603
C       19.78367805       1.53983200      17.59140015
H       20.39208603       8.73027897      11.79136848
H       20.09893799      10.11109638      12.94658947
H       21.64353371       9.21390820      12.97341442
H       21.70824814       7.07896185      13.87876987
H       20.39355087       6.41358232      12.86596775
H       19.01296043       6.61933661      15.21884441
H       20.62046051       6.47924376      15.93838787
H       18.54794312       4.56038475      16.25530434
H       20.24226952       4.32959509      16.78909302
H       18.77090454       2.64064336      14.65518284
H       20.41139793       2.29259634      15.21487999
H       20.43019295       2.37885857      17.90807152
H       20.42050171       0.72225827      17.21324921
H       19.21534348       1.17294466      18.45719719
C        7.55172110       6.59743977      30.04883194
O        8.07158184       7.43446732      29.02129936
C        7.77462053       6.97597075      27.68330956
C        8.59586716       7.79449511      26.66774368
O        7.84713840       7.70578098      25.44280624
C        8.59143734       8.33645058      24.38459587
C        7.79106188       8.16237354      23.08535194
O        8.65975475       8.31170940      21.96527863
C        8.66932487       9.62903786      21.37270737
H        7.72991180       5.53075457      29.80747604
H        8.03011990       6.84109831      31.00815010
H        6.46134663       6.73449183      30.17043686
H        6.69640684       7.10472155      27.48913002
H        7.99948835       5.90033817      27.55584717
H        9.60686588       7.36058378      26.53488731
H        8.69519520       8.84399128      27.00846291
H        9.58372402       7.85555935      24.27691078
H        8.74544239       9.40869617      24.61483002
H        7.35271406       7.14096260      23.02070999
H        6.91768837       8.83658981      23.05012894
H        9.06474113      10.39115715      22.06184006
H        7.65223312       9.91373158      21.05811501
H        9.30599689       9.56903458      20.47526741
C       15.35378456       2.51445198       7.98455191
O       14.73787403       3.78722692       7.85139894
C       14.18573666       4.33979321       9.07116795
C       13.76023483       5.72536087       8.65336895
O       13.32953262       6.45578957       9.80348682
C       12.96523666       7.77276945       9.36413670
C       12.39968681       8.59827614      10.51172066
O       11.66595078       9.69590473       9.91288280
C       12.30007458      10.97732544       9.93612385
H       14.66909885       1.79444957       8.46179008
H       15.59631538       2.15966201       6.97854853
H       16.27241898       2.57527208       8.58449078
H       14.92609406       4.36483002       9.89194870
H       13.32292461       3.74698830       9.42746735
H       12.96257877       5.64612818       7.88264036
H       14.61709595       6.22399330       8.15550423
H       12.19955635       7.69324112       8.57715034
H       13.83443642       8.29064083       8.90460873
H       11.66530037       8.02427197      11.10455418
H       13.15723228       8.98054409      11.22153664
H       12.87941551      11.16543293       9.00268364
H       12.95771313      11.10554790      10.81851578
H       11.50047874      11.73657703      10.00078583
C       24.33736992       5.86520624      13.62278652
O       24.33206940       4.70859957      14.45260620
C       23.25347328       4.77481604      15.40287590
C       23.53988075       3.84086680      16.56239700
O       22.57066917       4.14876556      17.57598305
C       22.95798683       3.80450130      18.92278099
C       22.06405067       4.70523643      19.78116989
O       22.08311844       4.33727884      21.18514824
C       21.01475906       3.46921754      21.56757927
H       24.22149277       6.78145409      14.23025131
H       25.29272270       5.89975357      13.07720947
H       23.51025009       5.83292532      12.88383389
H       22.29299164       4.53303337      14.90444279
H       23.15206718       5.78977060      15.83248997
H       24.56408882       4.00253677      16.93072701
H       23.45424271       2.78541708      16.23603249
H       24.01815987       4.04227829      19.11562157
H       22.77802658       2.72937250      19.10879326
H       22.42339897       5.74644136      19.72252274
H       21.02985382       4.70161057      19.39038277
H       20.97434425       2.56696081      20.94118690
H       20.03726196       3.97586346      21.47270393
H       21.15394974       3.17840791      22.61818123
C       11.28476906      20.07183456      24.83126640
O       12.37545109      19.25842667      25.18169403
C       13.31463337      19.90616035      26.03518105
C       14.22764683      18.80615616      26.54117584
O       15.26073551      19.50321960      27.25357246
C       16.17759514      18.65633392      27.94231224
C       17.13622475      19.62886620      28.63840485
O       18.04042625      18.84814072      29.43152618
C       18.62839317      19.45590019      30.56942177
H       11.60848331      20.94926071      24.24287987
H       10.59701157      19.47946739      24.21091843
H       10.69506073      20.39198875      25.71344566
H       12.81272602      20.41925812      26.88496399
H       13.89328957      20.65224457      25.45944595
H       14.63206100      18.19177818      25.71309662
H       13.64120197      18.12412834      27.18146133
H       16.70441246      17.98291969      27.23618507
H       15.67207050      18.02100945      28.69645500
H       17.67292595      20.19233513      27.85257912
H       16.58493233      20.35685921      29.26692963
H       18.13345718      19.12268639      31.50094795
H       18.56611824      20.55908775      30.54632187
H       19.68866730      19.16526794      30.65424728
C        7.95158720       9.30495453       2.26470160
O        8.77864265       8.20358753       2.66395903
C        8.13442230       7.31042051       3.61030364
C        9.05751133       6.09538364       3.64973831
O        8.62991238       5.25071096       4.73337030
C        9.41249847       4.05077744       4.73647356
C        9.10329723       3.30911589       6.04673719
O        9.53428268       1.93250418       5.90956354
C        8.59788513       1.05568409       5.29835081
H        7.56505537       9.86594582       3.13041234
H        8.56865501       9.95573807       1.63075352
H        7.08392143       8.95583248       1.67389154
H        7.12766266       7.03706455       3.25472498
H        8.01465511       7.79099989       4.59681511
H       10.10288334       6.41566467       3.81503725
H        9.02639961       5.55378628       2.68408585
H       10.49468517       4.26486158       4.71410990
H        9.15495682       3.41417074       3.86844611
H        9.67582989       3.74115205       6.88764286
H        8.02291775       3.37080598       6.27805185
H        8.20137787       1.47101200       4.35739136
H        7.74031210       0.84021515       5.97432518
H        9.09925556       0.09874226       5.11445904
C       27.18607712      24.26902962       6.96835089
O       26.30760765      25.02106667       6.15413380
C       24.91223717      24.67526436       6.24918175
C       24.22719765      25.52466393       5.18824482
O       22.82213211      25.48345566       5.46316004
C       22.05843163      26.10827255       4.42793560
C       20.62075233      26.19936180       4.93613958
O       19.84140587      26.68316269       3.83749986
C       18.85310173      27.65121269       4.16751099
H       27.13435364      23.19295692       6.73224926
H       28.21556664      24.62177849       6.80471802
H       26.95058632      24.37722206       8.04666996
H       24.51313972      24.88102150       7.25699282
H       24.75094032      23.60409737       6.04551268
H       24.43940926      25.14142990       4.17500162
H       24.61009216      26.55616760       5.23205614
H       22.12348557      25.52088547       3.49348402
H       22.43419266      27.12540054       4.22575760
H       20.25081825      25.20742607       5.25042486
H       20.55496025      26.86431503       5.81808615
H       19.30236244      28.64578629       4.32146645
H       18.26357460      27.37062836       5.05322313
H       18.15142441      27.71572113       3.32444263
C       20.93987274      13.30277252       4.08291245
O       21.58832169      13.87661552       5.20517778
C       20.89488029      14.99781990       5.78677368
C       21.84358788      15.51075459       6.84561443
O       21.33394241      16.74610901       7.34071732
C       22.30849648      17.44345093       8.12897682
C       21.71258545      18.81049728       8.43483829
O       22.70360184      19.60048866       9.09160519
C       22.76545525      19.45968056      10.51669693
H       20.80207443      14.04358578       3.27631140
H       21.55102539      12.47107983       3.71196485
H       19.95576477      12.89233875       4.35292482
H       19.91451073      14.72066307       6.21297550
H       20.70322609      15.77357674       5.02754641
H       22.83312988      15.66349220       6.37150764
H       21.95919418      14.77935219       7.67112160
H       23.25243187      17.55932236       7.56721449
H       22.53565216      16.90588951       9.07169437
H       21.42283058      19.31433868       7.49812984
H       20.79625893      18.73826218       9.03925037
H       22.73737526      18.40332413      10.83023643
H       21.91429329      19.95310211      11.02671814
H       23.70689774      19.89291954      10.87301636
C        2.45166636       5.47213793      14.27484226
O        3.52045655       5.15500021      13.39529324
C        4.58790302       4.41761923      14.01574612
C        5.57285261       4.18494654      12.86280155
O        6.79372168       3.61609912      13.38987732
C        7.63374901       3.21712780      12.28756809
C        9.06323814       3.07327771      12.81852531
O        9.96041203       3.00942326      11.69243145
C       10.12751961       1.71739638      11.09476185
H        2.81825972       5.94026327      15.20710754
H        1.78415763       6.17683840      13.76541710
H        1.85780430       4.58290482      14.53636551
H        4.19684649       3.45075226      14.38815594
H        5.01182890       4.98785639      14.86115932
H        5.78991127       5.14072180      12.35395718
H        5.11693335       3.50050712      12.12683010
H        7.65131283       3.95654488      11.47287273
H        7.24607229       2.27211237      11.85399723
H        9.26412582       3.98311400      13.39511967
H        9.18916607       2.18777919      13.46372700
H        9.15104294       1.23054218      10.90048313
H       10.71711922       1.03228486      11.72879219
H       10.66841030       1.83118367      10.14039612
C       18.45349503      18.88236618       3.74191260
O       17.17210197      19.48338509       3.51602936
C       16.97460556      20.66431236       4.31567764
C       15.54065609      21.12441635       4.07398272
O       15.31251526      22.06908989       5.11415243
C       14.04817104      22.74116516       5.06692219
C       14.12284565      23.74981880       6.22198820
O       12.90449047      24.51985359       6.26030684
C       13.05625439      25.91484642       6.05899143
H       18.54076958      18.56532288       4.79613066
H       18.52337074      18.00260162       3.09075618
H       19.27544785      19.58887863       3.52958179
H       17.67948151      21.46132851       4.02301073
H       17.11796951      20.45580482       5.39146376
H       14.82319450      20.28558731       4.14110661
H       15.42357159      21.56756783       3.06668544
H       13.20507526      22.04339790       5.20694208
H       13.91410255      23.25102615       4.09337139
H       14.22285843      23.20740509       7.17835999
H       15.01125145      24.38938141       6.10979891
H       13.49717522      26.15251923       5.07206917
H       13.67148399      26.37366867       6.85159349
H       12.04853344      26.35082054       6.12071133
C       15.73859596      12.54857445       9.06367207
O       16.58698463      13.47325039       9.75734520
C       16.83262253      14.57783699       8.85813808
C       17.49236298      15.67368793       9.67433643
O       17.63345718      16.75064278       8.74040413
C       17.99145889      17.98862457       9.38974285
C       18.16329384      18.98126984       8.23261642
O       18.88999748      20.15349388       8.63935757
C       18.53718758      20.77636909       9.88342953
H       16.22005081      12.18232346       8.13723278
H       15.52702618      11.69739819       9.72948551
H       14.78882122      13.03021049       8.77116299
H       15.87970448      14.95593834       8.45086765
H       17.42859459      14.22984028       7.98836565
H       18.46959305      15.37794971      10.10209846
H       16.84567451      15.95929050      10.52469635
H       18.93619347      17.88111305       9.95611572
H       17.21256065      18.30057526      10.11068153
H       18.72134972      18.51753807       7.39782858
H       17.17427826      19.26498985       7.83316135
H       18.60029030      20.08551788      10.74785042
H       17.49870682      21.16943169       9.85457039
H       19.23250008      21.61733055      10.03004169
C       27.44248962       2.69294548      27.71226501
O       28.28190804       3.68994594      28.25134277
C       28.54887199       4.71474600      27.28716087
C       29.22707367       5.82595444      28.07972145
O       29.35445404       6.87790346      27.14087105
C       30.04655075       8.00386620      27.68830872
C       30.00494766       9.06139565      26.56993294
O       30.84139442      10.15465260      26.97404099
C       30.37088966      10.96948719      28.05687141
H       27.88187408       2.20709944      26.82162094
H       27.28065300       1.94664681      28.50263214
H       26.47035027       3.12564087      27.41587448
H       27.61727524       5.10395575      26.84350204
H       29.18425179       4.33973932      26.45981789
H       30.20683479       5.51097536      28.48219299
H       28.59836769       6.12130213      28.94478798
H       31.09541512       7.75535917      27.92796707
H       29.56429291       8.38687229      28.60750008
H       30.40949249       8.64822292      25.63190079
H       28.96944618       9.38474655      26.35434151
H       30.31215096      10.44637108      29.03258133
H       29.35897064      11.35821724      27.82780838
H       31.07326126      11.81303024      28.13311768
C       11.38667393      10.92744160      24.41643715
O       12.45551491      10.75037289      25.33937073
C       12.40502453       9.62435055      26.23496819
C       13.66467762       9.85720158      27.06737900
O       13.98541737       8.70861530      27.85535049
C       14.93964291       9.09216404      28.83923531
C       15.49117470       7.83162498      29.48488235
O       16.51500320       8.26835728      30.41004181
C       17.71165657       7.48629761      30.48245239
H       10.43867302      11.19388103      24.91517639
H       11.67074680      11.72863483      23.72289085
H       11.20383739      10.01470375      23.81742477
H       12.41415405       8.67502594      25.66715431
H       11.48228645       9.64669895      26.84890938
H       13.49571514      10.74710941      27.70403290
H       14.50662804      10.10956287      26.38990784
H       14.48794937       9.78040695      29.58805466
H       15.79042053       9.63780403      28.38521576
H       14.69969559       7.28811407      30.03076935
H       15.90186024       7.16358614      28.70832443
H       18.52149963       7.99699163      29.92465973
H       17.55440712       6.49276972      30.04095268
H       18.03511620       7.37204599      31.52670097
C       16.31529236      24.92386246       9.18638515
O       16.70197487      24.15615654       8.04858112
C       18.13031197      23.99997902       7.91192484
C       18.33555031      22.96798706       6.81281996
O       19.76253510      22.84097099       6.74057865
C       20.23660088      21.96415138       5.71217680
C       21.76337624      22.07772255       5.77022505
O       22.34141541      21.59211731       4.53025579
C       22.40822411      20.17820740       4.34149742
H       16.91856575      25.84441566       9.30047989
H       15.25271702      25.18957901       9.05049133
H       16.38007545      24.34981537      10.13082886
H       18.57395172      23.65472412       8.86380768
H       18.59925461      24.96615028       7.65160656
H       17.92117310      23.29672432       5.83748150
H       17.85568237      22.01106834       7.08161831
H       19.86497307      22.27831650       4.71557713
H       19.88885689      20.93205833       5.88946676
H       22.03408623      23.14080238       5.83346987
H       22.17267990      21.55615044       6.65326452
H       21.43004227      19.69455338       4.49765682
H       23.14096832      19.71179390       5.01519394
H       22.70557022      19.99793053       3.30086613
C       17.13195992       9.74960327      23.29614830
O       17.42551041      10.58854294      22.18335342
C       16.38050461      10.58647633      21.21003914
C       16.94221497      11.39295197      20.05617714
O       15.98347378      11.45667553      18.99433899
C       16.42078590      12.49552536      18.10131264
C       15.66179657      12.38681412      16.77231026
O       16.41414452      13.12079334      15.77304649
C       15.87453938      14.42226791      15.43374252
H       17.05877876       8.69120216      22.98595047
H       17.92010117       9.89377022      24.04360008
H       16.16161346      10.01033878      23.77489090
H       15.45155525      11.04528236      21.62131882
H       16.09205055       9.55802727      20.89700317
H       17.89648819      10.94065094      19.67192650
H       17.18338966      12.40770340      20.43738747
H       17.50928879      12.38784695      17.88529015
H       16.31386375      13.48122883      18.59875298
H       15.61014366      11.34169769      16.41033173
H       14.61862469      12.75165081      16.82630730
H       15.46764565      14.92507362      16.32930756
H       15.05294991      14.33297825      14.69307041
H       16.69797516      15.03030968      15.01988316
C        5.89573050      18.81103706      13.12611294
O        5.69328070      19.75757408      12.06699562
C        4.68576193      19.42945099      11.09435940
C        4.79559803      20.54546738      10.07861805
O        3.73540187      20.38581467       9.13503933
C        3.83376408      21.42636299       8.16030884
C        2.74189639      21.16950607       7.12679911
O        2.92626190      22.13080788       6.07423544
C        1.80435252      22.95171165       5.77000284
H        6.49301004      17.94914627      12.78744793
H        6.39608574      19.34367180      13.94739914
H        4.93379307      18.42043495      13.50462627
H        3.68198729      19.38072777      11.55084419
H        4.87961864      18.45150566      10.62466812
H        5.78033257      20.48980141       9.57686520
H        4.73610115      21.52481651      10.58662033
H        4.82368946      21.41674995       7.66420126
H        3.71583724      22.41369820       8.64350033
H        2.83481574      20.15894318       6.69386578
H        1.73777092      21.22460747       7.57630968
H        1.55544913      23.64236641       6.58832836
H        0.91841090      22.34240341       5.53523493
H        2.07628322      23.53540611       4.88218498
C        1.38214695      13.37860966       6.71017981
O        2.72156334      13.84408188       6.89773798
C        3.34959388      14.08531666       5.61851597
C        4.75295305      14.57084656       5.93396759
O        5.32774544      14.88192368       4.66310024
C        6.76356602      15.05454540       4.73198652
C        7.18636227      15.53074741       3.33872271
O        8.61841011      15.59874344       3.18211889
C        9.28951168      16.47586060       4.09314489
H        1.36687183      12.44274616       6.12553978
H        0.92541432      13.19626331       7.68726349
H        0.78554827      14.13506222       6.16836834
H        2.76947308      14.82829762       5.04084539
H        3.38756156      13.15703773       5.02811050
H        5.31295347      13.77853107       6.45901489
H        4.73209000      15.47157288       6.58679581
H        7.25213003      14.10215664       4.99621534
H        7.01547384      15.78928375       5.51970625
H        6.85545731      14.81704521       2.57092786
H        6.70398045      16.49790001       3.10650897
H        9.24467373      16.09211159       5.13425446
H        8.84122086      17.48853683       4.07063723
H       10.33862591      16.52257919       3.74574924
C       17.95198250       6.53424931      25.68173790
O       17.80485153       7.94727564      25.57190704
C       18.24657440       8.61163712      26.75293732
C       17.91250610      10.09765244      26.69536972
O       18.14247322      10.57475185      28.01799011
C       17.68225098      11.92426014      28.20391464
C       18.01206589      12.27503872      29.65263176
O       17.40518188      13.52242470      30.08004951
C       18.02283287      14.70813084      29.56101418
H       17.43717766       6.15119123      26.57979202
H       17.52891731       6.06762028      24.78178406
H       19.02229881       6.24131250      25.74271202
H       19.35228729       8.50140572      26.80390930
H       17.82562828       8.17443275      27.66995621
H       16.86331558      10.23316383      26.35707474
H       18.55561066      10.62271500      25.95908928
H       16.58699036      11.96218109      28.02571487
H       18.15116882      12.60163212      27.46312141
H       17.59552002      11.51420689      30.33495522
H       19.10651588      12.31716061      29.80733871
H       18.40238571      14.58011055      28.53574181
H       18.83354568      15.04669762      30.22441292
H       17.23984337      15.47595215      29.51867867
C       22.54620743       4.97391653       8.76209641
O       22.91318321       6.03274632       9.65919971
C       22.31365967       7.26853943       9.20974827
C       22.92220879       8.41242313      10.01652718
O       22.20796776       9.56075764       9.54144001
C       22.67407799      10.81614113      10.05769730
C       21.75450516      11.83967400       9.37911320
O       22.02570534      13.16594028       9.83476162
C       21.50733376      13.53257942      11.11762047
H       22.94177628       5.16671181       7.75182152
H       22.92494583       4.03497076       9.18260098
H       21.44597054       4.90602827       8.68748379
H       21.22309303       7.23739004       9.37793827
H       22.48431015       7.40351534       8.12809753
H       24.00952148       8.51751900       9.83360767
H       22.77324295       8.28660107      11.10503101
H       23.72891808      11.00515842       9.77970886
H       22.59308052      10.87390423      11.15841866
H       21.91633224      11.81769943       8.28672028
H       20.68957138      11.57255554       9.53681946
H       21.91218376      12.94254971      11.95894909
H       20.40323830      13.41743946      11.12983990
H       21.75204468      14.59376717      11.28014469
C        4.92865801      29.08681297      14.54876137
O        6.16816473      29.58172989      14.02892685
C        6.37531185      29.28595924      12.62496948
C        7.86212063      29.51626205      12.37349033
O        8.07575226      29.32491875      10.97409821
C        9.46221828      29.07523727      10.67565250
C        9.54815769      28.89619446       9.15816116
O       10.91160393      28.70727158       8.71942139
C       11.58968449      29.93805885       8.38477802
H        4.83486366      27.99685287      14.38661098
H        4.89860535      29.28761292      15.62988281
H        4.07409716      29.57435036      14.04384613
H        5.73771811      29.94050980      12.00410175
H        6.13277292      28.24066353      12.38329029
H        8.45434380      28.81020737      12.98467350
H        8.14917278      30.54874611      12.66382313
H        9.79425240      28.15559006      11.19529247
H       10.08958721      29.91246414      11.02498150
H        8.98705292      28.00655937       8.84184837
H        9.08410263      29.76159286       8.65242863
H       11.77866268      30.55775261       9.27097225
H       10.98821735      30.50550079       7.65451145
H       12.54518795      29.65910339       7.92160225
C       18.82506180      15.79600334      24.68408585
O       19.39230728      14.81372833      23.80827904
C       19.07756042      13.45114899      24.17619514
C       19.85441589      12.52102566      23.24687767
O       20.05490303      11.28960800      23.95731926
C       20.74812317      10.37253475      23.12339020
C       20.77380180       9.05304337      23.89830589
O       20.99180984       7.93681908      23.01143456
C       19.83305740       7.53327131      22.27175713
H       19.34856987      15.85026455      25.65385437
H       18.88576889      16.76024818      24.15877151
H       17.75473404      15.58939743      24.87589645
H       17.98762321      13.28279209      24.07604027
H       19.33390236      13.27805519      25.24143982
H       20.82256889      12.96643543      22.93132591
H       19.28023148      12.30678654      22.31246185
H       21.77743530      10.71647263      22.88748169
H       20.20530891      10.22747135      22.16820908
H       21.60432053       9.05957603      24.62775612
H       19.82102203       8.92144108      24.44289398
H       19.45653343       8.35339546      21.63369370
H       19.02739906       7.20858002      22.95276833
H       20.12152481       6.68840027      21.62581444
C        3.67366886      11.55489635      29.29439926
O        3.86300802      10.14214039      29.38460350
C        3.86340284       9.54441357      28.08910561
C        3.97702336       8.04338074      28.28677559
O        3.93792009       7.48356628      26.96724701
C        3.98678684       6.05837917      26.90927315
C        4.36669350       5.70549107      25.46448898
O        4.49199915       4.27681780      25.30557823
C        5.65388775       3.72125769      25.88906097
H        2.70974016      11.77098370      28.79694557
H        3.66177273      11.98069954      30.30807877
H        4.48058367      12.02418900      28.70369911
H        4.71307182       9.89836502      27.46973228
H        2.92861700       9.77272320      27.54203033
H        3.14436245       7.68373299      28.91380119
H        4.92525578       7.80475569      28.80071259
H        3.00188637       5.62915087      27.15878105
H        4.73044825       5.67833948      27.63311195
H        3.57688594       6.01730680      24.76173782
H        5.30557823       6.22266006      25.19738388
H        5.82671452       4.00477791      26.94025421
H        6.56170893       3.99442267      25.30530739
H        5.54377031       2.62711215      25.85310173
C       24.39697456      23.14155579      26.46182632
O       24.37276268      24.42929459      25.86478615
C       24.39257240      24.32151413      24.43612862
C       24.38658333      25.77057076      23.97748184
O       24.26172447      25.70988464      22.56050873
C       24.09041977      27.03548431      22.05274010
C       23.99769211      26.92542648      20.52651978
O       23.88967705      28.27086449      19.97949409
C       22.56599998      28.82536888      19.82783699
H       25.24334335      22.54021072      26.09319496
H       24.48325920      23.25128937      27.54979897
H       23.46619606      22.58920670      26.23255348
H       23.49927711      23.80624962      24.03171730
H       25.28130722      23.77103424      24.06384850
H       25.31971931      26.27190399      24.29221725
H       23.53668404      26.30416298      24.44692421
H       24.95103645      27.66902351      22.34998131
H       23.17346764      27.48370552      22.47973824
H       24.90517426      26.47125244      20.09633255
H       23.15098572      26.29947662      20.20544624
H       22.18166542      29.27088737      20.75935745
H       21.84518433      28.07432938      19.47361755
H       22.62686157      29.62067223      19.06225395
C        7.92824697       6.05503321       8.74433517
O        8.89957905       7.08833313       8.61487007
C        9.75697327       6.95856285       7.45589066
C       10.21425533       8.34916401       7.04427958
O       11.41183949       8.12839127       6.27406693
C       11.94674683       9.36709213       5.77357674
C       13.37289619       9.01219082       5.32679462
O       14.12661743      10.20792007       5.01444435
C       13.99001408      10.55608463       3.62087607
H        8.37183094       5.13504887       9.17349339
H        7.13621712       6.39489651       9.42550373
H        7.46872616       5.80621624       7.76869392
H        9.20468044       6.48954058       6.62359619
H       10.61721897       6.30637932       7.68718529
H       10.40280914       9.01536369       7.90960979
H        9.42847729       8.83095360       6.42740250
H       11.93426323      10.13130760       6.57533741
H       11.30804825       9.75712776       4.95597506
H       13.88675022       8.50613213       6.16639137
H       13.36737728       8.31486893       4.46561337
H       12.93331814      10.73615265       3.35996747
H       14.37154484       9.75142479       2.96368313
H       14.55455589      11.48452187       3.45657039
C        6.46622992      16.17302895      21.28537941
O        6.26559544      17.09915733      22.34293365
C        6.58975697      16.65458488      23.66684914
C        7.07855177      17.87152863      24.44443321
O        6.60806179      17.82799339      25.80998039
C        7.11582088      18.93964577      26.55591583
C        6.86336660      18.72384071      28.04517365
O        7.37652016      19.86660004      28.76372719
C        8.76279831      19.80623245      29.14938927
H        5.84231758      15.26904964      21.40383339
H        6.19037962      16.67379379      20.34878159
H        7.52425909      15.88840961      21.17267418
H        7.38542557      15.88409519      23.64713860
H        5.68787098      16.20107269      24.13819122
H        6.69992113      18.78888702      23.95367432
H        8.18549156      17.90076637      24.42819977
H        6.62201405      19.86763954      26.21127129
H        8.20425987      19.03696251      26.39742851
H        5.78699589      18.64703178      28.27922630
H        7.36314011      17.79999161      28.38503647
H        9.43082809      19.83542442      28.27353477
H        8.96611691      18.88162041      29.71072197
H        8.95600986      20.65355301      29.81961250
C       16.13731194      18.61969185      23.43241501
O       16.74956894      19.89390755      23.19934273
C       17.76368904      19.80192947      22.18009186
C       18.23808861      21.23171234      22.02329063
O       19.28068161      21.24118996      21.04508209
C       19.85371208      22.55598640      21.00835419
C       20.86956215      22.59811401      19.86285400
O       21.47153854      23.91031647      19.85167122
C       20.63763237      24.89994621      19.22300911
H       16.68688393      18.02562523      24.18758011
H       15.10505772      18.79089928      23.77353096
H       16.06804657      18.02550316      22.50404739
H       17.36542892      19.38516808      21.22297478
H       18.59287453      19.13029671      22.47571182
H       18.57190895      21.64406013      22.99898148
H       17.39328957      21.87938309      21.70437241
H       20.32325363      22.79604149      21.98159409
H       19.05169678      23.30268097      20.84156799
H       21.69456673      21.87887955      20.02407837
H       20.39777565      22.36263657      18.88253403
H       19.69938660      25.06281853      19.77771950
H       20.37273979      24.61774635      18.18737221
H       21.20373535      25.83729935      19.20998192
C        1.19991601      17.02383041       2.90126109
O        2.12343311      17.32223320       3.93725300
C        3.10565543      18.34169006       3.65379667
C        4.13350534      18.12778282       4.75552177
O        5.17472553      19.10047531       4.62135458
C        6.13810873      18.95675850       5.68374825
C        7.32108641      19.85918236       5.32517004
O        8.43631458      19.63724136       6.20741940
C        8.39589214      20.34261894       7.45803690
H        1.63928652      16.32645035       2.16974044
H        0.33464417      16.53973198       3.37561464
H        0.88124806      17.94135475       2.37788248
H        2.64245749      19.34372139       3.68618512
H        3.54560065      18.17945099       2.65210199
H        4.54345942      17.10957909       4.65408278
H        3.65280700      18.19795418       5.75483465
H        6.48714447      17.90979004       5.75205946
H        5.69033957      19.23168564       6.65953207
H        7.65173197      19.60071945       4.30509853
H        7.00596380      20.91603661       5.32987165
H        7.85986471      19.76722717       8.23303223
H        7.88544941      21.31672096       7.35809803
H        9.42609978      20.52429390       7.79846573
C        8.57857609       6.58189344      13.97944164
O        7.27654171       6.90217781      14.44846058
C        6.81812763       8.15577793      13.93465424
C        5.36544180       8.32876396      14.39151955
O        5.07797194       9.68895245      14.13543892
C        3.70349360      10.03863525      14.20642853
C        3.68932033      11.50147533      13.75277901
O        2.36792326      12.05207634      13.81573677
C        1.56829846      11.78546715      12.67484474
H        9.31423950       7.37118387      14.22069263
H        8.85580349       5.64278316      14.48294067
H        8.59064484       6.44833612      12.87339306
H        6.84383965       8.15978241      12.82675171
H        7.44138908       8.99956322      14.29276848
H        5.23742104       8.09131336      15.47005939
H        4.69854021       7.65930986      13.81418610
H        3.29478097       9.95256901      15.23511219
H        3.09307504       9.40615749      13.52933311
H        4.32115841      12.10669231      14.41958332
H        4.13199329      11.57486248      12.74348736
H        1.37695098      10.71287060      12.53332520
H        2.02604413      12.18997288      11.75961876
H        0.59481108      12.26436329      12.83732414
C       23.12061119       1.08220649      13.28275967
O       24.47428131       1.53889537      13.34826374
C       24.80587578       2.37051249      12.21964264
C       26.22135353       2.85584140      12.50819111
O       26.48428917       3.81100845      11.47745323
C       27.75413322       4.43924332      11.69971275
C       27.94385338       5.43683386      10.54349899
O       29.30576324       5.86305094      10.50622749
C       29.65423393       6.82636499      11.49902630
H       22.84473991       0.76971221      12.26072693
H       23.01925659       0.21131082      13.95379353
H       22.41271591       1.87382627      13.58358002
H       24.13294411       3.24147463      12.15127754
H       24.73389816       1.80338109      11.27420139
H       26.94810104       2.02451134      12.49393845
H       26.24577141       3.32069802      13.51215172
H       28.57758904       3.70699239      11.68989277
H       27.77847862       4.96494484      12.67163277
H       27.72620964       4.94006634       9.58367443
H       27.23252106       6.27810097      10.63596058
H       29.46345520       6.48180294      12.53009796
H       29.08587074       7.76305056      11.35328960
H       30.72863770       7.04154873      11.39386082
C        2.67820835      18.63995552      25.99244118
O        2.39584875      19.46597672      24.86532593
C        3.60152745      19.63471031      24.11393929
C        3.26236844      20.41576195      22.85659981
O        4.55360746      20.60641289      22.27995872
C        4.47814083      21.19203186      20.97800446
C        5.92199802      21.29392433      20.49896240
O        5.90877771      21.91396141      19.19441795
C        5.50514698      21.08628845      18.10219765
H        3.37285686      19.12885857      26.70187378
H        1.73298001      18.43235207      26.50932884
H        3.10183620      17.66489220      25.68846512
H        4.02177715      18.65402794      23.81618118
H        4.36632395      20.14730263      24.73154449
H        2.74598169      21.37063408      23.06989479
H        2.59199119      19.83197212      22.19828224
H        3.98318744      22.18560791      21.00695992
H        3.89792085      20.55699348      20.28805733
H        6.50736046      21.95899582      21.15485954
H        6.41824102      20.30849075      20.48656082
H        4.52751780      20.59637833      18.25036621
H        6.25223446      20.30480194      17.88644981
H        5.40573740      21.73117256      17.21963882
C        8.23577309      12.02773380      29.79376793
O        7.48206997      11.64077473      28.63575363
C        8.07987022      12.03493881      27.37583733
C        7.02464342      11.68826103      26.34046173
O        7.47407198      12.19484043      25.08369255
C        6.41071367      12.05865765      24.12341309
C        6.76432323      12.81294632      22.83675575
O        5.59987068      12.91236782      22.00421524
C        5.03539133      11.67336273      21.54951286
H        8.54822540      13.08344650      29.72121429
H        7.57780218      11.88947296      30.66075706
H        9.13293266      11.39851856      29.91073418
H        9.01806831      11.47578907      27.20441437
H        8.32528114      13.11117744      27.36350632
H        6.05133820      12.13564396      26.62682343
H        6.84899282      10.59461689      26.28570366
H        5.47932768      12.49801636      24.53296852
H        6.19472075      10.99640465      23.90048027
H        7.03027201      13.84528637      23.11443520
H        7.60856199      12.37771130      22.26306534
H        4.60514879      11.05801010      22.35728836
H        5.75185633      11.09049702      20.94347000
H        4.19131899      11.93987179      20.90122604
C       18.77917671      10.52331066       6.13145304
O       20.05789375      10.39572048       5.51527214
C       20.89487648       9.38412857       6.11482620
C       22.28667641       9.62703609       5.52956343
O       23.20376396       8.76412868       6.18956089
C       24.54728699       9.09491062       5.86069250
C       25.42918396       8.06997204       6.58919430
O       26.69146729       7.93913889       5.91457367
C       26.89759636       6.72954369       5.20497084
H       18.84411812      11.04759026       7.10224771
H       18.11235046      11.09576321       5.46652460
H       18.30413055       9.54175854       6.28931999
H       20.51066589       8.38095570       5.86258173
H       20.91473007       9.48193359       7.21461105
H       22.53521347      10.68749905       5.71029615
H       22.29246140       9.44423389       4.43559933
H       24.78020668      10.12504768       6.19076538
H       24.72612572       9.01958275       4.76986837
H       25.59953117       8.37992382       7.63519907
H       24.90028954       7.10829687       6.61711359
H       26.13264465       6.56565237       4.42617941
H       26.90698433       5.86019468       5.88806057
H       27.89338684       6.79390574       4.73651171
