3194
Lattice="37.970001220703125 0.0 0.0 0.0 37.970001220703125 0.0 0.0 0.0 37.970001220703125" Properties=species:S:1:pos:R:3 pbc="T T T"
Na      36.90922928      20.27453041      14.52194786
Na      36.54655075      15.93414593      19.59006882
Na      31.83181000      14.92155075      18.39089203
Na      18.84329033      24.02047348       8.80349731
Na       6.32672834      15.30444336      26.59823036
Na       9.88954926      28.51105499      30.01119804
Na      14.97001266      27.52444839      26.19108009
Na       4.30416822      15.59397984      32.95672226
Na       5.39675570       7.41924143      15.02340984
Na      11.79121017      11.50922871      29.60620308
Na      12.48566246      22.78117752      20.70232010
Na      -0.01269186      36.51980209      25.51887703
Na      30.76345253      10.05231285      32.69159317
Na      22.86897087       6.20896292      31.05801964
Na       3.58096099       2.41864228       9.83174038
Na      26.12830734      32.36388779       7.04228592
Na      15.98714924       4.34300089      29.71737289
Na      15.68680382      32.06885529      34.20310211
Na       3.65849209      31.96529388      37.43314362
Na      21.59114265      14.87638855       9.17403889
P       28.16588211      30.22380066      31.78330040
F       27.34605026      29.39878654      32.93796921
F       29.02391815      31.07110977      30.66737366
F       26.90832901      31.27645874      31.62154198
F       29.41979790      29.18718338      31.93697929
F       27.54162025      29.29500198      30.62252808
F       28.80345726      31.17383957      32.94745636
P       20.57032394       7.06506014      19.57669258
F       20.12327576       7.94396162      18.26707268
F       20.95631218       6.16848516      20.88626480
F       21.34486961       6.01762152      18.60983276
F       19.73810387       8.09220123      20.54944611
F       19.17633247       6.17367125      19.37664604
F       21.89153862       7.96476269      19.74620056
P       13.77031994      22.01305962      17.21738625
F       13.12349224      23.39640999      16.68499374
F       14.42447376      20.66291618      17.85121918
F       12.29472542      21.40685654      17.47694016
F       15.25865936      22.62613297      17.08619118
F       13.71923256      22.66245079      18.76973724
F       13.82636547      21.42397881      15.74744606
P       33.58534622      11.99107742      32.36285782
F       33.71953583      13.60075760      32.14047623
F       33.37719345      10.33109379      32.60728073
F       35.18173599      11.74611664      32.29487228
F       31.91652107      12.12242413      32.40945816
F       33.47718048      11.74296093      30.77070808
F       33.66440964      12.19951153      33.94529724
P        2.11453867      34.62700653       2.28019953
F        0.62855929      34.53289032       1.58824861
F        3.61975098      34.69655228       2.88933086
F        2.21265459      36.17588806       1.82537258
F        2.04687476      33.03547287       2.66528940
F        2.79250860      34.16171265       0.80013245
F        1.47026300      35.04862595       3.71557236
P       14.88995075      32.33054352      18.51906586
F       13.87770939      33.17108154      19.49545288
F       15.92912674      31.50272751      17.58897209
F       15.49137020      31.56598854      19.83436584
F       14.31658745      33.13545990      17.22324753
F       16.01863480      33.49255371      18.72602463
F       13.76748657      31.18421936      18.32976341
P       13.52114105      28.71689224      34.80835342
F       14.58658123      29.94273186      34.52125931
F       12.41265488      27.51723671      35.07833481
F       12.34594154      29.85728073      34.96249008
F       14.71097469      27.63939857      34.64624786
F       13.79123974      28.83094978      36.40318680
F       13.20068073      28.63705826      33.19477844
P       18.49073601      34.52663422      34.01058960
F       19.03755379      33.00118637      34.12432861
F       17.90293121      36.02439880      33.92370224
F       19.88842010      35.00524902      33.32811356
F       17.04926300      34.02279282      34.71926117
F       19.09811020      34.84033585      35.49161148
F       17.84882164      34.16817856      32.55965805
P        9.33042812       1.54770017       6.30991554
F        9.18193340       2.76684642       5.22365093
F        9.50425529       0.30818227       7.39074516
F        9.72148514       2.61231017       7.46860600
F        8.92874908       0.47579870       5.14403200
F       10.88320255       1.37102199       5.89040852
F        7.75436878       1.68613195       6.68647528
P       29.36555862      22.44471741      34.07632446
F       27.74100876      22.30498505      34.24525070
F       30.98689270      22.56486893      33.95040131
F       29.15230942      23.57707405      32.92480087
F       29.59425354      21.32980537      35.26793671
F       29.34992599      21.26152039      32.95512009
F       29.36600685      23.61482239      35.21573639
P        3.84020138      26.26445198      23.54607582
F        3.44121885      24.67540741      23.64040184
F        4.23681831      27.84547043      23.48438072
F        2.24741864      26.67963028      23.67346954
F        5.42132807      25.85534477      23.44639587
F        3.70314837      26.20444679      21.92788124
F        3.97254944      26.31407356      25.18764687
P        5.46236324      11.73090744      25.76125908
F        5.67496014      10.96058369      24.35391235
F        5.27298450      12.57759380      27.16760635
F        3.93015480      12.11878490      25.34911537
F        6.98640156      11.42302608      26.19951057
F        5.97418642      13.16699600      25.04898834
F        4.95257568      10.38148403      26.50793839
P       32.77338791       8.02207756       6.98981047
F       33.84423828       8.70914936       5.94926405
F       31.73416519       7.32454491       8.06214428
F       32.83795929       6.60427618       6.13301373
F       32.75934219       9.41567898       7.87437105
F       31.53075790       8.51939297       6.07503510
F       34.04949951       7.48651743       7.89452696
P       30.00715637      17.28756714       4.20398188
F       29.95058250      15.67487049       4.16743755
F       30.04139137      18.91171455       4.29433250
F       28.37964058      17.35606766       3.91470098
F       31.59319687      17.24069595       4.54827070
F       30.29791451      17.33130455       2.63075590
F       29.68510818      17.24447250       5.82588291
P       14.97644329       9.41555882       3.05656314
F       15.31017780       9.26821709       1.47381353
F       14.63023663       9.57192135       4.64612103
F       13.92966461      10.61662388       2.73256874
F       16.03579903       8.22665501       3.38901258
F       16.17735100      10.50776196       3.22407889
F       13.77108955       8.32650471       2.91234493
P       27.45484734       3.88732219      35.26152420
F       25.84588814       3.67120743      35.02646637
F       29.03926277       4.10360479      35.50321960
F       27.59841537       2.32884097      35.72721481
F       27.31334496       5.43962431      34.77477646
F       27.18656158       4.32882309      36.79716110
F       27.76410103       3.44205832      33.73110962
P       15.70405006      23.18399429       3.69840360
F       15.59936142      24.67336655       3.04994941
F       15.84463120      21.68884659       4.38125086
F       15.58091640      22.49158287       2.22988534
F       15.86767101      23.83900833       5.20277023
F       14.05952835      23.12041283       3.89426255
F       17.35462379      23.24105644       3.53435922
P       36.24584579      20.41153717       2.61790347
F       36.59021759      21.41252899       3.83479548
F       35.85837936      19.37916565       1.37116730
F       37.57916641      19.52886200       2.91167068
F       34.86990738      21.28613281       2.27244306
F       37.07597351      21.33165932       1.55150831
F       35.36896133      19.44064331       3.63573813
P        6.22963905      19.61372375       8.88675785
F        6.42689848      21.04869270       8.12219143
F        5.99371147      18.15630150       9.62903214
F        7.77069330      19.25501251       8.64247513
F        4.62486506      19.95785522       9.09811497
F        5.85935688      18.91404343       7.45312786
F        6.56242466      20.29563141      10.31476974
P       29.73009109       9.73667145      13.29793072
F       30.66745949      11.10788250      13.24073315
F       28.80776978       8.38924026      13.42267132
F       29.04967117      10.14999676      11.88061714
F       30.44439697       9.38441849      14.74960327
F       28.58760071      10.60633850      14.10791683
F       30.88377190       8.88868427      12.55509949
O       19.01273537      31.27529526       9.97536659
C       18.07609558      31.83550835       9.44165039
O       17.40440750      31.34531975       8.38679981
C       16.38732719      32.30176926       7.99265862
C       16.47978401      33.40270233       9.07701492
O       17.57334900      32.98600769       9.92241096
H       16.60291481      32.66304016       6.97509956
H       15.41811085      31.77814865       7.97810364
H       15.58221245      33.49859238       9.70854187
H       16.73934555      34.38724899       8.64649010
O       23.48041916       3.80248070      30.95438576
C       22.68417549       3.03075600      30.43598557
O       21.48527718       3.43623042      29.96800041
C       20.69546509       2.30824137      29.50929260
C       21.66256142       1.11553717      29.70129204
O       22.88331223       1.72265434      30.19980431
H       19.79186630       2.24404788      30.13688850
H       20.38516998       2.48878598      28.46635437
H       21.86831284       0.56861860      28.76644135
H       21.28275299       0.41141173      30.45233727
O       32.38784027      15.38873100      24.26395607
C       32.32692719      14.53513813      25.11933517
O       32.21669388      13.20725727      24.89148331
C       32.12133789      12.50340366      26.15108490
C       32.09474564      13.60659790      27.21062851
O       32.37820816      14.81087494      26.45675087
H       31.19450569      11.90867901      26.15479279
H       32.97391510      11.81721306      26.26670837
H       32.83904266      13.50166416      28.01094246
H       31.11051750      13.73487949      27.69076538
O       29.65749359       8.17970753       9.74330330
C       29.86540222       9.34463501       9.54500675
O       30.96083450      10.00914860      10.04707050
C       30.74333191      11.40723991       9.80913353
C       29.72020531      11.41987610       8.65816402
O       29.05889893      10.15177822       8.78560543
H       30.38102341      11.89775658      10.73019028
H       31.70265770      11.87264729       9.54099178
H       30.17913628      11.50516605       7.65170145
H       28.96543694      12.21892738       8.74988270
O       26.89673233      31.76540947      12.03912067
C       25.88164902      32.42214203      11.96562958
O       25.24486351      32.70555115      10.80088139
C       24.01419067      33.41402817      11.07695103
C       23.94254494      33.43841934      12.60769272
O       25.23469925      32.94426346      13.03683567
H       24.08683586      34.42794037      10.65053177
H       23.16865540      32.85998917      10.63711929
H       23.14994431      32.75736618      12.95894051
H       23.75860023      34.42164612      13.06735802
O       33.16189957      10.26027584      28.03706932
C       34.20410156       9.70160389      28.26466560
O       35.38856125      10.33753681      28.50893021
C       36.45579529       9.38411999      28.69081688
C       35.72084808       8.02685547      28.70452690
O       34.40036774       8.36165428      28.22305870
H       37.16740036       9.45812321      27.84747696
H       36.97411728       9.58160973      29.64062500
H       35.65019989       7.61358595      29.72153091
H       36.17381287       7.27636480      28.03433800
O       16.39898872      21.29273987      14.34863091
C       17.16382217      22.22661591      14.23190498
O       18.50942421      22.07730484      14.05892944
C       19.09130096      23.35853577      13.74015999
C       17.87152100      24.24448013      13.46036816
O       16.80234909      23.53170776      14.14529037
H       19.66136742      23.71670914      14.61095524
H       19.74042702      23.23531532      12.85836983
H       17.64396095      24.31660271      12.38728809
H       17.93211365      25.26953697      13.82868004
O       15.56478024      29.70372009      25.71739197
C       16.25326729      30.52766228      26.31123352
O       17.19291115      30.20675468      27.20140457
C       17.90073586      31.39013100      27.67439079
C       17.08917046      32.53558731      27.03503036
O       16.12557602      31.85846138      26.17316628
H       17.91204834      31.40030289      28.77253342
H       18.94447136      31.36372948      27.32135773
H       17.72217560      33.16732407      26.39093399
H       16.53319740      33.12570572      27.78068161
O       16.58107758      15.72998524      22.33290100
C       17.28355598      16.12111664      21.43680763
O       17.16340256      17.34336281      20.83980751
C       17.88678551      17.32160568      19.56928825
C       18.81714058      16.08980560      19.69238281
O       18.30702591      15.41193771      20.86600494
H       17.15801239      17.19990540      18.75242805
H       18.44874382      18.26403427      19.46099472
H       19.86294174      16.37947273      19.86681557
H       18.76935959      15.41862106      18.82428932
O       28.13481331      24.90529060      21.33077431
C       29.21915817      25.07672501      21.81113052
O       30.12097168      24.10083389      22.12499619
C       31.26951599      24.66538620      22.75484848
C       31.10778427      26.17992020      22.57070732
O       29.75177193      26.31205177      22.11109543
H       31.28316307      24.39939308      23.81998444
H       32.18558121      24.26745987      22.29740715
H       31.80179214      26.57673454      21.81005287
H       31.23555565      26.73290825      23.51250267
O       15.32275581      22.53865242      24.57271194
C       14.65611362      22.26834869      25.54288483
O       14.67270088      21.07710457      26.19286728
C       13.54238224      21.01463509      27.10838890
C       13.10420704      22.47699356      27.27495956
O       13.78246784      23.11136627      26.15835762
H       12.75392342      20.40292931      26.64697456
H       13.83518887      20.55978012      28.06518173
H       13.40963268      22.94115257      28.22378731
H       12.02098083      22.62916183      27.15566254
O       37.14820099      11.34592724      15.95134640
C       36.29110718      11.95395851      16.54434967
O       34.95488739      11.82083416      16.35250854
C       34.22432709      12.54672241      17.36921501
C       35.30484009      13.28662395      18.16336632
O       36.53816605      12.86407089      17.55120659
H       33.51737976      13.24137115      16.87116623
H       33.63769531      11.87226200      18.00827217
H       35.31514740      13.07087898      19.23994064
H       35.18774033      14.38085365      18.02696800
O       21.02939415      26.32666016      19.68553925
C       21.32237625      27.29680824      19.03517151
O       21.61660767      28.50372887      19.60081863
C       22.07685471      29.40432930      18.55558968
C       21.73245430      28.66370964      17.24632645
O       21.42764664      27.31892776      17.67736244
H       21.53698921      30.35984230      18.67083359
H       23.15783882      29.57475090      18.67316246
H       22.57208061      28.61008263      16.53283310
H       20.85746193      29.09080696      16.71773911
O       35.63446808      17.80433655      18.72875595
C       35.95544434      18.98414230      18.81933784
O       37.17028809      19.43250275      18.45667458
C       37.28938293      20.81406975      18.92287827
C       35.82914734      21.23199081      19.16388893
O       35.16321564      19.94629860      19.29538918
H       37.88630676      20.80343437      19.84289932
H       37.76172638      21.38622475      18.11277771
H       35.38332367      21.76220703      18.30683136
H       35.64133835      21.80644035      20.07540512
O       23.09784126      10.71918297      21.59023666
C       22.56217384      10.03755283      22.41722679
O       22.71302032       8.68757439      22.52917099
C       21.95998573       8.20642185      23.65820122
C       21.30949974       9.45991707      24.28024101
O       21.74538040      10.53037930      23.41239166
H       21.22059059       7.47857618      23.28848076
H       22.64938545       7.71941042      24.36605644
H       21.64007759       9.65098095      25.31281281
H       20.20587540       9.43932247      24.26534081
O        5.39458227      29.23038101      18.79529190
C        5.89431238      28.16313171      19.03674316
O        7.23370457      27.89499474      18.97978783
C        7.48084831      26.51750374      19.28405190
C        6.09396029      25.97275925      19.67310715
O        5.19174910      27.04538155      19.35847664
H        7.90068531      26.01437950      18.39564133
H        8.19982910      26.44059181      20.11288643
H        6.02218580      25.73303986      20.74447060
H        5.82042837      25.08810043      19.07236671
O       20.49008369       1.84178042      16.45325279
C       20.66104507       2.06218958      17.63439560
O       21.80380440       2.53531265      18.18787193
C       21.64305115       2.68266392      19.61531830
C       20.20964050       2.20546365      19.88039780
O       19.71067429       1.87366939      18.57501602
H       22.39384079       2.08592749      20.14567375
H       21.80404663       3.72653222      19.91871834
H       19.56881332       2.98297310      20.32824326
H       20.16638374       1.31033480      20.52000046
O        6.30893421      18.35918999      19.14223099
C        5.72331810      19.39930725      18.93092728
O        4.82445145      19.59909821      17.93508148
C        4.30219555      20.95551682      18.01592445
C        4.87183619      21.48980331      19.35625648
O        5.89318752      20.51826668      19.68224335
H        4.65765476      21.53386116      17.14743996
H        3.20278072      20.90343285      18.01548195
H        4.12297535      21.51060486      20.15990448
H        5.35175896      22.47255135      19.26177979
O       32.35606766       3.25825930      16.04678535
C       31.81394196       4.19586992      15.49495602
O       32.05509186       4.58962488      14.21686840
C       31.24698067       5.76379585      13.90182972
C       30.42905998       6.01721048      15.19581509
O       30.87674904       4.96899891      16.10255623
H       31.92121124       6.60985136      13.69353294
H       30.63665390       5.54216433      13.01155376
H       29.34037209       5.91505146      15.03299904
H       30.61959457       6.99731350      15.66539288
O       13.08828926      15.31025410      30.84673882
C       13.77207661      14.60656643      30.14772415
O       15.05619621      14.86669350      29.77649879
C       15.62475204      13.73923779      29.05638695
C       14.44194031      12.76368904      28.90998840
O       13.36182117      13.42404079      29.62398529
H       15.99322510      14.05867577      28.07167435
H       16.44629478      13.28968334      29.62886620
H       14.65079117      11.82416630      29.43080902
H       14.12378597      12.55472088      27.87760925
O       14.97411633      29.61286926      14.95413780
C       13.78811264      29.45557404      14.75331211
O       12.80162430      30.14065170      15.39453220
C       11.52452946      29.67644882      14.89927006
C       11.86246109      28.53070641      13.92620182
O       13.30107021      28.57336044      13.83021355
H       10.89082527      29.36521149      15.74173546
H       11.02554989      30.51506996      14.38340569
H       11.43993092      28.65014839      12.91145229
H       11.54820824      27.55068779      14.31867981
O       27.95277214      20.00197792      11.46811199
C       27.11870193      19.39039993      12.06287956
O       25.78865623      19.69859314      12.12458706
C       25.04700851      18.71374893      12.87274265
C       26.08041382      17.58436584      13.03340435
O       27.35132980      18.21829987      12.75909615
H       24.71736336      19.12233353      13.83391476
H       24.14773750      18.42624092      12.29958153
H       25.92820930      16.77836800      12.29185486
H       26.08481789      17.16836166      14.05494499
O       27.52418327      33.59724045       8.74226379
C       28.52010918      33.09008789       8.25120449
O       29.29406929      32.17411423       8.84189606
C       30.11070061      31.50931358       7.84061098
C       30.01763725      32.45164490       6.61772203
O       28.86393547      33.27012253       6.95170403
H       31.13405800      31.41776657       8.22389221
H       29.69834328      30.51068497       7.62166357
H       29.82515144      31.94060707       5.66464043
H       30.88877678      33.11761093       6.54128742
O       21.74264145      14.18381405      11.31544685
C       21.95686340      14.77699184      12.35397053
O       21.99213982      14.16633701      13.55479431
C       22.23376465      15.13580418      14.58143520
C       22.71646118      16.35632706      13.78801632
O       22.15712929      16.11273384      12.48487377
H       21.30553627      15.31758785      15.14425373
H       23.01570320      14.79982281      15.26950073
H       23.81197166      16.34567261      13.68532085
H       22.36655045      17.31679916      14.18534184
O       16.23063850       5.04063702      34.56927109
C       16.11176300       6.23607874      34.41378403
O       17.08312416       7.13428545      34.68241501
C       16.60802460       8.47328663      34.41413116
C       15.13827991       8.27030563      33.99058151
O       14.97255802       6.83467340      34.01290894
H       16.72439003       9.09053040      35.31166458
H       17.20722198       8.91367245      33.60156250
H       14.92566586       8.64072990      32.97480011
H       14.41830254       8.71824169      34.68722916
O        9.01655388      18.79267311      12.41776752
C        9.62012672      19.82844925      12.37040806
O       10.70521069      20.07517815      13.14874077
C       11.19953918      21.39077377      12.85149193
C       10.18169594      21.96832466      11.85920238
O        9.32628536      20.86123657      11.53038788
H       11.29153824      21.97350693      13.77837086
H       12.19613552      21.30948639      12.39193630
H       10.65243149      22.34316444      10.93673515
H        9.56710815      22.77282333      12.29065895
O       34.13909531      19.08594322      25.43692589
C       35.00775146      19.68765450      26.00843239
O       34.76771164      20.82184410      26.73967934
C       35.94704056      21.24646950      27.43277168
C       36.98764038      20.16428185      27.03278732
O       36.32922745      19.37522697      26.04212570
H       36.23392105      22.24629974      27.06994820
H       35.72122192      21.28977585      28.51271057
H       37.26799774      19.53240967      27.88776588
H       37.89350510      20.62223244      26.60559464
O        7.18841028       7.57901001       3.19604850
C        6.67658854       8.67583179       3.28342652
O        6.07613087       9.32876110       2.26367259
C        5.68872356      10.65847397       2.70549583
C        6.01001835      10.66193199       4.21205235
O        6.62996960       9.37655067       4.44602299
H        6.28245401      11.40429020       2.15550423
H        4.61709690      10.78025246       2.49608588
H        5.11551905      10.73287868       4.85088205
H        6.72020912      11.44511414       4.51432037
O       37.55430222      13.20693016      20.80018044
C       36.69208908      13.78002167      21.42794418
O       36.80187225      15.10288429      21.82101822
C       35.60589218      15.50773144      22.57752800
C       34.67126846      14.31696224      22.38726997
O       35.48999786      13.30808163      21.72915649
H       35.86550903      15.72560978      23.62114143
H       35.21103287      16.43079185      22.11969566
H       33.79434967      14.50989056      21.74721718
H       34.28149796      13.93649960      23.33577919
O       29.35195732      26.73465157       8.07173347
C       29.14266014      26.06578064       7.08239269
O       29.98558807      25.93548203       6.01836824
C       29.37539482      25.13272476       4.98446894
C       28.07005692      24.63975143       5.64703751
O       27.99983025      25.37255478       6.89753246
H       29.15340805      25.77412605       4.11095762
H       30.03500748      24.30788612       4.66880274
H       28.10361862      23.55499649       5.82809591
H       27.17169952      24.85907555       5.04137659
O        2.02893782       9.18434620      23.75389099
C        1.96378636       8.22972012      24.48098373
O        2.56102538       8.12403297      25.70274544
C        2.29298139       6.84311533      26.28988457
C        1.33709955       6.15721560      25.27916336
O        1.27367318       7.09280634      24.18165016
H        3.23451757       6.28948116      26.42174339
H        1.82596791       6.99033594      27.27796936
H        0.32797199       6.01548719      25.69988060
H        1.71521497       5.18454790      24.92803574
O       13.75893497       1.56048679      -0.02453468
C       12.88648510       1.71277785       0.79518539
O       11.72039318       0.99882936       0.82157344
C       10.91924572       1.41572559       1.94488311
C       11.75781918       2.50366950       2.65076685
O       12.92410374       2.61098814       1.81641495
H        9.95318508       1.80233634       1.58567703
H       10.73051262       0.56956542       2.61848712
H       12.03375435       2.25230050       3.68308854
H       11.24264908       3.47742486       2.69346881
O       23.82546234      36.14915466      30.98373413
C       24.50663376      36.25547791      31.98001099
O       25.83185196      35.96178818      32.05014420
C       26.28969383      36.15169907      33.39934158
C       25.07678986      36.82510757      34.10522461
O       24.03160477      36.63601303      33.17411804
H       26.51281166      35.17560959      33.85016632
H       27.17501259      36.80315399      33.38982010
H       25.22175980      37.90211105      34.28677750
H       24.81550598      36.30803680      35.03756332
O       19.45387459      31.33307648      13.34614563
C       19.06152344      32.18001175      14.10684490
O       19.05747414      33.52845764      13.84846210
C       18.61433220      34.26559448      15.01295090
C       18.21097565      33.18643188      16.01091194
O       18.53154755      31.93789864      15.34919357
H       19.43669701      34.89455795      15.39122581
H       17.76698875      34.90870667      14.73749828
H       17.14066887      33.22402191      16.25189972
H       18.77289391      33.26681137      16.95817947
O       20.21823692      15.23427010       2.23317719
C       20.98142624      16.09537315       2.60405183
O       22.16074371      15.86015129       3.24454713
C       22.80760956      17.09854507       3.60432577
C       21.77824593      18.17329216       3.19278336
O       20.77672577      17.42941666       2.45476031
H       22.97800446      17.11893082       4.68983555
H       23.76687622      17.18536949       3.06828761
H       22.22308159      18.92605972       2.51982284
H       21.31648254      18.64674950       4.07461405
O       29.43901443       4.26488447      26.92910194
C       30.43738747       4.70954609      27.43050766
O       31.64117050       4.83165264      26.80422783
C       32.59401321       5.44521284      27.69269753
C       31.83015823       5.60564184      29.03032875
O       30.50819016       5.16523743      28.70969200
H       33.46173859       4.77560329      27.79426765
H       32.91205978       6.42006874      27.29074669
H       31.81681824       6.64430809      29.40379524
H       32.24180222       4.96294594      29.82139015
O       25.97615433      16.05110741      21.19595528
C       25.02519226      15.30530548      21.17787552
O       24.93326187      14.18994236      20.40779495
C       23.81103516      13.41332817      20.90787697
C       22.94972610      14.46099091      21.60121155
O       23.90930367      15.50367546      21.94351768
H       23.33201599      12.90761662      20.06498146
H       24.17882919      12.63999176      21.58586121
H       22.46313286      14.12218666      22.52614212
H       22.18615532      14.89171600      20.92150497
O       15.79773140      33.98041916      11.89192390
C       15.91122723      35.17181015      11.82058811
O       16.70016289      35.91000748      12.65187168
C       16.39916420      37.30102921      12.46968651
C       15.65411091      37.32898331      11.11404800
O       15.27995777      35.95593643      10.89078617
H       15.79174519      37.65116882      13.32117939
H       17.33617973      37.87411118      12.44622326
H       16.31301498      37.66896820      10.29250717
H       14.73262024      37.93305969      11.13682175
O       10.37000847      27.07111931      16.26134491
C       10.82828808      26.56993484      17.24784279
O       10.30760002      25.45035172      17.84519577
C       11.17660046      25.03031731      18.91539192
C       12.39832878      25.95336342      18.80022621
O       11.91738796      26.99952507      17.93735504
H       10.65230942      25.15560913      19.88067627
H       11.42756271      23.97264671      18.73469353
H       13.25360107      25.45001411      18.32901192
H       12.71920300      26.38483810      19.75578499
O       22.49266624      28.91980553       8.02547932
C       21.52079391      28.48558998       8.59413528
O       21.03619385      27.21726990       8.39354324
C       19.87623405      27.02816772       9.24716759
C       19.75572205      28.31443596      10.05993748
O       20.79328346      29.15425301       9.49799633
H       19.01054955      26.83241463       8.58778858
H       20.05119705      26.16372681       9.91404152
H       19.92151070      28.16118050      11.13494396
H       18.78583336      28.81967163       9.94578075
O        8.05105209      28.58407402       2.95409751
C        7.41636181      27.64183617       3.35978842
O        6.17209244      27.29917526       2.93179154
C        5.64918518      26.16834450       3.68546081
C        6.85458517      25.74019814       4.55700397
O        7.84871864      26.77034950       4.32098436
H        4.79000235      26.48788452       4.28953648
H        5.28953314      25.38042641       3.01024628
H        7.25076103      24.75280380       4.26940680
H        6.60663652      25.71499634       5.63081646
O       33.18390656       7.82067060      21.34803772
C       32.03673172       7.99304962      21.68660545
O       31.43599129       7.34516478      22.73142433
C       30.03667450       7.70502377      22.77546501
C       30.00111771       9.00247002      21.95576859
O       31.16011047       8.83646774      21.09565735
H       29.43342018       6.90477896      22.30844307
H       29.66926003       7.83615780      23.80094147
H       30.11534309       9.89826584      22.59006882
H       29.10988426       9.13950443      21.31874084
O       18.02350426      22.39644623       6.96881390
C       18.95385742      22.39739799       6.18520069
O       19.13131714      21.59146500       5.12177086
C       20.43902206      21.80509758       4.53052425
C       21.13312531      22.71224976       5.56483078
O       20.02252579      23.23989487       6.34423876
H       20.93616676      20.83432770       4.42104578
H       20.32040405      22.26011086       3.53050637
H       21.69900513      23.54433250       5.11737108
H       21.80110931      22.13818359       6.22233009
O        9.96629715       3.79027367      16.11444855
C       10.34131336       4.31663036      17.13854218
O       10.40948296       3.73498201      18.34696960
C       11.00449657       4.61996365      19.30859756
C       11.04276848       5.97177315      18.58576584
O       10.69163513       5.64220285      17.23348045
H       10.36953640       4.65556431      20.20474625
H       12.00531101       4.25871992      19.59071732
H       12.03942871       6.44164324      18.58273506
H       10.30891418       6.68586969      18.99533653
O        7.62101412       4.62350130      22.39966583
C        6.44019508       4.38874674      22.32067490
O        5.89652109       3.41134906      21.56204224
C        4.46176434       3.41444898      21.70563316
C        4.18628693       4.48453760      22.79197884
O        5.48996592       5.05389309      23.03067589
H        4.00495005       3.67470288      20.73743057
H        4.14339447       2.41042995      22.01355171
H        3.79649043       4.07033443      23.72937775
H        3.50776505       5.27958250      22.44713402
O       17.17463875      10.69257069      29.46014404
C       16.36150360       9.87085533      29.09589958
O       16.02921295       8.75857544      29.80723000
C       14.95884037       8.03378773      29.13494301
C       14.56015015       8.92908573      27.95414543
O       15.61027813       9.94422436      27.97264862
H       15.33842850       7.06029415      28.77900314
H       14.13082123       7.87712765      29.83882141
H       13.57149887       9.39882088      28.09246254
H       14.55425453       8.40820885      26.98772430
O       15.20533657      33.51672363       5.14729691
C       14.24415684      34.23602676       5.03395319
O       14.11812210      35.44301224       5.63832474
C       12.85189056      36.05434418       5.28574228
C       12.09453201      34.91284561       4.54922819
O       13.12944698      33.92061615       4.30829620
H       12.35005856      36.38859177       6.20420504
H       13.03416443      36.90798187       4.61331463
H       11.67594242      35.24788666       3.58725333
H       11.31269741      34.46802521       5.18034697
O       16.84248352      14.47077847      17.89662170
C       15.67017746      14.54240322      18.18087387
O       14.67439842      13.88732719      17.54294777
C       13.39572620      14.21566963      18.15793800
C       13.75396538      15.21367168      19.28093910
O       15.19660854      15.35438824      19.16529274
H       12.75038624      14.65768242      17.38150406
H       12.93924046      13.29507256      18.55081749
H       13.48565960      14.85762787      20.28020096
H       13.28738403      16.19884109      19.11743546
O       32.98227310      16.70377731      21.04136086
C       31.92151260      17.23072243      20.78620720
O       30.97810364      16.62567902      20.01202011
C       29.76815033      17.48740578      19.93576431
C       30.26299286      18.80200005      20.55671501
O       31.55295563      18.46645546      21.15983772
H       29.44862938      17.55198860      18.88496590
H       28.94149780      17.03343773      20.49913979
H       29.57720184      19.22819138      21.30533218
H       30.44015884      19.54962158      19.76881599
O       32.46194839      29.57896423      13.06818104
C       31.38382912      29.10837555      13.33915138
O       30.21072960      29.42146492      12.72881699
C       29.10733795      28.65252304      13.28195477
C       29.76554489      27.87931061      14.44014072
O       31.18888474      28.17193413      14.31664085
H       28.31532669      29.34021378      13.60811043
H       28.70018005      27.99943161      12.49744606
H       29.59331131      26.79482460      14.35068512
H       29.40473938      28.22046089      15.42458153
O        3.36097288       5.59225798      11.17272949
C        3.15388608       6.79019499      11.10907745
O        4.12847424       7.72071886      11.38408279
C        3.55373812       9.05759144      11.31139374
C        2.06864357       8.81252098      10.99675274
O        1.98108423       7.37409544      10.81564426
H        3.71496296       9.54887104      12.28295326
H        4.07690573       9.61204147      10.51246738
H        1.71680748       9.31276131      10.08549118
H        1.40893233       9.10617065      11.82237816
O       31.09621048      11.61823750      20.47625923
C       30.12818718      12.27041435      20.79192543
O       30.10410118      13.09824657      21.86211014
C       28.78616905      13.70248222      21.95256233
C       28.05523682      13.26006031      20.68379974
O       28.95196152      12.25241947      20.13195992
H       28.26668549      13.34054661      22.85573006
H       28.87584305      14.79437637      22.04789925
H       27.92533493      14.05093384      19.92352676
H       27.07576561      12.81218433      20.89385033
O       26.89779091      31.10197449       2.97432113
C       25.76516533      31.03245735       3.39882088
O       25.08110428      32.13620758       3.87634206
C       23.79654694      31.73099518       4.42849779
C       23.75666428      30.22242355       4.15739536
O       25.02606392      29.93353081       3.52600551
H       23.77199936      31.97786522       5.49544239
H       22.98870659      32.28865814       3.92329192
H       22.93176079      29.90285492       3.50475240
H       23.66123199      29.67813110       5.10925674
O       20.93880844       0.89150959      10.51074123
C       22.04802895       1.19512641      10.86866379
O       22.86372185       0.37489954      11.58206558
C       24.05270767       1.06306887      12.02318096
C       23.91031837       2.46328354      11.38371086
O       22.63884163       2.39544630      10.69115925
H       24.06059456       1.12828040      13.12407970
H       24.95573616       0.52694553      11.68578148
H       24.72177505       2.66235423      10.66658020
H       23.85941124       3.25645566      12.13854980
O       17.44944382      26.69897079      33.34700775
C       17.34075546      27.85194969      33.00193024
O       18.23250198      28.81104088      33.36457062
C       17.87515450      30.04158974      32.70813751
C       16.52586937      29.73526192      32.02624893
O       16.36619568      28.31898117      32.19290161
H       17.87485313      30.86752510      33.43813705
H       18.65088081      30.30071259      31.96619606
H       16.53872108      29.98350334      30.95145226
H       15.63445854      30.22746468      32.44969940
O       34.10090256      22.18892670      13.61314106
C       34.64279175      22.66410637      12.64370823
O       35.98042679      22.48254776      12.38018799
C       36.33058167      23.23220253      11.18266487
C       34.94937134      23.49094582      10.53894329
O       34.07390594      23.42308807      11.69758511
H       36.81732178      24.17164612      11.49741459
H       37.00125122      22.62576294      10.56234741
H       34.67362976      22.70746803       9.81696129
H       34.84528351      24.48850822      10.09180737
O       32.13146973      11.01365566       1.95221162
C       32.69312668      12.04040909       2.22086644
O       32.15013123      13.27289867       2.10048175
C       33.06826019      14.25525951       2.59052634
C       34.23844910      13.41461277       3.15663457
O       33.97557831      12.09477234       2.70550394
H       33.39666367      14.90801907       1.76130700
H       32.57753754      14.86916637       3.35732102
H       34.25205994      13.44459629       4.25967932
H       35.21292877      13.75325203       2.75622606
O       34.66922379      20.64788246       9.10886288
C       33.96385956      20.98268890       8.17823219
O       34.37481689      21.02408791       6.88493061
C       33.32872391      21.63732147       6.09118605
C       32.09449005      21.54992104       7.01259089
O       32.67926407      21.36953545       8.32923317
H       33.59400177      22.69548607       5.91708899
H       33.25152588      21.12180901       5.12596512
H       31.42778969      20.71138573       6.75078773
H       31.49561310      22.47606850       7.01776600
O       19.44444275      17.19220924      29.26004028
C       18.38309860      17.66942406      28.94882584
O       17.17310905      17.05928040      29.09725380
C       16.10894775      17.87704659      28.58524323
C       16.82458687      19.15444946      28.08639526
O       18.22548103      18.90084457      28.37660599
H       15.58105373      17.34912300      27.77473259
H       15.37771893      18.09404945      29.37362480
H       16.49974251      20.05460739      28.62858009
H       16.69907761      19.31487465      27.00136375
O        3.26432109      31.09415817      30.72823715
C        3.57042432      32.04078293      31.41315651
O        4.82628775      32.54352951      31.53104782
C        4.87280369      33.55408096      32.55591583
C        3.39226007      33.69523239      33.01128769
O        2.70484138      32.72120667      32.21689224
H        5.52654028      33.22897720      33.37717819
H        5.25720644      34.48794937      32.11883545
H        2.98338652      34.69642639      32.79740906
H        3.26659918      33.46897507      34.07808685
O        0.96011800       5.88397694       7.17654324
C        1.29663622       7.00658941       6.89826775
O        2.33218622       7.30344296       6.04282761
C        2.59124684       8.72711182       6.10602617
C        1.37987733       9.28617859       6.90385771
O        0.72785282       8.11542225       7.40518475
H        3.54271436       8.90405273       6.63030910
H        2.64321351       9.12449837       5.07804823
H        0.68518448       9.85806942       6.26173067
H        1.66632748       9.91380787       7.76009274
O       24.43817902      25.77056503      21.48047638
C       23.37254524      25.21154022      21.56292725
O       22.34707642      25.63289642      22.35486031
C       21.22042084      24.74612808      22.20110321
C       21.72058868      23.64466858      21.24718666
O       23.08185005      24.03552437      20.93975830
H       20.93304443      24.36827660      23.19086647
H       20.37347221      25.31184006      21.78232765
H       21.13970947      23.56800842      20.31183052
H       21.75783539      22.65725327      21.73418427
O       12.14825249       6.64623785      31.17424774
C       12.11410236       6.06726027      30.10709953
O       11.19768620       6.28335714      29.14549446
C       11.39525700       5.39120483      28.01085854
C       12.71016216       4.65998650      28.35059738
O       12.99699879       5.10496378      29.71834373
H       10.53995609       4.70129156      27.95176506
H       11.47458935       5.99862528      27.09615517
H       13.53638649       4.95720911      27.68028831
H       12.61370945       3.56688690      28.35426521
O       24.32073975      33.82695389      20.28749847
C       24.40022278      34.96386719      19.88452721
O       23.33603096      35.69680786      19.47782135
C       23.75535583      36.99917984      18.99468803
C       25.30211639      36.96034241      19.16121483
O       25.56135178      35.66238785      19.76105690
H       23.42620277      37.10751724      17.94664192
H       23.28488541      37.77869415      19.60913658
H       25.65692139      37.74333191      19.84238434
H       25.82603645      37.02590561      18.19296455
O       29.91708374      11.92554283       3.72715616
C       29.08416939      12.56466007       4.30448961
O       27.87029076      12.88420963       3.75027084
C       27.13517761      13.66536427       4.69966555
C       28.09350586      13.84973907       5.89050865
O       29.22149849      13.02096748       5.58937502
H       26.87006378      14.63310337       4.24879169
H       26.21048737      13.16016293       5.01371479
H       27.64072609      13.52906895       6.84403324
H       28.42776489      14.89777184       5.99976969
O        9.79067898      18.48549461      25.01197243
C        8.74116325      18.68570518      24.42763138
O        7.60260201      18.01681709      24.71856689
C        6.47973871      18.52800560      23.93994904
C        7.12871027      19.59263420      23.03286362
O        8.53186512      19.56042671      23.43587303
H        6.02532053      17.70629120      23.36934280
H        5.72900915      18.92856216      24.63784599
H        6.74579477      20.61036491      23.19877434
H        7.04532194      19.33990097      21.96609879
O        5.12804747      19.64219856      31.08223534
C        4.06319475      19.28520966      30.63140488
O        3.81241083      18.02798653      30.18705177
C        2.40785384      17.86412430      29.84319305
C        1.80554080      19.26215363      30.08722115
O        2.95511842      20.05919266      30.51145935
H        2.33493996      17.51246262      28.80060768
H        1.94882429      17.12127686      30.51242256
H        1.05495071      19.27440643      30.88839531
H        1.37936258      19.70213127      29.17068100
O        7.57420158      25.81315231      33.18539429
C        7.59692001      25.75678062      34.38685989
O        8.57782364      25.18254852      35.12604141
C        8.30734921      25.32982445      36.52695465
C        6.91960526      26.01001930      36.57742310
O        6.67637825      26.33748055      35.20295334
H        8.30845642      24.32845306      36.98453140
H        9.08514118      25.94941139      37.00599670
H        6.89776802      26.92660522      37.18786621
H        6.11963511      25.33489990      36.92317963
O       24.62890625       5.41824198       4.22481918
C       23.78161621       4.89434624       3.56290483
O       23.46965218       5.20312881       2.27592969
C       22.25138474       4.52903652       1.87685740
C       22.18149757       3.38824797       2.92361617
O       22.98161507       3.89371061       4.01135778
H       21.41858292       5.24443340       1.97763145
H       22.31365395       4.16397667       0.84846514
H       22.60007477       2.44692063       2.54330063
H       21.15549088       3.21017027       3.27171826
O       17.91507721      22.82406044      10.66137695
C       16.92099953      22.19221306      10.96488094
O       15.87863255      22.73735428      11.64063454
C       14.82809830      21.73970795      11.80482960
C       15.31192780      20.61858368      10.86922073
O       16.73111343      20.89451981      10.68724155
H       14.76969528      21.48202705      12.87439537
H       13.87734318      22.20484161      11.48793221
H       14.85354996      20.64205933       9.87078667
H       15.19477558      19.60815239      11.27635765
O       11.45034122       8.12561035      36.52975464
C       10.27687359       8.09636402      36.24117661
O        9.44093513       7.05684566      36.47628784
C        8.07825661       7.39667749      36.12175751
C        8.17299747       8.84760857      35.59029388
O        9.60583305       9.11183548      35.62346268
H        7.71323919       6.69842339      35.35751343
H        7.44459867       7.33134413      37.01401520
H        7.66694832       9.58910751      36.22483826
H        7.82794428       8.93704605      34.54836655
O       13.67001629       2.19575906      20.02757072
C       14.73524761       2.10752606      19.45960617
O       15.34662437       0.95261818      19.11888504
C       16.59939194       1.19587147      18.43588066
C       16.71557236       2.72576475      18.45343971
O       15.46858406       3.17691112      19.04040146
H       17.41735840       0.72465450      18.99581909
H       16.58630562       0.77623856      17.41377258
H       16.82212257       3.11418772      17.42538261
H       17.55426025       3.07389927      19.06641769
O        6.59334946       6.24405575      10.35388756
C        6.84194422       7.29870558      10.87772751
O        7.00581884       7.48453379      12.22841835
C        7.11830378       8.89096546      12.52674675
C        7.25067329       9.55286026      11.15179157
O        7.00423241       8.47464561      10.20811081
H        6.21226215       9.22505569      13.06007099
H        7.98212957       9.07905006      13.17451286
H        8.26062107       9.94762135      10.95590687
H        6.48361301      10.33397484      11.00910568
O       21.07004547      16.67419434      32.01107788
C       21.87932777      17.33781052      32.59900665
O       23.21431732      17.34822083      32.35462952
C       23.83156586      18.33992004      33.18952179
C       22.64762878      19.17773628      33.69222260
O       21.56447983      18.23615837      33.58425903
H       24.35118675      17.85793686      34.02395248
H       24.53825188      18.93155098      32.58535004
H       22.45527267      20.04605293      33.03845978
H       22.74752998      19.51876450      34.73015594
O       10.09159470      26.87214088      28.40577316
C        9.64777279      25.78746796      28.07101822
O        9.09106445      24.93835449      28.97205544
C        8.62649059      23.74569893      28.29113960
C        8.93958855      23.98370361      26.79534912
O        9.62359142      25.26891136      26.81796265
H        9.16223717      22.87107277      28.68969154
H        7.54429197      23.63905334      28.48239136
H        8.04456615      24.06920624      26.15989876
H        9.61079979      23.23286057      26.35000229
O       30.85396004      21.87581825       4.13029003
C       31.26165199      21.30442810       3.13794422
O       30.81147385      21.57684135       1.88554335
C       31.52966499      20.77410698       0.92571270
C       32.31269455      19.79544830       1.79558301
O       32.18803406      20.31669235       3.12736154
H       30.81333351      20.26770210       0.26215255
H       32.18206024      21.43161011       0.32023624
H       33.37731171      19.73384476       1.51989865
H       31.89296913      18.77805328       1.73929441
O       30.66935349      22.46613884      17.03680229
C       29.59772873      22.09873962      17.43051910
O       29.39231682      20.83413315      17.90134430
C       27.96534920      20.61743546      18.10969162
C       27.34732437      22.01567268      17.99008560
O       28.44464684      22.81028938      17.45573807
H       27.59859467      19.89988708      17.35034943
H       27.80244827      20.20806694      19.11276627
H       27.00091934      22.41582489      18.95611763
H       26.52084541      22.08020401      17.26511574
O        9.52758026      21.71163368      36.14559937
C        9.98862839      21.22531128      35.14336777
O       10.43559074      19.94417953      35.03377914
C       10.94705391      19.70024109      33.70195389
C       10.59318638      20.97593498      32.92539597
O       10.09046459      21.86615181      33.95181656
H       12.03478527      19.52834129      33.70922089
H       10.47859192      18.80501556      33.26280594
H        9.80440235      20.79813194      32.17406082
H       11.45762062      21.42480469      32.41437531
O        7.75854683      23.49638176      23.57267189
C        8.88102818      23.92134857      23.52349472
O        9.99211788      23.15397263      23.26681519
C       11.17597866      23.93386459      23.54679680
C       10.65480804      25.36349297      23.74189758
O        9.22330475      25.21397781      23.75397301
H       11.69167900      23.54330063      24.42932510
H       11.88217449      23.88638878      22.70286179
H       10.93499565      26.01018143      22.89760017
H       10.98007298      25.82612038      24.68486404
O       22.78099823      10.34998703       1.24048090
C       22.88423920      10.73870087       2.38135290
O       24.03351593      11.24889755       2.91913390
C       23.86702347      11.53308201       4.31569481
C       22.34708595      11.38771534       4.51449060
O       21.89394951      10.76600552       3.30559540
H       24.45656395      10.82025051       4.91223288
H       24.17370415      12.55776310       4.55144024
H       21.89252090      12.37876797       4.64052391
H       22.07289696      10.75821304       5.37349606
O       20.63813019      35.97117996      16.88341331
C       20.22416878      35.44311523      17.87982559
O       19.16848183      35.87767029      18.62398148
C       18.91216278      34.99044418      19.73007584
C       20.03345871      33.93554688      19.62221718
O       20.71012497      34.26285553      18.38521576
H       18.94358253      35.55970001      20.67131615
H       17.90844917      34.55291367      19.60854340
H       19.64274216      32.91056061      19.53341866
H       20.73996544      34.00263977      20.46332741
O       17.30487442       8.02101517      23.39044380
C       17.07544708       6.99644947      22.78797913
O       15.82774067       6.53544426      22.53276634
C       15.88198662       5.29387474      21.77650261
C       17.39465332       5.02957439      21.62151527
O       18.01773071       6.15817976      22.29135132
H       15.38406849       4.50320053      22.35648537
H       15.36758423       5.41155243      20.80873299
H       17.74025726       5.00280476      20.57279015
H       17.70936584       4.10233402      22.12572479
O       15.41028690      18.47507668      32.79302979
C       15.42234802      19.56246185      32.26284027
O       16.48952675      20.06573296      31.57040024
C       16.18277168      21.45481300      31.21149063
C       14.65485764      21.52920532      31.38040543
O       14.39498901      20.43259239      32.29188919
H       16.68827629      22.13980865      31.91070175
H       16.54548645      21.64239883      30.18778801
H       14.08485508      21.36729813      30.45041275
H       14.32725811      22.46462059      31.84948349
O       16.80002594      26.90043640      13.08724689
C       16.50808907      28.02463531      12.71440983
O       15.48394966      28.27777863      11.90072441
C       15.38812447      29.69931030      11.64802456
C       16.59093475      30.27284622      12.42046547
O       17.22009277      29.10917473      13.04753494
H       15.41800976      29.84490204      10.55334473
H       14.42071438      30.06282616      12.02269268
H       16.28965187      30.98739815      13.19945049
H       17.33180046      30.75076866      11.75569820
O       12.96825981      14.27336979       9.21712971
C       13.10462761      15.12801647      10.06431961
O       13.96572208      16.17844772       9.97043133
C       13.95993519      16.88094711      11.23123837
C       12.74925613      16.32181740      11.98126221
O       12.40442276      15.15609264      11.21582985
H       14.92101860      16.69967270      11.74180889
H       13.83220100      17.95356178      11.01711082
H       11.89722061      17.01964951      12.04434490
H       12.99003887      16.02836609      13.01218700
O       14.76953411      26.52571297       5.49590874
C       13.59485435      26.56332588       5.69880867
O       13.03418350      26.89008904       6.91267157
C       11.65781498      26.47109222       6.92226171
C       11.33199406      26.23901367       5.42361069
O       12.62252331      26.26784706       4.77982283
H       11.57568264      25.54904175       7.52308035
H       11.04668045      27.23877907       7.41946411
H       10.67915726      27.03191757       5.02344561
H       10.87158108      25.26246071       5.21500587
O       27.83469200      11.12972927      34.20840454
C       26.96686745      10.65151405      33.51400757
O       27.14592552       9.61497402      32.64252472
C       25.97779655       9.46324444      31.79376602
C       24.90126801      10.34166527      32.47219467
O       25.67032242      11.09357929      33.44924545
H       26.21978760       9.84452057      30.78973389
H       25.70757103       8.40182877      31.72847366
H       24.12577438       9.74712467      32.98394775
H       24.42525864      11.02379513      31.74544716
O        9.31592369      12.73395538       7.71771193
C        8.21723270      12.25959301       7.64274168
O        7.07936716      12.96845150       7.97933722
C        5.91694689      12.11528778       7.89862776
C        6.53127861      10.71722126       7.64229250
O        7.91152525      10.98575020       7.29447317
H        5.35336637      12.19619942       8.84113789
H        5.26192236      12.45539665       7.07824087
H        6.04035473      10.17702961       6.82196379
H        6.49225807      10.08350372       8.53801823
O       25.42692375      22.99022675       3.44238591
C       25.84202385      21.87052345       3.55793285
O       25.31120110      20.77582741       2.93782520
C       26.01386261      19.58586121       3.36547780
C       27.26473045      20.13938904       4.06905746
O       26.94339943      21.52870178       4.29154348
H       25.35172653      19.02954865       4.05336380
H       26.23944473      18.96363258       2.48328972
H       28.16016960      20.03927612       3.43480825
H       27.46916962      19.65599823       5.03538561
O       25.07935143      17.43236923      36.38289642
C       25.56389809      18.44181061      35.90503693
O       25.19460106      19.69806671      36.23850250
C       25.94974518      20.66820335      35.44370651
C       26.79544258      19.78131866      34.48989105
O       26.46449089      18.42632103      34.89329147
H       25.23366928      21.31985664      34.91066360
H       26.57134628      21.28017807      36.11070633
H       27.87334633      19.92687988      34.62701797
H       26.55487442      19.92058372      33.41936874
O       16.36030960      36.92899704      36.77206421
C       15.51849651      36.17930222      36.35260773
O       14.86611080      36.30949783      35.15883636
C       13.88673019      35.27376175      35.00080109
C       14.10904980      34.37616730      36.23843002
O       15.05797195      35.09622192      37.04644394
H       12.88774681      35.73362350      34.98229980
H       14.02033997      34.75993347      34.03437042
H       14.50675011      33.38063049      35.98951721
H       13.18340492      34.22237396      36.81608582
O       25.17741776      16.73324776      25.93859482
C       25.40905571      17.82983971      25.51010704
O       26.38786697      18.62802315      26.03128624
C       26.17076111      19.96853828      25.54735374
C       25.35510063      19.74435043      24.27084160
O       24.78537941      18.41629028      24.45638847
H       25.65500641      20.55899048      26.32134247
H       27.13022423      20.46079063      25.33154869
H       25.99779701      19.72939491      23.37421799
H       24.52253914      20.44386864      24.11775780
O       15.87361813      31.63091278      36.64276886
C       16.76914787      30.80356026      36.59608841
O       16.60248184      29.50830078      36.28264618
C       17.84763908      28.80200577      36.41107178
C       18.87320709      29.93018341      36.51250458
O       18.08390808      31.10857582      36.79999161
H       17.81605339      28.18444633      37.32114029
H       17.98028946      28.16168213      35.52136230
H       19.43155670      30.09801865      35.56878662
H       19.58289719      29.78103447      37.33965302
O       21.11712837      28.49045181       2.86265683
C       20.36895370      27.55089378       2.85453176
O       20.73535728      26.27108383       2.51463366
C       19.59278679      25.38548851       2.67141795
C       18.45191765      26.31092453       3.15983915
O       19.06429482      27.62456703       3.19089127
H       19.38761139      24.87985611       1.71164250
H       19.84051514      24.62983322       3.43050838
H       18.08823204      26.06144905       4.16904783
H       17.58150864      26.33839035       2.48639059
O       36.54305267       7.32449627      18.62177849
C       35.40447617       7.65901184      18.36460876
O       34.31626129       6.88632250      18.58190155
C       33.10871506       7.56283188      18.17185020
C       33.59725571       8.96080399      17.75032616
O       35.04714966       8.84384537      17.81235886
H       32.62264633       7.01245117      17.34856796
H       32.39423370       7.61956024      19.00243950
H       33.24544525       9.72871780      18.45505524
H       33.29415894       9.23529720      16.72536087
O       11.77130604       1.61816442      16.46535683
C       12.56631470       2.45638466      16.11572838
O       13.19098473       2.42907500      14.90399265
C       14.30776405       3.34185481      14.96276379
C       13.98413658       4.23526049      16.17195892
O       12.96304417       3.49203753      16.88754463
H       15.23468304       2.76667833      15.08614922
H       14.35516453       3.90187526      14.02043915
H       13.57957458       5.22061300      15.89264774
H       14.83741951       4.36291218      16.84872627
O       30.65745926      17.24698257      37.66305923
C       31.81815910      17.20206070      37.33185577
O       32.58748245      16.09392357      37.26989746
C       33.89131165      16.39979172      36.74639511
C       33.91504288      17.95518875      36.70959473
O       32.54996109      18.31126785      36.97805023
H       34.65525055      16.02212334      37.44141769
H       34.02103043      15.94022846      35.75082016
H       34.20350266      18.33910561      35.71346664
H       34.57477188      18.38347435      37.48080826
O        0.98192257      11.13161373       2.03283453
C        1.29784894       9.96851635       2.01104331
O        0.43390402       8.93174934       1.89015508
C        1.14388478       7.68171978       2.03686261
C        2.63900661       8.08405113       2.05887151
O        2.57327485       9.52176285       2.15107942
H        0.83481330       7.20171785       2.97920132
H        0.88367498       7.02134085       1.19529104
H        3.20413971       7.77420378       1.16601038
H        3.15905070       7.67428493       2.93121409
O       31.67753220      35.69940186      32.75381088
C       32.33759689      34.74448395      33.07021713
O       33.45942307      34.81017303      33.85770035
C       34.01287842      33.50930023      34.04135132
C       32.96761322      32.56742096      33.38683319
O       32.09509277      33.47333145      32.69285202
H       35.01623154      33.45146561      33.58308411
H       34.11503220      33.30897141      35.12101746
H       32.38538742      32.02657318      34.15377045
H       33.39326859      31.85227394      32.66881180
O       35.82822800      15.37386894      11.83990765
C       34.76480103      15.04735470      12.32072163
O       33.73633575      15.87352180      12.59956264
C       32.60211945      15.14942551      13.16448498
C       33.07843018      13.68606949      13.15208530
O       34.44256973      13.75656414      12.64508724
H       32.39546204      15.53605556      14.17479610
H       31.70837593      15.35745049      12.55248547
H       32.47825623      13.02017403      12.50861263
H       33.09079361      13.25648880      14.16457081
O       18.70011139      37.07976151       8.55853176
C       19.38723564      36.41277695       9.29312038
O       20.74317932      36.31930923       9.23116398
C       21.22385979      35.47960663      10.28741264
C       19.94788170      34.88940048      10.90652084
O       18.89256668      35.62493896      10.26493931
H       21.87809181      34.70393753       9.86562538
H       21.80201149      36.07981110      11.00710011
H       19.88462257      35.02565384      11.99355602
H       19.83692741      33.81284714      10.69196224
O        6.89591551      15.11018848      33.78308868
C        7.91484070      14.70050716      33.24913025
O        9.03654766      15.42958927      33.07542419
C       10.04618645      14.66987610      32.35638809
C        9.36405754      13.31884480      32.08098602
O        8.03966331      13.48309422      32.66148758
H       10.30999088      15.18217945      31.41702271
H       10.95112801      14.58400154      32.97171783
H        9.87491703      12.48105907      32.57140732
H        9.26469898      13.08105564      31.00935555
O       27.99930954       3.58172369      13.61058903
C       28.40662003       2.64420676      14.23702908
O       29.31520653       1.73234653      13.80978966
C       29.54929543       0.75307715      14.82629871
C       28.82864761       1.32902610      16.07988739
O       28.01560020       2.37253642      15.52510929
H       29.11712456      -0.21724215      14.52732182
H       30.62777901       0.65660453      15.01522636
H       29.53810310       1.74144542      16.81720161
H       28.16017723       0.60580057      16.57283592
O       26.99332809      30.94311333      23.36698914
C       27.38062668      29.87938690      23.77962112
O       26.66557503      28.74270821      23.77226448
C       27.47868729      27.63466454      24.24098778
C       28.77857018      28.28480530      24.73430824
O       28.64841461      29.64896774      24.27104378
H       26.93676949      27.14388466      25.06205940
H       27.61809921      26.91198540      23.41949844
H       29.67095947      27.84096527      24.27005768
H       28.89653397      28.27447128      25.83181953
O        7.92573500       6.16623831       6.81339121
C        6.86076880       5.83356905       7.26317167
O        5.84987736       6.69169807       7.59109783
C        4.72996187       5.96711922       8.14532566
C        5.18763161       4.50422049       8.08123398
O        6.51388979       4.53172970       7.51320791
H        4.53407526       6.29382420       9.17595482
H        3.83748436       6.15105629       7.53458452
H        4.53345585       3.87783623       7.44192696
H        5.24856424       4.08472538       9.10523510
O       18.85489845      13.96307373      34.41466141
C       19.63503838      13.60932255      35.27402878
O       20.62282181      12.71038437      35.08773422
C       21.13819885      12.32182789      36.35555267
C       20.38476562      13.20797825      37.38160706
O       19.56255150      14.02690411      36.55614090
H       20.94329071      11.25060081      36.51074600
H       22.22518539      12.50285339      36.39332962
H       21.04938126      13.83725166      37.98615646
H       19.74946213      12.62021255      38.05697250
O       23.94705963       6.00366259      20.95886230
C       24.89030457       6.66135836      20.62673759
O       26.19271851       6.20728827      20.59456635
C       27.06879616       7.32591438      20.38537598
C       26.13291740       8.48349953      20.01180458
O       24.81085587       7.94901514      20.19342041
H       27.62104034       7.51796341      21.31340981
H       27.79036903       7.09198761      19.58393097
H       26.23605156       8.78060722      18.95736885
H       26.24951935       9.37452888      20.64701080
O       33.69973373      10.94925690      21.88555336
C       34.83012772      10.57595444      21.69004059
O       35.71115494      10.31018543      22.69425774
C       36.95575333       9.87466240      22.11511612
C       36.74933243       9.94882298      20.59661102
O       35.37974167      10.38768768      20.47475815
H       37.76639175      10.53148460      22.46401596
H       37.18365479       8.85306454      22.45282364
H       36.87746048       9.00030804      20.05403900
H       37.40773773      10.69713020      20.12736702
O       15.53466415      24.60369682      37.55764008
C       16.42101479      24.08899689      36.94086456
O       17.02390862      22.89622879      37.26119614
C       17.99838066      22.55904198      36.24367523
C       17.67088318      23.54068756      35.08719635
O       16.92989540      24.56665993      35.76459122
H       19.01563454      22.69313240      36.64664841
H       17.84431839      21.51620483      35.92343903
H       17.04727364      23.06558800      34.30756760
H       18.56118202      23.96605110      34.59345245
O       17.84535789      13.64951324      10.00150681
C       17.29092598      13.38289833      11.03821468
O       16.33558846      14.14843273      11.65191936
C       15.82474422      13.50086498      12.84581852
C       16.76068306      12.28941631      13.00015354
O       17.53481102      12.26515293      11.77718925
H       15.86325073      14.19675064      13.69789124
H       14.76469612      13.23752975      12.68995190
H       16.19748306      11.35137367      13.09984970
H       17.40065956      12.38435173      13.88755035
O       24.68273735      22.61539078      28.19788361
C       24.94373322      23.75862694      28.47942543
O       25.70023155      24.16138268      29.53844643
C       25.73703766      25.60753250      29.61122513
C       25.17307854      26.03535271      28.24099731
O       24.57053375      24.82254791      27.71974182
H       25.13503647      25.96203995      30.46030235
H       26.77806854      25.92706108      29.74730492
H       25.94838333      26.39018059      27.53684616
H       24.35599899      26.76102448      28.30477142
O       20.28093338      29.23396111      30.51181221
C       19.55858612      28.44324684      29.96304893
O       19.98520279      27.37358856      29.21850777
C       18.85534668      26.57183075      28.83404732
C       17.63020897      27.36244774      29.32797623
O       18.19933510      28.51745415      29.98372269
H       18.85795975      26.44412041      27.73730278
H       18.92306137      25.58900833      29.32035637
H       17.00444984      26.81278038      30.04587746
H       16.99180794      27.72489548      28.50226974
O       10.17883205      10.30667591       9.56578445
C       10.81203461       9.60175514       8.81076908
O       11.52246857      10.02610397       7.72803402
C       12.08310604       8.90618801       7.01410770
C       11.80857372       7.71324635       7.94730139
O       10.91389561       8.26484871       8.94434929
H       11.60253048       8.80205822       6.02737427
H       13.16112423       9.07495499       6.85326195
H       12.73466873       7.35409021       8.42189884
H       11.32692623       6.86158562       7.43675566
O       20.17442703      26.05252838      12.60162258
C       20.99625969      25.46186066      13.25130367
O       21.76974678      24.46019936      12.76746082
C       22.42667198      23.78455162      13.86564541
C       22.09849930      24.65365219      15.07904720
O       21.23386192      25.69961929      14.57410431
H       22.03843498      22.74987411      13.90459824
H       23.50550652      23.73155785      13.63814926
H       22.99915886      25.11160851      15.51560593
H       21.55712318      24.13317680      15.88780308
O       23.32719421      11.47769547      29.25855255
C       23.80589485      12.50362301      28.82654762
O       24.97760963      13.01206684      29.29454041
C       25.23643684      14.27373695      28.63480186
C       24.15373611      14.36783504      27.54811478
O       23.30391693      13.22351646      27.80275154
H       25.18881226      15.08681679      29.37420654
H       26.25616837      14.24382210      28.21029282
H       24.56473351      14.29191017      26.52839279
H       23.57455826      15.29629326      27.61556053
O       15.90410233      10.99314880      15.46423340
C       16.70704842      10.18112373      15.85503197
O       18.00530624      10.10880947      15.43276310
C       18.71545982       9.10300732      16.17764664
C       17.59251022       8.33888149      16.89676666
O       16.43839836       9.19077110      16.73635864
H       19.30694580       8.48627853      15.48047733
H       19.40844345       9.57707787      16.88445091
H       17.81984520       8.18121910      17.95656013
H       17.37942123       7.35902214      16.43657684
O       20.13637352      11.31989002      17.90146828
C       19.62161255      11.41470051      18.99189568
O       18.34954643      11.82318592      19.20173645
C       18.06882858      11.89558220      20.61293221
C       19.28902817      11.20643997      21.25067711
O       20.24476433      11.13461113      20.17035675
H       17.95509148      12.94232273      20.92609978
H       17.12167931      11.37503242      20.81098747
H       19.05261230      10.18699169      21.59554863
H       19.71656990      11.77456760      22.08897781
O        0.72874475      19.76337242      12.95492840
C        1.94042194      19.71262741      12.77495956
O        2.60479832      18.60008812      12.43151188
C        4.03090382      18.86225319      12.40785503
C        4.13397503      20.37195206      12.70648670
O        2.75261545      20.76837921      12.93151474
H        4.53675985      18.26387215      13.17521572
H        4.44537210      18.56880760      11.42858315
H        4.54543400      20.91400528      11.83971596
H        4.72979259      20.59237862      13.60169697
O       34.90028000       4.76784468       9.69621754
C       34.54318237       5.86033058      10.10378075
O       33.30083466       6.10928774      10.58082485
C       33.20878601       7.47480822      11.00958920
C       34.60005188       8.06347466      10.70605469
O       35.36907196       6.93561363      10.25326252
H       32.37049484       7.94516087      10.47023010
H       32.97812271       7.53702736      12.08127785
H       35.05546951       8.50885868      11.60017300
H       34.57102203       8.82399082       9.90478802
O       12.98965740      27.18797684      29.87489319
C       13.22475052      28.31205177      29.50181007
O       12.61276054      28.87849236      28.42176628
C       13.08868790      30.25810814      28.23774338
C       14.16388607      30.41757393      29.33307648
O       14.12124157      29.15204239      30.06525993
H       13.49031830      30.32583237      27.20984840
H       12.24027443      30.94085121      28.38713837
H       13.95702267      31.22176743      30.05284309
H       15.17765617      30.54346466      28.91718483
O       19.36910248      33.35833740       7.39053869
C       20.55481529      33.13692856       7.44458961
O       21.11721611      31.90988159       7.46771860
C       22.50078011      32.01436234       7.86080217
C       22.81972122      33.49640274       7.63260031
O       21.52400398      34.10247803       7.41950226
H       22.64091301      31.70173836       8.90434456
H       23.09896278      31.30615234       7.26849651
H       23.44054413      33.66946411       6.73365498
H       23.31644249      33.97248459       8.48884487
O       34.09260178      26.44185829      17.53676796
C       33.16194534      27.17465973      17.80036163
O       31.86049080      26.82333565      17.63344002
C       31.03113365      27.89133644      18.14932442
C       31.98095894      29.09120750      18.12304497
O       33.27827454      28.45849991      18.26053810
H       30.13543892      28.00181389      17.52197075
H       30.67190552      27.65829849      19.16443825
H       31.81672096      29.81548691      18.92832947
H       31.92646980      29.59799957      17.14364624
O       25.14159584      22.61758041      11.06169605
C       24.98879623      21.83255196      10.15020657
O       23.83947372      21.14503860       9.92322922
C       23.95145226      20.40424347       8.68559647
C       25.36854172      20.71869278       8.15644455
O       25.90662003      21.60206413       9.16219425
H       23.80010986      19.33608818       8.89006424
H       23.17862701      20.74838066       7.97517252
H       25.31181526      21.23480606       7.17974949
H       26.01700401      19.83626366       8.05453968
O       18.77356911      22.84592056      30.98205757
C       19.03036118      21.77691078      31.47830200
O       18.87798500      21.49723816      32.80101776
C       19.16775131      20.09872055      33.02808380
C       19.47990036      19.53001022      31.62825775
O       19.42952156      20.69128418      30.77350616
H       20.01449394      20.02833557      33.72027588
H       18.27051353      19.64555740      33.48387527
H       18.73634338      18.80036926      31.27692413
H       20.46718597      19.05982399      31.53773308
O        9.74979305      15.61364174      13.16186523
C        9.12024689      14.81831074      12.51359653
O        7.75401115      14.69474220      12.56094837
C        7.33965635      13.51831341      11.81619453
C        8.63294506      13.00830746      11.14770603
O        9.65950584      13.86648369      11.69073963
H        6.90584803      12.80042362      12.53207779
H        6.57389593      13.81537819      11.07959557
H        8.61149120      13.09755993      10.04665852
H        8.88265228      11.96933556      11.40295601
O       24.28385353      24.25699806      33.79818344
C       23.86889076      23.81623268      32.74143219
O       23.27502060      24.53555489      31.76049232
C       22.73365211      23.67605972      30.73978996
C       23.39302063      22.32524872      31.05089760
O       23.92731094      22.49000931      32.38956070
H       21.63393593      23.66397476      30.81914711
H       23.00734901      24.04259109      29.73279190
H       24.19351006      22.05198479      30.34122467
H       22.66712952      21.49946785      31.02253914
O        5.12066746       4.83004618      32.21707916
C        5.37623024       3.65811014      32.02877045
O        5.08260298       2.67013526      32.90074921
C        5.61415672       1.42237532      32.41996002
C        6.22847509       1.74974811      31.03398895
O        5.96247387       3.15735602      30.90309143
H        6.37455988       1.05293179      33.12138367
H        4.78505325       0.70119083      32.32624435
H        5.72925091       1.20721090      30.21254539
H        7.30875492       1.56280732      31.00743866
O       21.62421417      18.22438622      18.57655334
C       21.36681747      18.36091232      19.73857498
O       21.80227089      17.55186653      20.74897003
C       21.24490547      17.98734474      22.01280594
C       20.44666290      19.26610756      21.68245697
O       20.59431076      19.38190842      20.25011635
H       20.58526993      17.20616913      22.41662788
H       22.03698158      18.17629433      22.75596428
H       20.84107590      20.15976524      22.18971443
H       19.37436295      19.18096733      21.92578125
O       20.70814705      30.66740608      33.85509109
C       21.88630104      30.79876709      33.64548492
O       22.84329605      29.91862106      34.06047440
C       24.14935112      30.38226509      33.66826248
C       23.86668015      31.65527725      32.84521103
O       22.44473648      31.85699844      32.98447800
H       24.74147606      30.62828064      34.56403732
H       24.65546227      29.58826828      33.10151291
H       24.12751961      31.56017876      31.77997589
H       24.39716721      32.52801132      33.25416183
O       22.30767822       7.36400795      26.77723694
C       21.41596794       6.74961281      26.21874046
O       21.61174583       5.68417692      25.40217972
C       20.34836769       5.21422052      24.85087585
C       19.29788208       6.08757544      25.57031059
O       20.10051537       7.08879232      26.27017593
H       20.34528160       5.35036659      23.75845528
H       20.24441147       4.14433908      25.07273483
H       18.70578766       5.54694843      26.32194710
H       18.61588478       6.59394026      24.87192154
O       10.66571522      20.10269356       3.20810914
C       10.47479057      19.54466248       4.25687265
O       11.28414631      19.59073067       5.35390091
C       10.64475727      18.90776825       6.47656250
C        9.19700718      18.79922104       5.96680403
O        9.35163689      18.82047844       4.52415895
H       11.14633751      17.94642258       6.65107536
H       10.73441696      19.50579071       7.39769316
H        8.57748318      19.65989685       6.28379822
H        8.65651131      17.88493156       6.24885082
O       20.64770126      17.10772705       6.26521397
C       20.16904449      16.00827789       6.17838621
O       20.88917160      14.86799049       6.52576780
C       20.09532356      13.70628262       6.15587902
C       18.68336678      14.28909874       6.15653658
O       18.94438171      15.65388966       5.74732304
H       20.38126373      13.36929893       5.14817572
H       20.26801109      12.93255329       6.91689301
H       18.23868942      14.28741932       7.16249084
H       17.99135780      13.84284973       5.42827368
O        7.79424477      31.95060539      18.05480766
C        8.84939003      32.45766830      17.80158997
O        9.77032948      31.97934914      16.92556000
C       10.96359444      32.79506683      16.99691582
C       10.49355125      34.04664230      17.75680161
O        9.25399780      33.63856125      18.37754059
H       11.75118542      32.25211334      17.53702164
H       11.32465553      32.98440933      15.96952534
H       10.27619076      34.88813782      17.06829453
H       11.18378639      34.36375427      18.55034447
O        5.56855965      17.59015656      33.79711533
C        6.34031916      17.54539871      32.86430359
O        6.11148357      16.75657845      31.77316093
C        7.14391756      16.94567871      30.77491188
C        7.95909643      18.10347366      31.36393929
O        7.45520878      18.28585434      32.71121597
H        7.71142244      16.01393890      30.65810776
H        6.66836452      17.18115997      29.81025696
H        7.78398991      19.02661133      30.78959274
H        9.03078938      17.86812592      31.38969994
O       31.21498680      13.79914665      35.08211517
C       30.54275703      14.79793549      35.05071640
O       30.96011925      16.00573158      34.54079437
C       29.91102028      16.98368263      34.71713638
C       28.74959946      16.18489456      35.33258438
O       29.27646828      14.86831379      35.53134155
H       30.24903870      17.78240013      35.39155579
H       29.67812157      17.40916634      33.72800827
H       27.86309814      16.14416695      34.67833710
H       28.43316269      16.60907555      36.29343033
O       17.39980507       1.85479975      15.16502571
C       18.43998718       1.62724316      14.59073067
O       19.17794609       2.56429434      13.95262814
C       20.43654060       1.99082303      13.50880527
C       20.30798721       0.50616342      13.86142254
O       18.98482513       0.40185305      14.44173336
H       20.52685356       2.15731263      12.42513943
H       21.25760651       2.48614454      14.04271317
H       21.05418396       0.20472209      14.60895061
H       20.38300133      -0.14920381      12.97668552
O       32.94088364      30.52367783      28.85453224
C       33.16510773      31.68445206      28.64467239
O       34.37319183      32.19466019      28.28379631
C       34.30734253      33.63687134      28.32829475
C       32.77042389      33.93217087      28.39418793
O       32.22679520      32.65832901      28.75585747
H       34.83345413      34.00131607      29.22463417
H       34.75907898      34.06122971      27.40999031
H       32.37040710      34.25499344      27.41703415
H       32.51609039      34.66023636      29.17667580
O       23.82218552      19.17475319      29.94915199
C       24.95616722      18.77799225      29.84337044
O       25.52658081      17.84326744      30.65270805
C       26.95055199      17.78231049      30.38367462
C       27.05812263      18.39351273      28.98530769
O       25.82985306      19.14387703      28.87852097
H       27.50807762      18.35062218      31.14122200
H       27.25251007      16.72739983      30.38798141
H       27.08547783      17.64021873      28.17861557
H       27.91836166      19.07170486      28.89295959
O       23.76839447      14.21508503       6.07574606
C       24.20987129      15.30824280       6.31900930
O       23.59888268      16.25184250       7.06740761
C       24.45067024      17.39345169       7.24125910
C       25.76566505      16.95171165       6.59628153
O       25.41241646      15.76526356       5.84643936
H       23.98840904      18.26478004       6.74785042
H       24.53792953      17.58857155       8.31720161
H       26.50624466      16.67179871       7.35561657
H       26.19951057      17.67175484       5.88634634
O       11.19526005      14.51495361      21.01084900
C       10.01991177      14.45477581      20.71430016
O        9.31664753      13.29490376      20.57487106
C        7.92858648      13.57816982      20.22797585
C        7.84572744      15.11544132      20.21300316
O        9.22540188      15.52276039      20.46095276
H        7.69740820      13.11624146      19.25417328
H        7.26734686      13.15159416      20.99306297
H        7.19846392      15.52309132      21.00187492
H        7.51794815      15.49843979      19.23608208
O       19.32209206      37.32126999       3.95870972
C       19.31354713      36.11530304       3.98922563
O       20.43150902      35.32224655       4.02784157
C       20.06298256      33.93654633       4.06607723
C       18.51966095      33.96668625       4.10796356
O       18.19092751      35.36368942       3.98551655
H       20.46684837      33.39456177       3.19187713
H       20.47033691      33.47657394       4.98028851
H       18.12339020      33.59090424       5.06171656
H       18.05519295      33.40534973       3.28241730
O        5.24323225       5.59659004      19.51955795
C        4.40154696       6.38978004      19.16509056
O        3.69851685       6.31939745      18.00833702
C        2.62804437       7.32057714      18.00877571
C        2.78704357       8.00893688      19.39156914
O        3.99735546       7.43962765      19.93643570
H        2.80151653       8.02235794      17.17293549
H        1.65865791       6.81849480      17.88877487
H        1.94789708       7.81098175      20.07402039
H        2.91929269       9.09675694      19.29596329
O        0.62683183      24.75593376       3.87322092
C        0.97070169      25.55771637       3.05730653
O        0.38998657      25.72377777       1.82856154
C        1.19437563      26.61901855       1.03621674
C        2.21928835      27.19824791       2.06306720
O        2.03881431      26.39196014       3.24882507
H        1.66928601      26.08221054       0.20247455
H        0.55955118      27.42178345       0.62836403
H        2.01636410      28.24799347       2.33474374
H        3.24803710      27.09837914       1.68605018
O       28.94123650      21.00320244      29.50798416
C       30.10282516      21.33128929      29.50037384
O       30.54093742      22.56656837      29.87006187
C       31.96065903      22.65533066      29.62736320
C       32.37614059      21.20609283      29.36191940
O       31.12192726      20.53898239      29.06882477
H       32.15077591      23.31020546      28.75561714
H       32.46223831      23.06828499      30.50615120
H       32.84474945      20.76480484      30.25121307
H       33.04563522      21.07224083      28.49651527
O        1.73802507      23.55813789      36.16947937
C        1.90702057      23.03460312      35.08840179
O        2.68898273      23.55474472      34.10731506
C        2.72692108      22.67220116      32.96564102
C        1.79548109      21.51492119      33.36731720
O        1.34502041      21.87086487      34.69363022
H        2.41480589      23.21870995      32.05905151
H        3.74512863      22.30927086      32.78495026
H        2.31004119      20.54557991      33.38180161
H        0.92414606      21.43231010      32.70048523
O       36.63050079      16.01332283      25.87521362
C       36.32654572      14.87247181      26.13473701
O       36.54668427      13.80827236      25.30142593
C       36.01531601      12.59267044      25.90308189
C       35.68326950      13.04445267      27.33894730
O       35.73239517      14.48894119      27.28964043
H       35.12388992      12.28363037      25.32929802
H       36.77600479      11.79914570      25.83983612
H       36.40362930      12.69224548      28.08965302
H       34.68024826      12.72352314      27.65688324
O        8.98363209      12.99483013       4.33775711
C        8.19565392      13.89125919       4.16866446
O        8.42697620      15.20485115       4.45353031
C        7.26102972      15.99703884       4.17097521
C        6.17031097      14.96042061       3.80170703
O        6.89848661      13.70879745       3.77304101
H        7.00893259      16.57737160       5.07489920
H        7.45634890      16.67843628       3.32230568
H        5.71302176      15.13807297       2.81484652
H        5.37010145      14.92996597       4.55878067
O       30.47664070      10.28046131      30.32160950
C       29.88157082      11.33869267      30.19809914
O       28.57119370      11.46805668      30.46969986
C       28.13492966      12.81894207      30.21069717
C       29.47203636      13.58449841      30.12855339
O       30.43309784      12.52684689      29.83853912
H       27.56969833      12.83489609      29.26313019
H       27.48948288      13.14892483      31.03397560
H       29.74305344      14.08435631      31.06890106
H       29.47492218      14.29933357      29.28811073
O       22.38896942       1.27674127      33.41521454
C       21.70122719       2.24416971      33.60890198
O       21.40804100       2.78051376      34.82343674
C       20.35482216       3.73784518      34.68143082
C       20.41813087       4.10057402      33.18607712
O       21.06564713       2.93623805      32.61870193
H       19.39527702       3.27306962      34.94873047
H       20.54609871       4.58367872      35.35412979
H       21.06526184       4.98745728      33.02211761
H       19.45100594       4.23189402      32.67895126
O       15.42843246      29.34071350       6.60726547
C       16.56982994      29.49715805       6.27231359
O       17.01317024      30.59459114       5.58771181
C       18.45018959      30.56167221       5.47002172
C       18.84770012      29.24074364       6.13985682
O       17.59354591      28.62902451       6.48275185
H       18.72319603      30.60731316       4.39986706
H       18.86230278      31.42128563       6.01768541
H       19.44190025      29.42734909       7.04576206
H       19.42614365      28.57493019       5.48114300
C       19.04116631       7.27882719      12.47566700
C       19.28211403       5.80945778      12.85616493
C       19.25078392       5.55786991      14.38354111
O       20.58153534       5.08340502      14.71084976
C       21.32919502       4.96941280      13.57402802
O       22.44029808       4.49380350      13.54497623
O       20.66065407       5.45240593      12.49829769
H       19.77775574       7.91148186      12.98155594
H       18.04306984       7.61459970      12.78830433
H       19.12136841       7.41355085      11.38608074
H       18.61088371       5.13188457      12.30345345
H       18.50892639       4.79427242      14.66053009
H       19.05471039       6.46512127      14.97081566
C        2.89001703      15.40375996      26.07765961
C        2.15654969      15.49391079      24.73261070
C        2.83909631      14.77558517      23.54785156
O        3.03036547      15.80670261      22.55555153
C        2.57656002      16.99470901      23.04833603
O        2.60901332      18.03224754      22.43411064
O        2.10440087      16.87283897      24.31063843
H        3.83649230      15.96239758      26.02848625
H        3.08444595      14.34626293      26.29462624
H        2.29033113      15.81411743      26.89862061
H        1.11727607      15.15324020      24.85467529
H        2.21580958      13.98092175      23.10703659
H        3.81253576      14.33593559      23.80935669
C       35.34945679       6.23468494      15.46747780
C       35.23575974       7.13863420      14.22795963
C       36.42450714       8.11782646      14.05881786
O       35.78049088       9.36812973      13.75502968
C       34.42739487       9.28991127      13.95063972
O       33.64440918      10.18279839      13.77056885
O       34.10342407       8.03097725      14.38453102
H       35.92420959       6.70330906      16.27294350
H       35.82543182       5.28200579      15.20136642
H       34.33906174       6.02143431      15.84621143
H       35.06451416       6.55864620      13.30314541
H       37.07763290       7.82186747      13.22174549
H       37.01374435       8.24128246      14.98144436
C       30.83941078      32.80632782      15.88713837
C       31.88788033      33.36903000      16.85700798
C       31.56721497      34.73456192      17.51073074
O       32.80052567      35.47792816      17.39564705
C       33.64878464      34.82706833      16.54475784
O       34.73338318      35.24262619      16.22179985
O       33.12169266      33.64756775      16.13624954
H       30.82795143      33.38595581      14.95687771
H       29.85377502      32.81035995      16.36690331
H       31.08575821      31.76395035      15.65146542
H       32.09852600      32.62621307      17.64306450
H       31.30736160      34.66241074      18.57572174
H       30.75123978      35.26591110      16.99292374
C        4.61874771       1.69255555       5.20164394
C        4.95506811       2.17931771       3.77312922
C        6.30140829       2.94589400       3.70366859
O        5.98439312       4.07807970       2.88060331
C        4.63263083       4.26607370       2.87455249
O        4.05549669       5.25591755       2.47319269
O        4.00265598       3.17444015       3.36660576
H        5.10481834       2.30559635       5.97086811
H        4.96294260       0.65864021       5.32696676
H        3.52598834       1.71100223       5.34192562
H        4.93037653       1.34469247       3.05263138
H        7.10354662       2.35175633       3.24251485
H        6.66848707       3.28022742       4.68273830
C       25.92955017      35.79067230       3.56382418
C       24.51988029      35.60803223       2.98539329
C       24.44130898      34.81207657       1.65446889
O       23.53855324      35.58505249       0.84324998
C       23.27416992      36.77150726       1.45356667
O       22.52884293      37.61400223       1.01228154
O       23.93884659      36.87124634       2.63552475
H       26.58690453      36.27125931       2.82755256
H       26.33716965      34.80244064       3.81867695
H       25.89930344      36.39883423       4.48034143
H       23.88868332      35.13765335       3.76091337
H       24.00014114      33.81593323       1.79073274
H       25.41338158      34.71300125       1.14360034
C       33.11486816       3.18875313      35.07418442
C       34.35823822       3.18988872      34.17933273
C       35.61806488       3.76965570      34.87187195
O       35.91134262       4.95595026      34.12712479
C       34.98091507       5.16152239      33.15047836
O       34.93449783       6.13527727      32.44733429
O       34.10377502       4.12910843      33.09892654
H       33.04170609       4.13837147      35.61105347
H       33.10588074       2.37047601      35.79761887
H       32.23438263       3.10718417      34.43578720
H       34.56126785       2.20375109      33.72570419
H       36.47848511       3.08599615      34.80599213
H       35.44558334       4.01763105      35.93567657
C       21.40091515      27.00467300      36.71274567
C       20.70898247      26.21862793      35.58391571
C       21.35054016      24.89365578      35.13607788
O       21.06572151      24.85235786      33.73156738
C       20.73997498      26.11035347      33.30187988
O       20.44337273      26.40074539      32.17422485
O       20.75203514      26.96433258      34.36440277
H       22.47464180      27.10791588      36.52255249
H       21.23048592      26.53591919      37.69038010
H       20.97106171      28.01403046      36.77284241
H       19.64154625      26.05969048      35.84542847
H       20.85459518      24.03096390      35.60638809
H       22.44081116      24.85739136      35.29766846
C       18.60006523      17.32455826      12.96562576
C       19.28038406      17.83855629      14.24794197
C       18.54324150      18.87316704      15.11619568
O       19.56735992      19.82532692      15.51354790
C       20.62207603      19.68580055      14.66599655
O       21.57239723      20.44562531      14.63950157
O       20.49587822      18.59138870      13.87874794
H       18.28715134      18.12075233      12.27689075
H       17.73064804      16.70136261      13.21411133
H       19.28702545      16.66695786      12.40574646
H       19.60227203      16.99453545      14.88363743
H       18.10253906      18.48604202      16.04398537
H       17.76035500      19.39408875      14.54189873
C       24.87333107       5.65228605      11.26958752
C       25.30976677       6.99118900      10.68740749
C       26.83825302       7.14168024      10.58449078
O       27.01692963       8.52471828      10.89114761
C       26.01485825       8.88586807      11.75125790
O       26.07234192       9.81535816      12.51778984
O       24.93613815       8.05034542      11.60986137
H       25.42373276       5.45744324      12.19893932
H       25.07782173       4.84366894      10.55684280
H       23.80027008       5.66668701      11.51130772
H       24.83216095       7.17331219       9.70160198
H       27.24835777       6.90483236       9.59081554
H       27.36711502       6.54053688      11.34074402
C       23.38669777      13.05138016      17.70692825
C       23.05699730      12.40929127      16.36654472
C       23.04310989      10.88649654      16.29963493
O       23.48063660      10.59265423      14.95295143
C       24.03259087      11.72878933      14.42854023
O       24.39902878      11.86265278      13.29173470
O       24.08270454      12.70544243      15.38342762
H       24.25596046      12.56179428      18.15673828
H       22.51298141      12.90998554      18.35778236
H       23.58119583      14.12686634      17.62033844
H       22.09127045      12.79633617      15.98008823
H       22.03252983      10.48170853      16.45686340
H       23.74803352      10.46438503      17.03422737
C       10.61882114       1.21483266      10.70002556
C       10.48822308       2.52738762      11.50722980
C        9.08103657       2.81740665      12.08732986
O        8.81202793       4.17112207      11.69880676
C        9.75853252       4.60516882      10.82222462
O        9.78274441       5.71070862      10.34410286
O       10.72262573       3.64587021      10.64221096
H        9.92702866       1.20603979       9.84873581
H       10.39815140       0.36077741      11.34732151
H       11.62901306       1.09662676      10.28844166
H       11.23135471       2.53620672      12.32235622
H        9.04026985       2.74635339      13.18533993
H        8.31482124       2.14961505      11.65116405
C       35.24306107       5.14846230      22.49178886
C       33.76994705       5.14302540      22.92490768
C       33.40357971       4.02207851      23.91296196
O       32.12898254       3.54865670      23.41872978
C       31.90102577       4.04288769      22.17953110
O       30.91197968       3.81009364      21.51820755
O       32.92634201       4.84292936      21.79007339
H       35.54338455       4.20735693      22.01973915
H       35.87584305       5.31570435      23.37075043
H       35.38956833       5.95488787      21.76454926
H       33.47634506       6.12007475      23.33607674
H       33.29376984       4.37080956      24.94466782
H       34.14141464       3.21364427      23.86072350
C        3.67663789      14.74264717      36.76780701
C        4.08701944      16.08426285      36.17577362
C        3.83704758      17.36267090      37.00354385
O        3.35890841      18.29883957      36.03104782
C        3.05162454      17.67793655      34.86380005
O        2.61785483      18.19207191      33.86290741
O        3.31970859      16.33786392      34.97014236
H        2.62458491      14.73481655      37.08113480
H        4.32148600      14.53619766      37.63044357
H        3.83163548      13.95354462      36.01877594
H        5.14936399      16.02342224      35.88819504
H        4.76093006      17.75090027      37.45240402
H        3.07576823      17.24687004      37.79373169
C       15.64370346       7.14470243       6.35418081
C       15.40329266       5.68993807       5.91305351
C       14.66847706       5.44719553       4.56884193
O       14.01357746       4.17984247       4.82097578
C       13.90817833       4.02654171       6.18005514
O       13.37700081       3.08656955       6.71787357
O       14.48454285       5.07290411       6.84809971
H       14.73456955       7.74028635       6.21532583
H       16.43215561       7.58828354       5.73448563
H       15.95362377       7.20816374       7.40496588
H       16.33606911       5.10391617       5.92971230
H       15.34166050       5.32749939       3.71009946
H       13.93044949       6.24020147       4.36001968
C        8.85636234       6.97575855      32.17627335
C        9.39800739       5.60064554      32.58762741
C        9.19684029       4.45334339      31.56943893
O        8.56719112       3.42591953      32.37071609
C        8.30749226       3.87368536      33.62133789
O        7.77423668       3.21661496      34.50136948
O        8.69337082       5.15538883      33.78095627
H        7.78664494       6.90488148      31.94226646
H        9.41182518       7.30612230      31.29132080
H        8.99527359       7.69289446      32.99362183
H       10.46476841       5.71798515      32.83671570
H       10.14631367       4.06106758      31.17749214
H        8.53560543       4.72388124      30.73389816
C       30.54553223      10.32810783      17.72910500
C       29.10930824      10.54720116      17.26479530
C       28.81208229      12.00024033      16.86646652
O       27.52953339      12.26696301      17.47808266
C       27.23603630      11.27265644      18.37413216
O       26.27127838      11.27759266      19.09338570
O       28.15623665      10.28398418      18.32507706
H       30.81875992      10.99024582      18.55347443
H       31.21238136      10.51770496      16.87652206
H       30.67166138       9.29234886      18.06703758
H       28.85321808       9.88231182      16.42202187
H       28.72824097      12.09235668      15.77795792
H       29.55532837      12.70711613      17.27150726
C       25.93305588       8.35080624      23.36571693
C       26.10930443       9.69780254      24.08159065
C       24.86080360      10.26619434      24.77222633
O       24.84366035      11.66417980      24.43783379
C       25.73249626      11.86152840      23.42117691
O       25.90028763      12.92381954      22.88032913
O       26.41418266      10.71964455      23.10528755
H       25.35793304       8.47746277      22.44256973
H       25.36599731       7.66678143      24.00417328
H       26.89806557       7.86548901      23.17937660
H       26.94714165       9.67390347      24.79403305
H       24.85520744      10.16187191      25.86398888
H       23.94712067       9.80213547      24.37951088
C        5.04275513      12.68086338      31.13635445
C        3.74621248      12.81357288      30.33563232
C        3.66336107      14.16951847      29.59879684
O        2.27717280      14.55585575      29.76639175
C        1.67147255      13.78298283      30.71597862
O        0.53261179      13.91974068      31.08592224
O        2.55044603      12.84093857      31.16884232
H        5.21559525      13.53050518      31.80949974
H        5.86719418      12.65525150      30.40800095
H        5.05663443      11.75880146      31.72970390
H        3.65267324      11.98659611      29.61461067
H        3.90202522      14.08512878      28.52983475
H        4.29764938      14.94144440      30.06058884
C       35.99701309      21.38120461      33.56478119
C       36.38446808      20.06636810      32.88485336
C       35.28203583      19.14674377      32.31482315
O       35.77666092      17.82279587      32.64761734
C       36.76831055      17.92619705      33.58338547
O       37.30762100      16.98055267      34.10928726
O       37.05868530      19.21779251      33.86720657
H       35.23057556      21.22488976      34.32711792
H       35.56674576      22.05638313      32.81883621
H       36.87199020      21.83661652      34.04310989
H       37.09235764      20.28050232      32.05522919
H       35.18464661      19.22247887      31.21824265
H       34.28795624      19.30873680      32.76225662
C       14.34604359      11.72330570       8.96468163
C       14.79072380      11.93691826       7.50199842
C       16.20647049      12.54366302       7.48575211
O       15.95026207      13.95050144       7.31680584
C       14.64574242      14.16552448       6.96717930
O       14.18040752      15.25083637       6.74308062
O       13.97900486      12.97240829       6.89496183
H       14.42323685      12.65773582       9.53245926
H       14.96585464      10.94402504       9.42580032
H       13.28939438      11.43292427       8.99613571
H       14.71104240      11.04779816       6.85184717
H       16.81713104      12.16667652       6.64235067
H       16.74388123      12.39404678       8.43294430
C       20.18010139      20.91306496      11.62985229
C       20.58461761      20.02049446      10.46794987
C       19.78206062      20.17443085       9.16548634
O       19.82949257      18.85156822       8.59246922
C       20.15781975      17.97859573       9.57428074
O       20.23710632      16.77356148       9.42771816
O       20.47634315      18.60724068      10.73852825
H       19.16563606      20.72262192      12.00397778
H       20.18226433      21.94314575      11.24619579
H       20.86619949      20.88598442      12.48834801
H       21.64641762      20.23105240      10.23698997
H       20.23027420      20.87628365       8.44273567
H       18.73457718      20.47137833       9.34148407
C        6.07158947      16.68707657      14.81867409
C        7.31522608      17.58133507      14.86755180
C        7.74985027      18.17356110      16.22174072
O        8.04884338      19.56869698      15.91978645
C        7.62450218      19.83808136      14.64833832
O        7.73243952      20.92654800      14.11734390
O        6.99682331      18.76860428      14.10231781
H        5.18869734      17.25285530      15.14937687
H        6.20684910      15.81798267      15.47457695
H        5.89754868      16.33407402      13.79006004
H        8.16739559      17.07099915      14.37675762
H        8.66132450      17.69070625      16.60343742
H        6.98881197      18.13405991      17.01658440
C       27.60533524      17.49283409       9.78225803
C       28.79787064      17.52133942       8.81169605
C       29.68551445      16.26048851       8.89696217
O       30.98498344      16.73784637       9.31212234
C       30.95941544      18.10788345       9.42406082
O       31.93062592      18.76780128       9.66435909
O       29.70562935      18.58639717       9.19552612
H       27.96478271      17.25654793      10.78544521
H       26.88748360      16.71280861       9.48025703
H       27.08055878      18.45719147       9.82461262
H       28.47480392      17.69920158       7.76945829
H       29.77490807      15.72140980       7.92899370
H       29.28614044      15.55996513       9.64683723
C       27.73719597      30.30801392      27.24987602
C       27.89015007      31.67908096      26.59539795
C       28.88471603      32.60038376      27.33101082
O       28.29074860      33.90489960      27.17985344
C       27.00446129      33.77651978      26.71898079
O       26.26735687      34.70710754      26.47812080
O       26.67293739      32.46989822      26.60404015
H       27.44511223      30.36558533      28.30609131
H       28.71223450      29.79971504      27.23141479
H       27.01492691      29.66947937      26.71807671
H       28.17388725      31.57069969      25.53467941
H       29.87937164      32.58140564      26.85935020
H       28.99731255      32.36000443      28.39809608
C       13.41325378       8.50972843      21.82565308
C       14.32492447       9.02310085      20.70016289
C       13.77715015      10.31261158      20.03505707
O       13.37863445       9.86013889      18.73334694
C       13.73813152       8.56404209      18.51127052
O       13.47135544       7.92209625      17.53337479
O       14.39588642       8.08612919      19.60802078
H       12.35202217       8.67212486      21.57943535
H       13.63797855       9.01115799      22.77825928
H       13.57893467       7.43467474      21.94538307
H       15.35505009       9.14610672      21.07498932
H       14.54330158      11.09895134      19.94361877
H       12.89025021      10.72034454      20.55023003
C       24.04445076      25.57254219      18.45329666
C       25.07222939      26.39437294      17.67537689
C       26.03822517      25.60588837      16.76645279
O       27.36521721      25.97773361      17.22844887
C       27.25153542      26.72758102      18.36229897
O       28.19772530      27.12505531      18.99916267
O       25.96629906      27.04248428      18.64196587
H       24.54359818      24.76719475      18.99935341
H       23.30648804      25.14641762      17.76210785
H       23.51593399      26.20289040      19.17716217
H       24.56341362      27.20080948      17.10939980
H       25.95893097      25.84310532      15.69075775
H       25.93082428      24.51910782      16.85194206
C       11.85829639      17.54767418       1.23849821
C       13.21504116      18.24828720       1.34706247
C       14.45573616      17.37898636       1.02797091
O       15.33007622      17.58325577       2.16775775
C       14.64713478      18.23787689       3.15954065
O       15.08351517      18.43634987       4.26998806
O       13.40999699      18.60597801       2.74977088
H       11.78372765      16.77648163       2.01540136
H       11.70476341      17.10677719       0.24545242
H       11.07029533      18.28965187       1.40644133
H       13.21438694      19.17261124       0.74266714
H       14.97433853      17.71085358       0.11189284
H       14.22292995      16.30797195       0.95521170
C       29.09284782       4.52334547      19.19724083
C       27.95454216       4.28314018      18.19494629
C       27.54934502       5.50674963      17.33264732
O       26.13451958       5.67192173      17.61861229
C       25.68912125       4.68166256      18.44591331
O       24.52942657       4.52005959      18.72646141
O       26.72080994       3.88054013      18.83689117
H       28.94121170       5.37843847      19.86134720
H       30.02059937       4.67668200      18.63274384
H       29.23935509       3.65157819      19.84267807
H       28.25092888       3.47081351      17.51818657
H       27.66356468       5.33067608      16.24864578
H       28.07971382       6.42954206      17.61074257
C        4.68927336      27.41324425      29.67088699
C        5.22100067      27.74032593      28.26940536
C        6.39292049      26.84786224      27.79821587
O        7.41543818      27.78853035      27.39247322
C        7.06580305      29.04331207      27.79719925
O        7.81056976      30.00549889      27.76508904
O        5.80530787      29.05971336      28.29146767
H        5.45904875      27.50358200      30.44240761
H        4.31700230      26.38137817      29.68112564
H        3.87088823      28.09117508      29.94885445
H        4.40993881      27.72973442      27.52269936
H        6.16079187      26.20106506      26.93317223
H        6.81113529      26.24889755      28.61899757
C       13.08582497      14.67404461       4.19695044
C       12.11921406      13.78613853       3.41526151
C       12.53263283      13.25755596       2.03525949
O       11.23236561      13.03200150       1.42586720
C       10.36133480      13.91625118       1.99815440
O        9.23845291      14.13384151       1.58631790
O       10.94205666      14.54145908       3.04801679
H       13.33344746      15.60156536       3.66477275
H       14.00763130      14.12052345       4.42371368
H       12.64454937      14.96237659       5.15902376
H       11.79406261      12.94468784       4.04935741
H       13.10928917      12.32634354       2.00804710
H       13.05878067      14.04532623       1.46526015
C       29.43350410      32.53448486      21.87399483
C       30.22563171      31.59318733      20.94735527
C       30.33131409      30.10830879      21.35762405
O       31.76288605      29.85538483      21.46734047
C       32.47560120      31.00197601      21.26791191
O       33.67417145      31.08592987      21.33154869
O       31.62938881      32.02892303      20.98311234
H       29.90819931      32.57801819      22.86090088
H       28.40315056      32.18308258      22.00610352
H       29.43210983      33.53149033      21.41729164
H       29.86812592      31.67790413      19.90778542
H       29.88161659      29.43539810      20.60884094
H       29.83535576      29.95005226      22.32246971
C       18.68725204      30.21047401      19.04378700
C       17.77187729      29.00356293      18.81007767
C       16.79845810      28.75472260      19.97896957
O       17.00371170      27.36092949      20.32210922
C       17.94054985      26.81759262      19.50577545
O       18.17430878      25.62906837      19.44579887
O       18.56307602      27.77239418      18.75790596
H       19.21396828      30.13150787      20.00156593
H       18.06454086      31.11743927      19.04767799
H       19.40074539      30.30342102      18.21663475
H       17.22812271      29.08567238      17.85272408
H       15.74846172      28.88521576      19.66572952
H       17.00383568      29.37348747      20.86441994
C        5.36330986      31.26494408      13.53533745
C        6.87213326      31.43689728      13.80284595
C        7.78329229      30.57249260      12.89840317
O        8.34854698      29.58967209      13.80530071
C        7.98796368      29.89335823      15.08499527
O        8.32668400      29.24851227      16.04140854
O        7.16333771      30.97003746      15.15085793
H        5.09029388      30.20789146      13.48146343
H        5.08699656      31.76292801      12.59751511
H        4.78681517      31.71230316      14.35225868
H        7.15725279      32.50138855      13.74491024
H        8.60156822      31.14209938      12.43545341
H        7.23001766      30.04886246      12.10429764
C       30.76852417      20.17860413      24.95037270
C       29.91292763      18.91602135      24.87536049
C       30.60796928      17.71569633      24.22057915
O       29.71327209      17.28657913      23.17175674
C       28.65438461      18.15329552      23.10931015
O       27.73426056      18.03900719      22.34265900
O       28.78992462      19.16993904      24.00074577
H       31.08166695      20.46265411      23.93572998
H       31.64085579      19.97744560      25.58850288
H       30.19909286      21.01583099      25.38419724
H       29.50580788      18.68633080      25.88011551
H       30.76808929      16.87265205      24.90318108
H       31.59086990      17.95716095      23.78747940
C        8.07236004      34.93130875      25.32127380
C        8.08630180      35.57545090      23.93201637
C        7.47987843      34.72782135      22.77372360
O        8.54870510      34.57239532      21.81190681
C        9.67208576      35.17505264      22.27750015
O       10.74185562      35.17628479      21.72217751
O        9.43947983      35.78161621      23.48702431
H        8.56061363      33.95393753      25.31181335
H        7.03308487      34.78916931      25.64969254
H        8.57025719      35.57435608      26.06139946
H        7.59603834      36.56488419      24.01050568
H        6.63837337      35.25774765      22.29421043
H        7.15228415      33.73432159      23.11115837
C       24.92461777      18.33727837      19.36912727
C       25.16932297      19.05464935      20.70689011
C       23.94066811      19.74742126      21.31603813
O       24.34498215      21.11587524      21.59443665
C       25.60433578      21.29674339      21.11646843
O       26.23453331      22.32002640      21.20831871
O       26.09186554      20.16525650      20.52128220
H       24.50353241      19.02234268      18.62444878
H       24.19283485      17.53444290      19.53849983
H       25.83309746      17.85415268      18.98256683
H       25.62336731      18.35053253      21.42151451
H       23.60625267      19.30602646      22.26423073
H       23.09454918      19.78568459      20.61095047
C       14.64509487       4.72619486      10.15975571
C       15.73852158       5.62753439      10.73499107
C       15.35408497       7.09571314      11.06599808
O       16.41974640       7.87021017      10.45531940
C       17.23875999       7.06914759       9.69296741
O       18.21073723       7.46963358       9.09274292
O       16.82140541       5.77948809       9.75244617
H       14.21266079       5.13235569       9.24214458
H       13.86256886       4.60057259      10.91641426
H       15.07268429       3.75055313       9.90194416
H       16.16583633       5.15568161      11.63631058
H       15.32108116       7.32157278      12.14498329
H       14.37767982       7.38401794      10.64245892
C       33.59333038      18.63407135      16.93707848
C       32.55803299      19.13220406      15.93684387
C       31.14564133      18.60732269      16.21183205
O       30.61173439      18.40861130      14.90009785
C       31.64924049      18.24481964      14.01796913
O       31.52037430      17.77882004      12.91398239
O       32.81959915      18.65627670      14.60021210
H       33.68896484      17.54156876      16.93413734
H       33.30187225      18.95376205      17.94888306
H       34.57685089      19.06992912      16.70042419
H       32.52659607      20.24013519      15.93798733
H       30.50328064      19.28838539      16.78381729
H       31.15393639      17.63457489      16.73493004
C       25.72915840      27.81905365      10.82075500
C       26.55340385      28.16615295       9.56969070
C       27.28449440      29.49952698       9.74188423
O       26.69676018      30.34055710       8.69995689
C       25.88483238      29.61092567       7.90868235
O       25.38748169      30.06873894       6.89970732
O       25.72742081      28.36899757       8.38395882
H       25.14097977      28.67697144      11.16964531
H       26.41394234      27.53108597      11.63184738
H       25.03595161      26.98829651      10.62881184
H       27.26152802      27.36083221       9.30622864
H       28.36133003      29.40144348       9.55380249
H       27.12982368      30.01651192      10.69956303
C       34.07923126      25.29288101      14.43031120
C       35.50462723      25.02138138      14.92783070
C       35.63906479      24.10172462      16.15059471
O       36.40781784      24.84658241      17.10996437
C       36.56820297      26.14157295      16.67927551
O       37.07907104      27.01809120      17.33117676
O       36.09705353      26.26451492      15.40499783
H       33.46972656      25.67618561      15.25486851
H       33.60799026      24.36770058      14.08130646
H       34.09481049      26.03324699      13.62216854
H       36.12632370      24.64966393      14.09536934
H       36.15853500      23.16386795      15.87966442
H       34.64782333      23.84548378      16.55595398
C        2.65325642      26.10266304      15.51108932
C        3.69078398      27.19166946      15.16327572
C        4.14386988      28.07979393      16.35142136
O        3.65150762      29.39209175      16.00010681
C        3.09385562      29.37946701      14.76910973
O        2.65298796      30.35192108      14.20396519
O        3.12576151      28.12681198      14.22041035
H        2.01029563      26.40375710      16.34698486
H        3.17289186      25.17297173      15.76709080
H        2.00058651      25.92536736      14.64322281
H        4.55939007      26.71899796      14.66262722
H        5.23713160      28.11108971      16.48671341
H        3.69849014      27.78701210      17.31095695
C       36.98315430      13.26044655       7.84001493
C       36.36473465      12.33488083       8.91127300
C       36.80941772      12.62468910      10.37250805
O       37.39837646      11.37697506      10.81654263
C       37.19606400      10.43301964       9.86123943
O       37.33028030       9.24930000      10.05495167
O       36.83316803      10.98635006       8.67425251
H       38.07332993      13.16849136       7.85132551
H       36.69763184      14.29732704       8.05964470
H       36.61680222      12.98081875       6.84362173
H       35.26385880      12.33940125       8.82441425
H       35.97373581      12.86370564      11.04081059
H       37.55771255      13.42732334      10.44642925
C       28.36656761      23.16570091      27.21626854
C       28.68659782      24.61277771      26.87321663
C       30.20069885      24.85346794      26.65917397
O       30.40314674      26.17335892      27.22757721
C       29.26989174      26.56311226      27.91837502
O       29.08119392      27.67215729      28.35438728
O       28.37312317      25.54622078      27.94956017
H       28.75282860      22.90494537      28.20485306
H       28.80638123      22.49238205      26.46358490
H       27.27810669      22.98064995      27.19489861
H       28.13801003      24.93827057      25.97263336
H       30.45144272      24.86642265      25.58485603
H       30.83028030      24.12335396      27.18513489
C       22.28766441      24.66312027       9.60991287
C       23.63962173      24.36110306       8.96086502
C       24.26056671      25.44656372       8.06797695
O       24.29785347      24.85480309       6.74094343
C       23.91938972      23.55392647       6.80195475
O       23.92383194      22.76092148       5.89122009
O       23.49039841      23.24950409       8.04504108
H       21.51687241      24.80967712       8.83978939
H       22.34217262      25.55235481      10.25390434
H       22.00430870      23.80911446      10.23909283
H       24.34811974      24.08482552       9.76024532
H       25.28884315      25.65694237       8.39355373
H       23.67948723      26.38137436       8.04243469
C        6.26639080       8.09556007      28.83608437
C        7.73977947       8.47592831      28.74091339
C        8.10020638       9.90057850      29.19963264
O        8.96856689      10.35140991      28.14289284
C        8.98171520       9.47771549      27.07896423
O        9.65659332       9.61435509      26.08554459
O        8.18148994       8.41625214      27.36237144
H        5.62860298       8.80343342      28.29295349
H        5.96095371       8.03659821      29.88901711
H        6.14436817       7.10170174      28.39398956
H        8.33411884       7.75214863      29.31722260
H        8.64910698       9.93807030      30.15443230
H        7.23769569      10.58386803      29.27685547
C       26.35705566      29.93975067      20.31669044
C       26.38201141      30.30637550      18.81396484
C       27.59453964      29.81176376      17.99741173
O       28.34528160      31.01631165      17.71604538
C       27.62690353      32.11050797      18.12834167
O       28.01985741      33.24971008      18.00584602
O       26.47468758      31.74781227      18.73450089
H       27.19325447      30.40393066      20.84710312
H       26.36107445      28.85141945      20.44386101
H       25.45103073      30.35376740      20.78194427
H       25.45737648      30.01486778      18.28245735
H       27.30361938      29.34544754      17.03742790
H       28.23648453      29.12038422      18.55173874
C       33.88653946      23.89733124      25.73291397
C       34.14862823      23.36190414      24.31732368
C       33.42313766      22.07383728      23.88664627
O       34.42360306      21.29803658      23.19218063
C       35.64715958      21.84613609      23.40326691
O       36.68143845      21.36323929      22.99345016
O       35.55854416      22.97877502      24.15999603
H       33.82320404      23.08650398      26.46914291
H       32.93407440      24.44498253      25.76396561
H       34.68468094      24.59607506      26.02140236
H       33.95925522      24.16376495      23.58577156
H       32.58847046      22.26425362      23.19171906
H       33.05241013      21.53123856      24.76702690
C       20.27568436      20.36643791      26.21252441
C       20.99215698      19.33152390      27.08530426
C       22.52565002      19.30730247      27.03229141
O       22.82836342      17.89935112      26.89931870
C       21.69873619      17.22651482      26.55128479
O       21.66629601      16.05008316      26.24759674
O       20.62652016      18.04725266      26.53673172
H       20.59546661      20.28053474      25.16910362
H       20.45986748      21.36773682      26.60965538
H       19.19945526      20.15229607      26.25315094
H       20.63478088      19.40966606      28.12359810
H       22.99949265      19.69767380      27.93913078
H       22.91900063      19.82149315      26.13788605
C       11.15769863      22.61245918       7.01928759
C       12.46729946      22.30173302       7.75068760
C       13.40994453      21.27053261       7.08331680
O       13.33883381      20.12997627       7.98144436
C       12.72571754      20.47137833       9.15235138
O       12.74850655      19.83533287      10.17326450
O       12.11521626      21.69346046       9.03876400
H       10.63094807      21.68084335       6.79090500
H       11.35891819      23.11587715       6.06456757
H       10.51220322      23.20480728       7.67748022
H       13.01180267      23.23451996       7.98587847
H       14.45408535      21.61888885       7.03074503
H       13.10608673      20.96400070       6.07182646
C       23.35941315      22.85617638      24.51797104
C       24.72729111      23.37085533      24.94584274
C       25.01897621      24.82316017      24.53997612
O       26.44239426      24.77466393      24.27294540
C       26.84704018      23.48098373      24.11217117
O       27.97133636      23.14199066      23.84877396
O       25.81123734      22.62769318      24.33060455
H       23.26852036      22.79027367      23.42915344
H       22.59045982      23.53305244      24.91672707
H       23.16966438      21.87617493      24.97385788
H       24.82177925      23.29251671      26.03740501
H       24.80494308      25.53349495      25.34918976
H       24.49624062      25.11002159      23.62098312
C       27.75964928       3.18549824      22.77166939
C       26.36196899       2.62024426      23.03412247
C       26.05034447       1.31323230      22.27515793
O       24.64853287       1.44198477      21.96920013
C       24.24668884       2.73148704      22.24342728
O       23.09161568       3.09112024      22.21783257
O       25.33040810       3.48121929      22.54296684
H       27.91671753       3.38449240      21.70478821
H       28.51099586       2.46429610      23.11862373
H       27.89758110       4.11293554      23.33118629
H       26.21174049       2.50953531      24.12581444
H       26.17649078       0.41562039      22.90197945
H       26.64331055       1.23316479      21.34139633
C       10.84416199      10.19315529       3.26683140
C        9.57998276       9.43561172       2.85649323
C        9.74065685       8.41578007       1.70037854
O        8.92969704       8.95577812       0.62918502
C        8.40225506      10.14534760       1.00921988
O        7.74997902      10.86831284       0.28587431
O        8.66874504      10.40661335       2.30350709
H       11.33264923      10.60200787       2.37518072
H       11.54860401       9.54253387       3.79749036
H       10.54450321      11.02956867       3.91349220
H        9.08750153       8.96920109       3.72293401
H        9.32178116       7.43635750       1.97084916
H       10.76937008       8.30446434       1.33107102
C       18.51581573      16.83126640      24.30219460
C       18.04996681      16.22509384      25.64175797
C       18.66502953      14.83331013      25.89700317
O       17.64707565      13.93971920      25.40528488
C       16.47205734      14.61243916      25.25416183
O       15.42082119      14.11488152      24.93237305
O       16.63996506      15.92597675      25.55653000
H       18.62832642      16.04139328      23.54779625
H       19.47312737      17.33644676      24.47451019
H       17.75209427      17.52418327      23.91655540
H       18.20036697      16.90370178      26.49317551
H       18.85316086      14.69924164      26.97208405
H       19.60908318      14.67666149      25.36059952
C       13.33924866      25.44223213      10.79398251
C       14.39385414      25.61047173       9.68886566
C       15.80986404      25.08267212       9.98974991
O       16.68767548      26.13890457       9.53967190
C       15.93884087      27.28831100       9.37654591
O       16.44898224      28.34604645       9.13455868
O       14.62156296      27.01864433       9.52383995
H       13.73569489      25.67774963      11.78629494
H       12.94716167      24.41787529      10.79582500
H       12.48116207      26.09857750      10.59577847
H       14.02642822      25.21512032       8.72360802
H       16.06318855      24.14960861       9.45379829
H       15.97128773      24.94288635      11.06808090
C       26.34375000      13.54544640      12.12062645
C       25.07659912      13.69333649      11.28767872
C       25.25374794      13.47658539       9.77688885
O       24.56096840      14.61996460       9.20238400
C       24.25461006      15.51195717      10.18610859
O       23.65977478      16.54414749       9.98234177
O       24.62523651      15.06521511      11.41102600
H       27.08130836      14.30062771      11.82103539
H       26.74904823      12.53146458      11.99797249
H       26.07871628      13.66210079      13.17832279
H       24.26209068      13.05157375      11.65104103
H       24.77351570      12.56328297       9.39127350
H       26.30494499      13.47446156       9.44677353
C        2.94018102      25.62970543       7.33623505
C        2.32360744      24.39415932       8.02191639
C        3.11961412      23.07474518       7.80643940
O        2.14476776      22.14498901       7.34590673
C        0.92234778      22.76972389       7.23398209
O       -0.09715414      22.20631218       6.97229052
O        1.03281856      24.11269760       7.46326017
H        3.23923683      25.40229988       6.30762482
H        3.80385470      25.97295380       7.92109919
H        2.20012927      26.43993950       7.28493595
H        2.19094920      24.61494827       9.09943771
H        3.57284570      22.70878410       8.74033260
H        3.92021179      23.20544052       7.05326128
C       13.64726639      36.35653305      18.67517090
C       13.93600464      36.76596069      17.22428894
C       12.85528374      36.44985580      16.17267609
O       13.41691208      35.37594986      15.39725780
C       14.73611069      35.22892761      15.70343113
O       15.48712158      34.48813629      15.11967373
O       15.09949207      36.06025696      16.73081589
H       13.12348652      35.39899826      18.72169304
H       13.03693295      37.12514114      19.17017174
H       14.58386993      36.27796555      19.23641014
H       14.16447639      37.84216690      17.18831825
H       12.63542652      37.31776810      15.52600193
H       11.92082405      36.10084534      16.63117218
C        4.01138020      15.34397697       7.76670456
C        3.27536535      16.69329834       7.72719860
C        2.03802896      16.85132790       8.63730717
O        1.10832870      17.57518196       7.81399250
C        1.47672105      17.45359230       6.50167990
O        0.81109887      17.79973412       5.56442976
O        2.72345138      16.88422775       6.41220617
H        3.39335847      14.55821991       7.31356096
H        4.26070213      15.08918571       8.80323505
H        4.95156097      15.39255810       7.20142031
H        3.99056244      17.50338745       7.95360851
H        2.23476458      17.42503929       9.55563641
H        1.59519470      15.87708187       8.90888977
C       15.85521698      12.90451145      32.29759979
C       15.68206978      12.40410995      33.73075485
C       15.62467670      13.49149990      34.83603287
O       16.45780182      12.94603634      35.88929749
C       17.25954247      11.99999809      35.35041046
O       18.19923210      11.48933411      35.93359375
O       16.87397003      11.65007591      34.10303497
H       16.72895813      13.55766582      32.22031784
H       14.94651127      13.45049572      32.01262283
H       15.97138023      12.05141640      31.61397552
H       14.80008793      11.74040794      33.78200531
H       14.62066936      13.64216232      35.25659180
H       16.04173660      14.45258427      34.49273682
C        3.67051458      28.70127678      34.92053986
C        4.25175858      29.83616066      34.07626724
C        5.73923063      29.65206909      33.66153336
O        6.44165325      30.55407906      34.58610535
C        5.57349634      31.18108368      35.39072800
O        5.83116961      31.88510513      36.37131500
O        4.29713535      30.99726295      34.97792053
H        4.30936003      28.54291534      35.80020905
H        3.58439922      27.77634430      34.33843613
H        2.67135024      29.00700760      35.27306366
H        3.61623812      30.06532669      33.20581055
H        5.93378162      29.94089699      32.61520004
H        6.11232138      28.63358688      33.83272552
C       33.12665558       1.92781186       9.79673290
C       31.80074501       1.84828877       9.01720142
C       31.22356987       3.27123761       8.77956581
O       29.83634567       3.14715981       9.15281487
C       29.63106918       1.95423138       9.76962757
O       28.57171440       1.59732211      10.23191452
O       30.76579094       1.21464932       9.78681278
H       32.97380066       2.37720180      10.78889656
H       33.80390930       2.60518289       9.25973511
H       33.59849167       0.94164538       9.90620041
H       31.94183159       1.29907620       8.06841183
H       31.29306602       3.57085490       7.72476387
H       31.71573639       4.03093958       9.40134811
C       23.56419945      31.79609489      24.09670639
C       22.42410278      32.41450882      23.27456284
C       22.61282921      33.93077469      22.99621582
O       21.40669823      34.54485703      23.52129745
C       20.62855911      33.61319733      24.13620758
O       19.57409477      33.85916138      24.68548012
O       21.17733574      32.39324951      24.03193283
H       23.74867821      32.36471176      25.01747894
H       24.49292946      31.75634956      23.51068687
H       23.28777885      30.77224922      24.38464737
H       22.27687645      31.85436249      22.33118820
H       22.70753479      34.11803436      21.91397095
H       23.48782158      34.33243561      23.52630997
C       10.03990555      35.40470123      35.28765488
C        9.30437469      35.65605545      33.97064972
C        8.21325111      34.63049698      33.61698151
O        8.47376728      34.26412964      32.25395203
C        9.67645454      34.76282883      31.85991669
O       10.18699551      34.54024124      30.78611183
O       10.20173454      35.53649139      32.84722900
H       10.62740803      34.48526001      35.19906616
H        9.32286739      35.30559158      36.11484909
H       10.70026207      36.24570465      35.52487564
H        8.88880920      36.68088531      33.97822571
H        7.20512724      35.06283569      33.70101929
H        8.28789997      33.74516296      34.26633453
C       25.03409004      28.54836273      14.31783295
C       23.66071701      29.08292770      13.86753654
C       22.76069069      28.09081841      13.11077213
O       22.65382957      28.59888458      11.75865746
C       23.21707535      29.83296204      11.71132469
O       23.20953751      30.56084633      10.75433540
O       23.82690620      30.14147377      12.90058994
H       25.53406143      28.02362633      13.49638939
H       24.85670280      27.82151794      15.12140942
H       25.65241432      29.37575150      14.69410992
H       23.14092255      29.54234314      14.72371674
H       21.74390984      28.02111816      13.53521538
H       23.19983292      27.08017349      13.05765343
C        5.37879992      24.89145470      11.37579536
C        6.63359642      25.58544922      11.89346218
C        6.71399069      27.13052177      11.85063648
O        8.09262562      27.35007858      11.43497372
C        8.66639137      26.16756439      11.03444958
O        9.81654549      26.04619980      10.70520020
O        7.75062466      25.15139961      11.06698322
H        5.14454794      25.17644310      10.34447002
H        4.51828241      25.11000824      12.02323246
H        5.55899477      23.81314087      11.40566063
H        6.82607937      25.26694679      12.93034363
H        6.53838825      27.61712074      12.82268715
H        6.02866077      27.55619240      11.09213257
C       24.28966522      14.92456150      34.91842651
C       23.84264374      14.12656307      33.67800522
C       24.63807297      14.40270996      32.38430786
O       23.62835884      14.33941269      31.35590935
C       22.39653206      14.23484898      31.94623947
O       21.37759972      14.01899529      31.35012245
O       22.49303627      14.38811302      33.28755188
H       24.14905357      16.00185394      34.81510162
H       25.35792542      14.73093605      35.09057999
H       23.74892807      14.62166691      35.82546234
H       23.93416214      13.04982185      33.89151001
H       25.39794731      13.63416386      32.16736984
H       25.10615158      15.39572048      32.37857056
C       33.44342041      17.69636154      28.07419205
C       33.39395142      17.29312134      29.55820274
C       32.48937225      16.08638954      29.85003662
O       31.51992607      16.57288361      30.80820847
C       31.75263977      17.88126373      31.09765625
O       31.09868050      18.54627228      31.86601639
O       32.79665756      18.34568024      30.34992027
H       32.43658829      17.79858971      27.64682198
H       33.97113419      16.94938850      27.46204185
H       33.95848465      18.66114044      27.98945808
H       34.41564941      17.11525726      29.93644905
H       33.05409241      15.24775028      30.28115463
H       31.95659065      15.76032352      28.94148827
C       33.67614746       5.48338556       3.07038927
C       32.48784637       4.50810528       3.05530095
C       31.14900398       5.17070675       3.51515079
O       30.48794556       4.05907583       4.16206074
C       31.42288780       3.13781238       4.51743555
O       31.15597153       2.12775946       5.11688566
O       32.66328430       3.48301148       4.08029795
H       33.77876282       5.97305918       4.04299355
H       33.48300934       6.25182724       2.31294465
H       34.60650635       4.95653105       2.83371615
H       32.40290833       4.01108932       2.07515574
H       30.52510452       5.51314306       2.67699409
H       31.31559563       5.99484205       4.22400379
C       24.18554688      30.84095573      28.94519234
C       24.27361679      29.33094597      29.15800476
C       22.92068863      28.61120987      29.01883507
O       22.95975304      27.67014122      30.12093735
C       23.93958664      28.02843666      30.99694824
O       24.16501236      27.47564125      32.04296875
O       24.67717171      29.07901955      30.52432251
H       23.39947128      31.25024223      29.58959961
H       23.93147278      31.03455353      27.89328766
H       25.14366150      31.31032562      29.19812965
H       25.03306007      28.89360046      28.47753334
H       22.79503632      28.06651497      28.06515503
H       22.05758667      29.28057861      29.14543343
C       33.96164322       1.02102149      25.06535530
C       35.39786911       0.74137998      24.60679245
C       36.46417236       1.44429600      25.48235893
O       37.28073883       2.15735221      24.52843666
C       36.76213074       2.04828382      23.25305748
O       37.22409058       2.60063505      22.27034378
O       35.65612793       1.27461720      23.27122498
H       33.90764236       1.93307686      25.66647720
H       33.60074997       0.18875545      25.67890930
H       33.29265594       1.13511264      24.20232201
H       35.59162903      -0.35124862      24.54016685
H       37.10494614       0.75622803      26.05009079
H       36.04834747       2.13646173      26.22985458
C       11.30700397      35.77257156      12.96273613
C       11.68104839      34.52388763      12.14278793
C       10.76591110      33.30293274      12.28284645
O       11.69529915      32.20767593      12.48420143
C       12.94178486      32.70372391      12.75409508
O       13.87681389      32.00400543      13.04184914
O       12.97087669      34.05339050      12.60842037
H       11.02396393      35.50848389      13.98757648
H       10.44357109      36.25965500      12.48848629
H       12.16726398      36.45053864      12.98740768
H       11.76708412      34.78716660      11.06990719
H       10.14238071      33.12782669      11.39480782
H       10.08845615      33.39686584      13.14712143
C       26.85585976      15.46903706      24.19959068
C       27.36350822      14.89077282      25.52030373
C       28.89637947      14.83992672      25.74057579
O       29.19884491      13.44691944      26.01128387
C       28.05983162      12.69501972      25.83287048
O       28.05895424      11.48427582      25.87592888
O       26.99890327      13.47022343      25.58836174
H       27.27585220      14.99217033      23.31218719
H       27.07693672      16.54341316      24.14900970
H       25.77082062      15.34177303      24.10381126
H       26.88933563      15.37512207      26.38495255
H       29.22201347      15.43771076      26.60857391
H       29.45943832      15.13792419      24.83968544
C        3.34074521      12.50619411      19.89828873
C        3.80917263      12.40883350      18.44213676
C        4.93013334      11.38420105      18.09763718
O        5.95330715      12.19056416      17.44314957
C        5.64010334      13.52010250      17.53227806
O        6.37036180      14.40122414      17.15489197
O        4.43322515      13.68420506      18.12284851
H        4.18866634      12.61152458      20.58049774
H        2.74612093      11.62305927      20.16226578
H        2.69357777      13.39121342      19.99178696
H        2.93885422      12.26403236      17.77688599
H        4.60213375      10.59341049      17.40036011
H        5.37052679      10.93079567      18.99840355
C       21.81414986      31.36337280      37.05484390
C       22.62484169      32.65478897      36.99885941
C       22.27917671      33.62284470      35.83633423
O       23.58578682      33.88663483      35.23458099
C       24.56031036      33.12027740      35.80161667
O       25.72492599      33.13698959      35.46931458
O       24.03450203      32.31987762      36.77329636
H       21.75033760      30.87747955      36.07640076
H       20.79300308      31.60447502      37.37462616
H       22.26980019      30.69063187      37.78611374
H       22.54557991      33.17893600      37.96601105
H       21.86028099      34.57575989      36.19528961
H       21.61600876      33.19201279      35.06837845
C        8.68078709      19.13865280      27.87141228
C       10.17919827      19.41433716      27.99885178
C       11.16513824      18.25995255      27.72250366
O       12.07740593      18.29879951      28.85165596
C       11.60526085      19.14518356      29.80946732
O       12.12903309      19.33185196      30.88059235
O       10.47267342      19.76135826      29.39342690
H        8.40150452      18.19895172      28.36382866
H        8.38228416      19.08303642      26.82226181
H        8.12891006      19.96426392      28.33843613
H       10.40997124      20.28390694      27.35740852
H       11.72340965      18.38428497      26.78365135
H       10.64929485      17.29636383      27.69238472
C       31.14165878      26.70660973      32.61006927
C       31.72191048      25.49393082      33.33831787
C       33.04486847      25.68103981      34.10555267
O       33.78993225      24.48260307      33.79207993
C       33.14981842      23.79989624      32.79813766
O       33.51235580      22.74045372      32.33095551
O       32.08616638      24.51298332      32.34975052
H       31.81801414      27.07863808      31.83935356
H       30.87340546      27.50397491      33.31217575
H       30.21610451      26.40137863      32.10984802
H       30.96483612      25.07683563      34.01501083
H       32.90541458      25.72742653      35.20114517
H       33.62997818      26.55158997      33.75888824
C       16.41223717      24.39758682      27.13569832
C       16.65015602      24.85869980      25.69530106
C       17.89923286      24.32765007      24.97311211
O       18.76266289      25.51085091      24.82320213
C       18.13063622      26.63064194      25.24683762
O       18.52547455      27.76579285      25.20166016
O       16.89694023      26.30526733      25.76906967
H       17.15482330      24.83236885      27.80850029
H       16.45328140      23.30449104      27.21409416
H       15.41429043      24.72663307      27.46753883
H       15.77286243      24.73121452      25.04457092
H       17.67308617      23.93356514      23.97309303
H       18.45274925      23.58055878      25.55346107
C       34.26663589      32.47332764      10.38300800
C       34.00151825      33.04647827       8.98955536
C       34.86537933      34.29248047       8.67959881
O       33.92771149      35.19990158       8.07678509
C       32.64890289      34.78178787       8.31049061
O       31.64665413      35.37560654       8.00262547
O       32.65944672      33.58272552       8.91810226
H       34.21581268      33.25746536      11.14943504
H       35.25601196      32.00024414      10.42292595
H       33.50823212      31.71620369      10.61681175
H       34.11553574      32.26960373       8.20937729
H       35.66614151      34.06816864       7.96056080
H       35.29958344      34.75828552       9.58379745
C        5.85744095      19.20710182       4.22713470
C        5.13232660      20.38482857       4.91057825
C        3.61320353      20.22668266       5.06354427
O        3.06541991      21.47443581       4.60876894
C        4.04216909      22.23607254       4.06687880
O        3.88922811      23.34856796       3.61648464
O        5.24774408      21.56906891       4.09552670
H        5.37536335      18.92606354       3.28307629
H        5.82208538      18.36084938       4.92234612
H        6.90346289      19.46027374       4.02184343
H        5.61001301      20.57960320       5.88324499
H        3.31763029      20.05543518       6.10826111
H        3.21065235      19.40457916       4.45118523
C       29.40395927      22.19490051       9.32485008
C       29.91570091      23.34126854      10.20412731
C       28.90558624      24.36725426      10.74967480
O       29.71257401      25.56149292      10.89183140
C       30.78815460      25.45009422      10.04305077
O       31.60369110      26.32597542       9.89315414
O       30.83179283      24.21720505       9.46983814
H       28.99870300      22.51718521       8.35725975
H       28.61335754      21.66742516       9.87933826
H       30.21217918      21.46698952       9.17203999
H       30.49581337      22.92950439      11.04304695
H       28.46315765      24.13257599      11.72797108
H       28.07953453      24.55660057      10.03950310
C       10.97351646      12.19127369      35.54743195
C       10.57363892      13.50368214      36.23580170
C        9.10548782      13.97050762      36.19809723
O        9.21283150      15.39857483      36.00297165
C       10.47222424      15.71259403      35.59008789
O       10.85001087      16.81744003      35.29398727
O       11.27901173      14.60438251      35.60583115
H       10.60811520      12.11115456      34.51765442
H       10.56954670      11.35825157      36.13198853
H       12.07006264      12.11924553      35.53284073
H       10.88990784      13.45457172      37.28407669
H        8.60000038      13.79705048      37.15506744
H        8.50417900      13.51501656      35.39548492
C       16.25892830       4.08161783      25.38207245
C       15.96609211       2.58036160      25.41192818
C       17.21039772       1.70890605      25.73260498
O       17.42860794       0.96328866      24.52359390
C       16.43060303       1.18576324      23.61186981
O       16.35633278       0.67255652      22.52328300
O       15.56491470       2.11123443      24.10312653
H       16.98978996       4.30745029      24.59268188
H       16.65088844       4.39999390      26.35996056
H       15.33964920       4.65105295      25.18408966
H       15.16193485       2.38395262      26.13987160
H       16.99995041       1.03057611      26.57682991
H       18.10002708       2.30899143      25.97615623
C       23.50806427      21.74153900      18.33041000
C       23.48091888      21.66162300      16.79965591
C       24.25393486      20.53208351      16.10296249
O       25.02303123      21.18944168      15.04160500
C       24.93878937      22.53141403      15.20327568
O       25.49275208      23.36175156      14.52426529
O       24.11924553      22.85216904      16.25085831
H       24.52555847      21.71294022      18.73771095
H       22.92887878      20.89092827      18.72334862
H       23.04016495      22.67182159      18.68153381
H       22.43797874      21.64215660      16.43516350
H       23.57064819      19.80342102      15.63599014
H       24.96465683      20.03268623      16.77717209
C       15.34204388      32.37141418       1.95835793
C       14.79497337      30.95930672       1.72111094
C       14.41905308      30.19481087       3.00910473
O       14.99300003      28.88597107       2.81292462
C       15.81623554      28.90867996       1.73000598
O       16.41613579      27.95118332       1.29994321
O       15.88340664      30.15514565       1.18374932
H       16.04140282      32.36643600       2.79705811
H       14.54422665      33.07594681       2.21202493
H       15.83725452      32.70829773       1.03961051
H       13.98859215      30.94872093       0.96134996
H       13.33102131      30.07220840       3.14212990
H       14.81281662      30.66208267       3.92108083
C       35.33774567      31.46025848      13.67791939
C       35.77924347      30.32521248      14.61519432
C       34.80316544      30.13405228      15.80521679
O       35.54850006      30.58669281      16.95480156
C       36.84891891      30.77923012      16.60071564
O       37.72297287      30.99134445      17.39987755
O       37.02623749      30.68481636      15.25512314
H       35.15484238      32.36241531      14.27296448
H       34.40872192      31.17782021      13.17095089
H       36.12342072      31.65790749      12.93967342
H       35.93249130      29.39706802      14.04173565
H       34.52057266      29.07966805      15.92867088
H       33.89070511      30.74192047      15.70875263
C        8.82257271      28.53477097      32.75037766
C        9.97391796      29.13723183      33.57364655
C        9.63332462      29.78146172      34.93536377
O       10.08449650      31.14714622      34.84030914
C       10.76770782      31.31107330      33.66119385
O       11.43556690      32.28174591      33.38835907
O       10.57293701      30.24205780      32.82931900
H        8.38146114      29.28623581      32.06729126
H        8.03685474      28.16073799      33.42026520
H        9.15105152      27.63481331      32.20410919
H       10.75790596      28.37646103      33.69932175
H       10.14718914      29.28876114      35.77582932
H        8.55994511      29.79487419      35.15576172
C       16.51071358      21.37079048      22.07425499
C       15.72910404      22.28213501      21.11463165
C       16.53064919      23.48145676      20.56155777
O       15.89457130      24.63014221      21.18883133
C       14.88604641      24.27104378      21.99632072
O       14.22601700      25.01084900      22.70047569
O       14.59822559      22.93978500      21.79751396
H       17.18484116      21.94531059      22.71824265
H       17.07255745      20.63623238      21.47911835
H       15.79759216      20.84995270      22.72729301
H       15.28905392      21.69918060      20.29157829
H       16.46795654      23.55999565      19.46339417
H       17.59006119      23.47803688      20.84430313
C       33.19560623      14.65383339       9.33380127
C       33.35718536      14.25056267       7.85859156
C       32.70819092      15.13185692       6.77775860
O       32.30408859      14.17279530       5.77533245
C       32.47845078      12.90326595       6.27112150
O       32.35453033      11.90367222       5.63060999
O       32.78024292      12.95657539       7.61853552
H       32.15831757      14.51876831       9.66711903
H       33.45181274      15.71338463       9.47273731
H       33.84569931      14.05861473       9.99031544
H       34.43503189      14.16889381       7.62060356
H       33.42864990      15.83628750       6.32954121
H       31.82616043      15.69407654       7.12304258
C       21.80710983      32.50454712      15.60455322
C       22.99752426      32.51180267      16.58430862
C       23.88372803      33.77952576      16.57558250
O       25.20069122      33.31067657      16.17259407
C       25.19599724      31.96032333      16.02166176
O       26.14212227      31.25138474      15.75883389
O       23.94526863      31.46325302      16.25578308
H       22.06495857      32.90368652      14.62058544
H       21.02047157      33.13725662      16.03715897
H       21.39879227      31.49473000      15.46992493
H       22.64159584      32.37186050      17.61837578
H       23.94390678      34.25617599      17.56376839
H       23.51289558      34.51869202      15.84539604
C       23.23038483      33.99224854      28.77312469
C       21.80216599      33.43267441      28.84150505
C       20.73759842      34.55003738      28.94503593
O       19.74894142      33.99805069      29.84205818
C       20.30134201      32.91425705      30.47258377
O       19.67997551      32.20505905      31.22052765
O       21.59493637      32.70672989      30.07882690
H       23.47566795      34.50096893      29.70786285
H       23.28290749      34.70930481      27.94355774
H       23.97826958      33.21864700      28.58451843
H       21.58572197      32.75322723      27.99287415
H       20.27005959      34.75720215      27.96783066
H       21.16812134      35.46722031      29.37685204
C       31.63317299       8.06004620      35.70508575
C       31.45206451       9.57215023      35.86064911
C       32.42600250      10.38502216      36.73543930
O       31.58380318      11.41151237      37.23951721
C       30.27928352      11.04486179      37.12182236
O       29.33203506      11.66622162      37.53798294
O       30.19407654       9.82748890      36.50251007
H       31.84175873       7.59379673      36.67803955
H       32.44379044       7.80624008      35.00719833
H       30.70497704       7.62493610      35.32449722
H       31.43948936      10.04992962      34.86016464
H       33.22388077      10.83300781      36.11598206
H       32.84852982       9.80477524      37.57189560
C       10.37563229      15.32797241       6.96022654
C       10.08435249      15.53995132       8.43653488
C        8.63835812      15.90460968       8.81454372
O        8.76672459      16.98781586       9.76192665
C        9.96253777      17.59253502       9.50847149
O       10.23555088      18.75195885       9.72748661
O       10.82908058      16.71253967       8.91995716
H       10.12780571      16.18355942       6.32075357
H        9.78054237      14.48955917       6.57937765
H       11.43118477      15.05932236       6.82252598
H       10.42608356      14.66559601       9.01019764
H        8.10023785      15.06999493       9.28357410
H        8.04466820      16.25130081       7.94363070
C        4.52590847      35.97863388       9.16531563
C        5.22223997      35.83590698      10.52109146
C        6.41123962      36.80486679      10.76265049
O        7.39806366      35.96305466      11.41831875
C        7.03085184      34.65617752      11.29947281
O        7.67317009      33.72864151      11.75003052
O        5.85354090      34.53309250      10.64017487
H        5.22895813      35.82729340       8.34073067
H        4.09445858      36.98917770       9.10428047
H        3.69822335      35.25918198       9.08162212
H        4.48429632      35.94847870      11.33598042
H        6.15309668      37.63267136      11.44572830
H        6.81131744      37.21250153       9.81793213
C       17.98166656      18.65161514       5.77212667
C       16.96281433      17.86720467       6.57808590
C       15.86806774      18.76592255       7.16332865
O       16.16120529      18.82905197       8.58905506
C       17.14051819      17.94079590       8.86483955
O       17.56477356      17.79424477       9.99914074
O       17.58464241      17.29662323       7.76781702
H       18.48555565      19.36793709       6.43149185
H       17.46507835      19.19994354       4.97561598
H       18.74549866      18.01217842       5.32352924
H       16.52141190      17.03736115       6.00449276
H       14.86281967      18.35094070       6.99390078
H       15.91233540      19.78451347       6.74103975
C        7.07758904      21.55057335      34.87300873
C        6.23947382      21.89513016      33.64408493
C        6.99083662      21.96428490      32.30482101
O        6.32037306      23.05348587      31.62196541
C        5.58153534      23.75704002      32.52288818
O        4.88399982      24.70201874      32.23417664
O        5.69916916      23.23898888      33.76721954
H        7.73479223      22.37111855      35.16695786
H        7.67174482      20.64663315      34.68217087
H        6.42654848      21.32309532      35.72652054
H        5.39782906      21.19248581      33.52835846
H        6.87283230      21.06220245      31.68819237
H        8.05058670      22.20548058      32.44234085
C       12.05611134      28.58674431      21.28509140
C       10.75794792      28.96724510      20.53758621
C       10.44780922      30.48585892      20.51898766
O        9.25038815      30.61590767      21.32301903
C        8.77142048      29.37976837      21.64529610
O        7.72322702      29.17963791      22.20185280
O        9.62772179      28.39819717      21.23653603
H       12.11250114      29.09084129      22.25927544
H       12.92018127      28.85968781      20.66147804
H       12.07371330      27.50199127      21.46528816
H       10.77435493      28.56544304      19.50718880
H       10.25675011      30.83903885      19.49304771
H       11.25916195      31.06888390      20.98008919
C        3.73480773       3.28762984      28.62489510
C        2.65755153       2.95599961      27.58891106
C        1.26975608       2.64933467      28.20884514
O        0.94117063       1.36092257      27.65324211
C        1.91992843       0.90576321      26.84089088
O        1.79686797      -0.11319904      26.16366768
O        2.99037218       1.71010160      26.87378311
H        3.81283283       2.50577188      29.38443184
H        3.51906109       4.23168421      29.14680672
H        4.71588469       3.39711523      28.14892578
H        2.58363867       3.75104260      26.82933426
H        0.50383323       3.37876248      27.90000343
H        1.30206883       2.58689618      29.30378914
C        9.90774918       9.84681320      18.69899368
C        8.54034042       9.34890556      18.22277641
C        7.77386045       8.44597626      19.21491814
O        7.34477663       7.34783697      18.39243507
C        7.78087759       7.50546455      17.13409233
O        7.32865667       6.89440060      16.17019463
O        8.71290112       8.48199844      17.06609917
H       10.49280643       9.05622482      19.17873955
H        9.80645370      10.68120098      19.40522766
H       10.47272015      10.18867397      17.82491875
H        7.90514040      10.19442272      17.90554047
H        6.88079023       8.91972828      19.64963913
H        8.41816139       8.08928204      20.03170776
C       17.57489777      25.83244896      16.25271606
C       16.09960556      25.78439713      16.65593719
C       15.08234978      25.80246735      15.50972939
O       14.10371208      26.77260590      15.93155575
C       14.60348034      27.51636124      16.94437027
O       14.11839581      28.50992203      17.42559242
O       15.76212311      26.96721077      17.43956375
H       17.71252060      26.55614853      15.43489552
H       17.88159180      24.82672882      15.93767929
H       18.19306755      26.10181236      17.10965919
H       15.90913200      24.91287041      17.29944420
H       14.58831882      24.83008957      15.37108898
H       15.53684521      26.10697937      14.54786682
C       11.37118912       9.45958710      12.10548592
C       10.90040588       8.02069950      12.33695221
C       10.46682167       7.73983049      13.78697205
O       11.25855637       6.59279251      14.17471695
C       12.16160202       6.32014561      13.22010899
O       12.98577404       5.42240095      13.29588032
O       12.04955959       7.14415121      12.16005802
H       12.01823521       9.78699780      12.92336941
H       10.50930882      10.13692856      12.04754353
H       11.89885330       9.50520134      11.14372253
H       10.14216518       7.70727825      11.60061359
H        9.40487480       7.45996332      13.86835575
H       10.64797020       8.57501125      14.47671223
C       28.95809937      13.81821346      13.88232422
C       28.18761635      14.93060017      14.60120010
C       29.03705788      16.15988350      14.87330055
O       28.50228310      16.70089912      16.10484886
C       27.85029984      15.68551636      16.76692200
O       27.47921944      15.77938461      17.90918732
O       27.68890381      14.60789585      15.94316578
H       29.88228607      13.53307724      14.40129662
H       29.25746155      14.16441536      12.87631512
H       28.35517883      12.91512585      13.70820808
H       27.29672050      15.20255470      14.00286579
H       28.96807861      16.88720512      14.05656719
H       30.09251213      15.88580608      15.03416348
C       22.78546524       7.43382692      14.36962128
C       23.78022766       6.86692810      15.40653133
C       23.61555290       7.38686228      16.84469032
O       24.73785400       8.27426910      17.06232452
C       25.63659286       8.09941673      16.04558754
O       26.74902344       8.56256390      16.07474709
O       25.12716484       7.32517290      15.05462742
H       22.94717216       8.50539303      14.23919582
H       21.75625038       7.26702785      14.70992756
H       22.90859604       6.92996597      13.40186787
H       23.78331947       5.76751852      15.35824585
H       23.64024925       6.58953333      17.60424805
H       22.68864441       7.96181536      16.98947144
C       15.95026779      16.51171875      16.02713966
C       15.00464153      17.10116005      14.98275852
C       14.81959915      18.63332939      14.96107197
O       13.37941742      18.81159019      15.02538395
C       12.77567101      17.64022255      15.34810066
O       11.61103725      17.49714661      15.61954689
O       13.66826344      16.61334419      15.27170849
H       15.65563297      16.80288696      17.04359055
H       16.98996925      16.81472397      15.86287308
H       15.92028809      15.41881466      15.94589520
H       15.29101753      16.74898529      13.96859074
H       15.18512249      19.07254982      14.01635361
H       15.30066395      19.16018677      15.79723549
C        9.27418041      23.77124977      14.63527966
C        8.26030159      24.25757599      15.68579960
C        8.09907436      23.38847160      16.94590378
O        6.65473127      23.26736641      17.06650925
C        6.04428291      23.68482971      15.93366718
O        4.86045837      23.56963730      15.72056961
O        6.94805908      24.20038414      15.07575703
H        9.03414059      22.73390388      14.35913086
H       10.29215527      23.85024452      15.03829479
H        9.19973087      24.40017700      13.73352814
H        8.45911312      25.30060196      15.98848152
H        8.47800350      23.86487579      17.86038780
H        8.54880333      22.39315033      16.81483269
C        6.68431807      34.70457077      16.34417534
C        5.37336302      34.45896530      17.14188385
C        5.00646591      32.97868347      17.41341782
O        3.64573383      32.88319016      16.97051430
C        3.27262855      33.99151611      16.31640434
O        2.21121955      34.13978195      15.75916004
O        4.26131535      34.93232727      16.36705971
H        6.90165663      33.87099075      15.67039776
H        7.52497578      34.82804871      17.03177071
H        6.53336954      35.60381317      15.73897648
H        5.41974497      35.03996658      18.08386612
H        5.08453274      32.73199844      18.48014641
H        5.65470982      32.26626587      16.88212585
C        9.02789211      13.41357708      15.23048782
C       10.45367241      13.42947197      15.78552437
C       11.53427315      13.77650452      14.72258377
O       12.50966263      12.70539474      14.85288429
C       11.87435627      11.65134048      15.43796921
O       12.13503361      10.48262882      15.27440643
O       10.79607677      12.07398129      16.16555214
H        9.01727104      12.98757553      14.22100830
H        8.61655903      14.42916775      15.18771076
H        8.36652851      12.81905842      15.86547184
H       10.52182293      14.08942223      16.66748619
H       11.98293400      14.76161098      14.90367126
H       11.13999462      13.74655342      13.69891262
C       30.35282326      24.51239586      19.13195229
C       31.77337074      23.92653656      19.04349327
C       31.98926353      22.53080559      19.66449356
O       33.16411972      22.67427063      20.49576950
C       33.52588654      23.99089813      20.56918144
O       34.43296814      24.38446617      21.27390289
O       32.73088837      24.75169373      19.79643440
H       30.31857872      25.46618080      19.66286087
H       29.65899849      23.84221649      19.64658546
H       29.95304489      24.67299080      18.12368965
H       32.09569931      23.92123222      17.99211693
H       32.13456345      21.75626373      18.89225769
H       31.11184120      22.25573158      20.26776695
C       28.43192863       9.01243114       1.48768890
C       27.96493530       8.72425747       2.92733765
C       26.84437752       9.69417763       3.38247895
O       27.27695274      10.15312195       4.67005491
C       28.58974648       9.80564117       4.86026478
O       29.21388245      10.16201019       5.82379055
O       29.04818916       9.00132370       3.84468818
H       28.88422394      10.00684738       1.44499934
H       27.57839012       8.99651814       0.80103385
H       29.14129257       8.25844574       1.13442445
H       27.65289879       7.67345333       3.03405881
H       25.87478447       9.18604755       3.50669599
H       26.75147820      10.53983402       2.67714143
C       25.91957664      10.34213829      28.03944206
C       26.79534721       9.10006428      28.07003593
C       28.30530739       9.32182217      28.25532913
O       28.91613770       8.57600307      27.18407249
C       27.94353867       8.09467506      26.35043907
O       28.16156387       7.49839258      25.31964493
O       26.71773338       8.42189121      26.79909706
H       26.22233391      11.03400803      27.24015236
H       25.95898438      10.86951256      28.99956512
H       24.86260986      10.06216717      27.92315102
H       26.41308212       8.42808914      28.85119629
H       28.67940712       8.95673561      29.22238922
H       28.56671524      10.38530445      28.15804291
C       13.30635929       2.29295945      34.05462265
C       12.00801754       2.38170171      33.24170303
C       10.93340302       1.33056986      33.57378387
O       10.57294369       0.78178310      32.29880905
C       11.40399837       1.20754433      31.32433701
O       11.35002708       0.88829452      30.15337181
O       12.27804089       2.11098957      31.84841347
H       13.77274990       1.31313550      33.91727829
H       13.09558392       2.40859413      35.12831879
H       13.99781227       3.08372927      33.73229980
H       11.57322311       3.39473915      33.32683945
H       10.04585552       1.76577139      34.06267929
H       11.34234715       0.54265010      34.22365952
C        8.75202370      14.27414989      28.02710724
C       10.17562294      14.51391697      27.51124763
C       10.34206581      14.89050484      26.02447891
O       11.23728466      13.88771439      25.47968292
C       11.57473755      12.99670792      26.43641853
O       12.33751869      12.06191921      26.30897141
O       10.93651581      13.26807785      27.60571861
H        8.16099930      13.64836407      27.34200096
H        8.26251698      15.24778461      28.18659019
H        8.79337215      13.77098656      29.00352097
H       10.64349079      15.24329090      28.18788910
H       10.78323269      15.88904953      25.91536331
H        9.39585686      14.86556149      25.46202469
C        7.18794823      22.56788063       1.63059533
C        8.47345448      21.93405151       2.18584132
C        9.50997639      22.90880585       2.79424143
O       10.66471004      22.75808907       1.94773054
C       10.47583866      21.68363953       1.10602653
O       11.34812832      21.19019127       0.44326419
O        9.18390274      21.27806473       1.12623656
H        7.40926266      23.34599686       0.89461613
H        6.56357336      22.95916939       2.44506145
H        6.59124851      21.79168320       1.13218021
H        8.20881367      21.18254662       2.94893742
H        9.77992249      22.64242935       3.83251977
H        9.17696381      23.96069717       2.77588606
C       14.14584446      21.09580612      35.62362289
C       13.85097694      22.56875992      35.30307770
C       12.81123447      23.32527351      36.15238571
O       12.03540230      24.04861450      35.18233490
C       12.33433819      23.62157631      33.92585754
O       11.78090572      23.98626137      32.91255188
O       13.33965874      22.69993973      33.95535278
H       13.21926880      20.51515007      35.68946075
H       14.67170238      21.06968307      36.58856583
H       14.78612614      20.63776016      34.85536575
H       14.79575634      23.13721085      35.34135437
H       13.30927086      24.04191017      36.82147980
H       12.16083050      22.67535019      36.75576401
C       27.78772545      23.52837753       1.41661870
C       27.42219162      24.75813103       0.57240909
C       28.43868065      25.91131783       0.80910957
O       27.63864326      27.00980377       1.26845014
C       26.32241440      26.63753128       1.35349703
O       25.43351746      27.35832024       1.71913755
O       26.16869545      25.34961700       0.98184198
H       27.91230583      23.78160858       2.47572017
H       28.73144531      23.10795593       1.04301214
H       27.00620651      22.76131058       1.34289265
H       27.35420036      24.48957443      -0.49555942
H       28.96734428      26.15441895      -0.12939778
H       29.16023445      25.65619087       1.59962988
C       28.09178162      21.11854172      14.26611423
C       29.58832359      21.38642693      14.37102222
C       29.95862770      22.86586189      14.20315742
O       31.12869644      22.81286049      13.37781715
C       31.22786140      21.57905769      12.78057861
O       31.97170639      21.29631805      11.88025379
O       30.34574127      20.71207809      13.34421253
H       27.67796707      21.47319221      13.31374931
H       27.57224083      21.64758110      15.07722950
H       27.88809586      20.04700279      14.38347340
H       29.96087074      21.05543518      15.35255146
H       30.15334511      23.37449074      15.15557098
H       29.16725731      23.42799377      13.67981148
C       25.68852043       5.55992746      29.56165314
C       24.85871315       5.82474232      28.29148674
C       23.77566147       4.78232527      27.94401932
O       24.06169510       4.36848783      26.60261536
C       25.15358353       5.02590752      26.13302994
O       25.56013680       4.96876669      24.99906921
O       25.70539474       5.78030062      27.13090515
H       26.28451920       4.65107393      29.44749641
H       25.02279282       5.39882708      30.41508865
H       26.35651207       6.40266323      29.77313614
H       24.40131187       6.83539391      28.34300995
H       22.76620293       5.21422338      28.01547050
H       23.84162140       3.93582392      28.62822533
C       11.96539593      30.42802048       9.40271473
C       11.38512325      31.42886734       8.38804626
C       12.33055210      32.63495636       8.13294983
O       11.52166557      33.78139114       8.45624733
C       10.27569962      33.41108322       8.90235901
O        9.41906929      34.18533707       9.25017643
O       10.18007469      32.06130981       8.90884399
H       12.31652451      30.93335533      10.31114578
H       12.79338837      29.86988068       8.94030762
H       11.17785645      29.71632957       9.68972778
H       11.13344955      30.92224503       7.43583965
H       12.65837669      32.67590332       7.07655001
H       13.21671867      32.61454391       8.78350067
