1810
Lattice="31.229999542236328 0.0 0.0 0.0 31.229999542236328 0.0 0.0 0.0 31.229999542236328" Properties=species:S:1:pos:R:3 pbc="T T T"
Na       9.27770710      14.93696690      16.75741959
Na      12.17045307      26.60347748      10.03877163
Na       6.40836382      15.41983509      27.08530235
Na      18.46180725      10.19763088      10.78002262
Na      21.16806602       8.18335724      27.94772530
Na      26.86708832      16.79787636      28.35802650
Na      15.71772480      17.51385307       4.49249029
Na      13.82176971      15.36320877      28.52117920
Na      25.43733406       9.61306000      12.55887604
Na      21.73468018       5.96860552      24.15095711
Na       6.51264095      32.25863647      14.02660942
Na       5.52858543      24.46478271      14.70477867
Na       9.77373314      18.91009903      13.68537426
Na      19.41185760      13.37073421      14.25297928
Na      13.79541874       5.49532175      17.69685173
Na      10.48822498      25.31781197      22.22477150
Na       8.43529701       5.17216253      23.27634811
Na      18.97260666      30.75698090      14.61315632
Na      11.53941631      17.96053886       5.56256390
Na       2.70651126      16.45154572       8.49077034
Na       4.90199804      21.47394562       0.62567145
Na      15.50956440      25.88696098      23.59701157
Na      27.82890701      29.74982262       3.25495768
Na      23.95016670       0.00666875      17.16001892
Na       8.07324123       1.78269744       8.69048882
P       30.06347275      23.73674774      28.90385056
F       30.63018799      22.37825584      28.18524361
F       29.55757141      25.10144234      29.63018990
F       31.24285889      24.60111046      28.14614677
F       28.92505074      22.86212158      29.68111992
F       31.10804749      23.48665237      30.15182686
F       29.05046082      23.99592400      27.64561462
P       13.85339832       1.10187089      12.01624775
F       13.40840340       2.59318447      12.49238586
F       14.26378250      -0.40557379      11.52990723
F       12.91046810       1.24881911      10.67434502
F       14.77030468       0.93065768      13.35572910
F       12.55322456       0.45491537      12.85067368
F       15.14054775       1.71380424      11.19694710
P       13.13811588      17.37140274       1.84077370
F       13.22409344      16.94684982       3.48194981
F       13.07557297      17.80669975       0.27237335
F       11.55985451      16.89480209       1.81403422
F       14.71527100      17.84861755       1.94683659
F       13.63287640      15.85973358       1.44513953
F       12.67408466      18.87199974       2.31760859
P       20.15145683       2.30812263       3.39877629
F       19.66944313       1.16667342       4.42793131
F       20.65483284       3.47155333       2.38105607
F       20.76992607       1.16466117       2.40746808
F       19.54394341       3.45153832       4.40332270
F       21.58135223       2.38189006       4.18793631
F       18.72677040       2.23473954       2.61106992
P       14.17129326      19.72592354      19.94485664
F       12.92294025      18.74052238      19.57238579
F       15.41707516      20.73040581      20.28380966
F       15.22807312      18.51029587      19.75383186
F       13.13210964      20.98450470      20.11296082
F       14.03048992      19.39411545      21.53887939
F       14.33831692      20.11598206      18.34884071
P       25.48081779      13.61481762      15.90058899
F       24.13044357      14.15630341      15.08829403
F       26.80121994      13.03814507      16.64513397
F       24.59057999      13.35826588      17.25077438
F       26.39329910      13.85731792      14.55077457
F       25.83356476      15.13608646      16.40495872
F       25.11246872      12.07376003      15.35982895
P       15.20914650      13.56357765      25.53660011
F       16.15187454      12.31395435      25.03359222
F       14.24779224      14.80050659      26.14119720
F       14.63536549      12.60903645      26.78196526
F       15.77229404      14.55980682      24.39367294
F       13.99866962      13.08812809      24.55674744
F       16.40441704      14.06565762      26.54531670
P       12.35883999      16.26935768      13.73042011
F       12.01323891      17.35276604      12.47692871
F       12.64790058      15.23108768      14.96092701
F       12.23218822      15.01587486      12.66804981
F       12.47080708      17.54994202      14.76463604
F       10.70283413      16.19287491      14.04291058
F       13.98480988      16.40504074      13.41739273
P       25.91575813       6.61957979      17.77909660
F       25.61626434       8.11162758      17.16469574
F       26.23176193       5.10386705      18.36260605
F       25.92236328       7.17872906      19.31749725
F       25.95022011       6.02261400      16.27659607
F       27.52262306       6.88460350      17.72471809
F       24.30603981       6.34065771      17.88829994
P        6.87338543      25.36323547       8.59732914
F        7.57599354      24.25808144       7.60043335
F        6.17533159      26.46088409       9.60098362
F        7.41901493      26.58557701       7.64532518
F        6.33010101      24.12376022       9.57217407
F        8.24298763      25.44145393       9.48655033
F        5.49096775      25.28129387       7.71569347
P       16.11226654       5.44404125      13.92414856
F       14.68362617       5.01307583      14.60037804
F       17.54711723       5.91338634      13.29434013
F       15.56955242       6.98041916      13.80186939
F       16.66462135       3.90597677      14.10306835
F       15.53234863       5.09680557      12.44483376
F       16.67609787       5.79133511      15.42430782
P       24.39842224      27.66372490      14.99075794
F       24.30488586      26.06207848      14.77820873
F       24.52271843      29.31630516      15.22323418
F       25.79133987      27.49018669      15.82435894
F       23.00695229      27.88837433      14.16166496
F       23.55191994      27.57603455      16.40028191
F       25.25851822      27.81376076      13.61214256
P        6.55384922      10.72878742       6.56265593
F        6.76542473      11.73564816       7.83577585
F        6.33266735       9.74290466       5.27065992
F        6.30241537      12.03113842       5.56475973
F        6.82715845       9.44504261       7.50662470
F        4.94548988      10.67464733       6.88115692
F        8.15942478      10.80558681       6.22486019
P       19.01388741      27.31661797      24.09839630
F       20.55957985      27.74109840      23.85854340
F       17.38962936      26.88117218      24.38533020
F       18.53517151      28.85248947      24.06862450
F       19.41143036      25.73450661      24.16518402
F       19.21410370      27.42116356      25.71843338
F       18.74445152      27.17394447      22.50622177
P       25.24025536       9.77613831      23.22859573
F       23.79601479       9.12118149      23.71583939
F       26.67338562      10.37154579      22.78227234
F       24.44022560      10.89519310      22.36719704
F       26.03434753       8.63636875      24.12074852
F       25.23532295       8.75382423      21.95552063
F       25.21865845      10.76748276      24.54028511
P       18.26658249      27.07902336      16.22938538
F       16.99636841      26.57694054      15.32542229
F       19.52259827      27.59831619      17.14043045
F       17.87014580      28.67301941      15.88376808
F       18.64830780      25.54311562      16.56342316
F       19.22487450      27.05801582      14.89985561
F       17.29910469      27.16967392      17.54586601
P        6.99772310      14.50394440      13.65280247
F        5.74707890      14.90683174      12.65070343
F        8.23966599      14.08519840      14.67119789
F        8.02884960      14.39421463      12.38098240
F        6.00037670      14.61260223      14.94543934
F        6.60916424      12.90275383      13.49415588
F        7.38871431      16.09244919      13.85719109
P       26.61821938      27.64873695       1.63017190
F       27.80382156      28.76447105       1.21477771
F       25.47757339      26.66372108       2.19079614
F       25.86854172      28.95974350       2.42680073
F       27.44915390      26.46858597       0.96579778
F       27.47411346      27.48068428       3.06988239
F       25.79327583      27.99865913       0.30242291
P       19.00775719       2.70816278      25.84225845
F       20.61361885       3.00312662      25.89721870
F       17.39875603       2.43074131      25.80640221
F       18.76215363       4.01096153      26.81226730
F       19.27947617       1.45438719      24.86942863
F       19.15202332       1.74780011      27.16304398
F       18.88063431       3.69901514      24.53000069
P        9.58200169      18.80840302      21.02812386
F        9.61548519      20.03165054      19.88581657
F        9.55736923      17.63663864      22.18045235
F        8.16112614      18.29293823      20.43408012
F       10.98750973      19.36569405      21.65688133
F        8.76973057      19.84113503      22.06415939
F       10.38861465      17.82033348      20.02037239
P        8.40430164      22.53422546      15.69544888
F        7.44535542      21.20600319      15.85243893
F        9.28591919      23.89282608      15.49089718
F        9.33708000      21.75142097      14.59624767
F        7.41071129      23.37190437      16.72113609
F        9.33092117      22.08271790      16.94049072
F        7.36993551      23.03165054      14.42269325
P       22.53015900      13.71538639      26.42161179
F       22.03775978      15.16909122      25.91184807
F       23.02327919      12.24490261      27.00678253
F       23.16283035      14.42103672      27.76539230
F       21.92007637      12.99646664      25.11349487
F       23.97869110      13.88241959      25.68074799
F       21.10268974      13.52905178      27.21655083
P        1.72944689      15.30519485      22.62374115
F        0.98669195      14.50850487      23.88899040
F        2.48417115      16.09110641      21.40566444
F        2.37398052      13.89334202      22.13801384
F        1.07363093      16.70860863      23.15986061
F        3.03787661      15.56791687      23.59776878
F        0.42886665      15.03070545      21.68940353
P       10.47552395      16.31836510      26.80309296
F       10.29290390      17.91900826      26.60137367
F       10.67407227      14.68465614      27.13009453
F       11.59456635      16.23779869      25.62878418
F        9.39514542      16.39593887      28.06826019
F        9.27413750      15.98511314      25.74803925
F       11.68324566      16.62806320      27.93050575
P       11.94115162      13.46065140      19.26300049
F       10.49414158      12.85923767      19.80583763
F       13.35409164      14.03839970      18.67636299
F       12.73269558      12.79605293      20.54118919
F       11.15516090      14.13278484      17.94697189
F       11.68370819      14.82541656      20.10559082
F       12.17175102      12.08124161      18.38277817
C       25.19693947      13.98239803      11.98895168
O       24.96632957      14.08520889      10.58511734
C       25.30721474      15.40538120      10.16043091
C       25.44251442      15.38103771       8.64819908
O       25.82810020      16.72138977       8.34446716
C       26.13278389      16.84510803       6.94966221
C       26.49445915      18.31034088       6.76754332
O       26.65494919      18.56466103       5.36582851
C       27.84550476      18.05372047       4.76653337
H       24.54025650      14.63215351      12.60038376
H       24.97789383      12.94787025      12.29399014
H       26.23578262      14.24112606      12.24615955
H       26.26598549      15.71358395      10.61587143
H       24.55119133      16.14035606      10.49796009
H       24.49568558      15.10884190       8.14604378
H       26.21263695      14.65258598       8.33193016
H       25.25350761      16.59766579       6.32804537
H       26.96016693      16.17473793       6.65476465
H       25.65788460      18.93881226       7.11931562
H       27.37888145      18.59462738       7.36312294
H       27.91603851      16.95751953       4.83761358
H       28.74112511      18.49954414       5.22323895
H       27.80255508      18.30115509       3.69634652
C       21.11973763      20.53565025      25.62615967
O       21.73117447      19.27809525      25.90263939
C       23.14654732      19.28544235      25.63001060
C       23.62205696      17.88319206      25.99072266
O       25.01136971      17.78828812      25.65889740
C       25.45028877      16.42585564      25.58112717
C       26.93208122      16.48905182      25.18427086
O       27.56446648      15.19352722      25.07723045
C       28.13369942      14.68397713      26.28863335
H       21.20587921      20.79432487      24.55594635
H       20.05123711      20.44731331      25.87639999
H       21.58193398      21.35127068      26.21015167
H       23.65158272      20.07979393      26.20907211
H       23.32768631      19.46372795      24.55129814
H       23.03955841      17.14712143      25.41030312
H       23.44950485      17.66421890      27.06526566
H       24.87503624      15.87266731      24.81505013
H       25.28750801      15.90284824      26.54811096
H       26.97634315      16.91551399      24.16399193
H       27.52430725      17.16810799      25.83806992
H       27.35058784      14.34445477      27.00063896
H       28.80155945      15.43492794      26.76034355
H       28.73183250      13.79495621      26.04088402
C       22.28203201      11.27585316      15.28563309
O       20.83889961      11.23359394      15.33861351
C       20.41866112      10.27971649      16.33424377
C       18.91881561      10.09043980      16.15734863
O       18.54159164       9.04705715      17.07462311
C       17.18741608       8.68310642      16.79497719
C       16.73711014       7.70691442      17.88874054
O       15.31015301       7.51343441      17.75363350
C       14.51145649       8.44692993      18.50802040
H       22.67504883      10.29124928      14.96615505
H       22.57930374      12.04256439      14.55511284
H       22.72023773      11.51480198      16.26850510
H       20.68614388      10.63470840      17.35328484
H       20.92300034       9.30507278      16.15118217
H       18.68057251       9.79981327      15.11140251
H       18.32670784      11.00622940      16.35025978
H       17.07768250       8.21846676      15.78761482
H       16.50955772       9.55867290      16.83304024
H       17.20787621       6.71945524      17.74692535
H       16.99220848       8.09354782      18.89296722
H       14.92832851       9.46560097      18.46501732
H       14.41955280       8.13172340      19.56051445
H       13.49203300       8.46094227      18.09403992
C       20.67350388      24.26116180      13.45211506
O       19.38311577      23.71318436      13.73627853
C       18.45277977      23.81033707      12.64163685
C       17.09467125      23.57813454      13.28214264
O       16.11054039      23.32735443      12.25565147
C       14.90880394      22.78844643      12.81025410
C       14.13282490      22.17354584      11.63893127
O       13.07241726      21.33282089      12.15917397
C       13.54844570      20.02052307      12.45403576
H       20.57143402      25.18750763      12.86203671
H       21.17185211      24.47646332      14.40176392
H       21.29937744      23.53900146      12.89279652
H       18.65662766      23.04513168      11.86515999
H       18.48917198      24.80833244      12.16373825
H       16.79824829      24.45520782      13.89968681
H       17.13752937      22.70603561      13.95705128
H       14.29365349      23.57234192      13.30447388
H       15.11765289      22.02800560      13.59029865
H       13.63085747      22.93019867      11.00605583
H       14.80493259      21.59078979      10.97389793
H       14.32609653      20.01660919      13.23770618
H       13.96178055      19.51025391      11.55383968
H       12.68941689      19.45093536      12.83025932
C       22.90695763      23.13851166      15.93105793
O       23.97186852      22.74281502      16.78086853
C       24.38744164      23.76710510      17.71881485
C       25.74527168      23.27275276      18.17285919
O       26.22046661      24.16347122      19.18917084
C       27.59146309      23.90357399      19.46974754
C       27.98203659      24.82306099      20.62145615
O       29.36487198      24.55549431      20.89416695
C       29.74893379      24.46086693      22.24960136
H       23.11572838      24.11345100      15.46686459
H       22.78151703      22.37022400      15.15427971
H       21.94206619      23.18522835      16.46793747
H       23.65172386      23.88137627      18.53510284
H       24.47321320      24.74049377      17.20136261
H       26.42655945      23.24088669      17.29723930
H       25.65901566      22.24255753      18.56135368
H       28.21970558      24.09634399      18.57797432
H       27.74563980      22.85233879      19.76960564
H       27.84726143      25.87953186      20.32558632
H       27.32159233      24.64343262      21.48758507
H       29.38664436      23.51917267      22.70074654
H       29.37908936      25.30846596      22.85781097
H       30.85256004      24.45445442      22.28665352
C        6.39819622      15.78008461       9.87312222
O        7.56839085      15.02082443       9.61248112
C        7.70727921      14.76251030       8.21452236
C        8.96519470      13.94801140       7.97973394
O        8.92943573      13.66044044       6.56926489
C       10.17457104      13.19354057       6.03487778
C        9.96925259      12.83070374       4.56598282
O       11.24983788      12.60806179       3.93667531
C       11.53722858      13.53942490       2.87589955
H        5.48447847      15.17702484       9.69593239
H        6.37075853      16.09356117      10.92387676
H        6.34174490      16.67324829       9.22061729
H        7.77293110      15.71291733       7.64345264
H        6.83748817      14.20837688       7.82121801
H        8.97648430      13.01572990       8.57505894
H        9.84073639      14.55879593       8.24484730
H       10.55433941      12.32570362       6.61697006
H       10.90843773      14.02145004       6.07863426
H        9.33887005      11.93124008       4.43437862
H        9.44253826      13.65974617       4.06475592
H       11.84387207      14.51799107       3.27158308
H       10.64997959      13.67051029       2.22919726
H       12.36466885      13.13260460       2.27334166
C        3.78609514      26.73649025       4.34090185
O        4.35224533      25.44598198       4.30230999
C        4.99453306      25.06654549       3.08468103
C        5.61034679      23.69948387       3.39095283
O        6.22489214      23.19670296       2.19450498
C        7.15573263      22.13731956       2.44026113
C        7.95873213      21.87106133       1.14735341
O        8.53396320      20.55773163       1.19114530
C        9.72239685      20.45277214       1.97905385
H        3.02502751      26.88433456       3.55518436
H        3.29186344      26.83597565       5.31724358
H        4.56913471      27.50623894       4.25811100
H        5.79387808      25.77768707       2.81521106
H        4.26566458      25.00829124       2.25801659
H        4.83910513      23.00772476       3.76740861
H        6.35341120      23.82312965       4.19837284
H        6.60701513      21.21418953       2.71022105
H        7.83411121      22.39015770       3.27354980
H        7.32154942      21.86376953       0.24357408
H        8.73171043      22.64584351       1.00714087
H        9.54788876      20.62604713       3.05242300
H       10.51103401      21.13288498       1.61878395
H       10.04676914      19.41187477       1.85151219
C       24.57919693       0.96974492      21.66989136
O       25.08374405       2.29560018      21.59480095
C       26.49763298       2.34650254      21.31281471
C       26.78918648       3.81949186      21.50803375
O       28.15361214       4.01229525      21.20212746
C       28.54811859       5.33267355      21.54791451
C       30.01945877       5.45036602      21.16342163
O       30.39862633       6.82993507      21.30035782
C       30.21319962       7.58846474      20.10183907
H       24.77925873       0.52133512      22.66115189
H       23.49352837       1.02395785      21.51656151
H       25.00227547       0.32371306      20.88040352
H       26.70991325       1.99007833      20.28255081
H       27.06422234       1.72046101      22.02519035
H       26.53551674       4.12866116      22.54200554
H       26.12676430       4.41292238      20.84486771
H       28.39422035       5.53759432      22.62707901
H       27.94575310       6.07198620      20.98394775
H       30.65959930       4.87218237      21.85129166
H       30.17125130       5.08571672      20.13029289
H       29.18305969       7.53951979      19.71181488
H       30.90086174       7.23961878      19.30770874
H       30.43283653       8.63192844      20.36439896
C       11.65795994       5.30334854      14.94367409
O       12.07004738       6.59729385      15.40045834
C       12.52402973       7.41549921      14.30569267
C       13.36239815       8.51900196      14.93913937
O       13.84106541       9.26999092      13.81739330
C       15.08327961       9.96422577      13.99898338
C       15.87152576       9.82297134      12.68126392
O       16.90908432      10.84043503      12.59924889
C       16.35663605      12.18653297      12.53674698
H       12.50797558       4.63012218      14.77129745
H       10.98848438       4.89535570      15.70917988
H       11.09356403       5.36842728      13.99729156
H       11.66635132       7.80380917      13.72224140
H       13.13069725       6.84535265      13.57892799
H       14.18798256       8.07520485      15.53121090
H       12.77769184       9.15166283      15.63982105
H       15.66673374       9.51259899      14.82290936
H       14.87122822      11.01725578      14.25736141
H       16.39656639       8.85493565      12.60543156
H       15.20377922       9.90992546      11.80156803
H       16.03230476      12.54356384      13.52623749
H       15.49678421      12.20902252      11.84245110
H       17.16934776      12.83176804      12.16113091
C       21.85956764      13.11721706      19.09904671
O       21.14253616      14.22965336      19.60870552
C       19.73962784      14.08587456      19.37159920
C       19.01298523      15.05575466      20.31414986
O       17.62124062      14.66893959      20.34297371
C       16.87790489      15.52301216      21.23596573
C       15.46488476      14.96879101      21.35992050
O       14.74642849      15.90049744      22.19245720
C       13.41749382      15.56612587      22.57328224
H       21.80419540      13.09201241      17.98370361
H       22.92055321      13.17723560      19.39021873
H       21.44396400      12.16553497      19.48775864
H       19.41693497      13.04053211      19.58077621
H       19.49324989      14.27220821      18.29189110
H       19.08491898      16.11215782      19.96244621
H       19.42916107      15.05636692      21.34493637
H       16.81814384      16.55463791      20.81855774
H       17.37682915      15.59568405      22.22976303
H       14.97901630      14.89308739      20.35627556
H       15.45866776      13.94582462      21.79926491
H       13.27462101      15.71105957      23.65664291
H       13.15905094      14.51649094      22.33258057
H       12.70536137      16.23147011      22.04459190
C        3.84030104      22.02125740      28.80650711
O        5.15592670      22.49978638      28.53320312
C        5.42768860      22.86430740      27.16243553
C        6.94622993      23.06236267      27.17794418
O        7.33068657      23.46695518      25.86012459
C        8.70641041      23.86895370      25.81628799
C        8.76824760      25.04718590      24.82770348
O       10.15651703      25.30995560      24.47749138
C       11.01559544      25.99668503      25.40217781
H        3.37479568      21.55534363      27.92589951
H        3.92924714      21.23919487      29.58474731
H        3.19291258      22.83273125      29.18315506
H        4.88583708      23.78212738      26.87356758
H        5.13325119      22.05757523      26.46894264
H        7.42494345      22.11348152      27.47559929
H        7.21037197      23.82772064      27.93265724
H        9.34959316      23.04989815      25.44662666
H        9.07398129      24.18319702      26.80712318
H        8.27817249      24.74649239      23.88568687
H        8.27518654      25.95579720      25.20743752
H       11.06963634      25.48434830      26.37638474
H       10.70802212      27.04753494      25.54141426
H       12.02301979      25.98670769      24.94182205
C       27.99547958      20.44398308      26.01836777
O       28.79875183      19.47256851      25.33275032
C       28.57048607      19.48326302      23.89682007
C       29.47238159      18.41386032      23.28181839
O       28.73739815      17.92704010      22.15739632
C       29.41799927      16.90401840      21.41267967
C       28.52083588      16.64825439      20.20159912
O       29.05142593      15.65785980      19.28337479
C       30.12644958      16.12294388      18.46115685
H       26.96286392      20.07142258      26.13613701
H       28.41265106      20.63215256      27.01610947
H       27.95993042      21.39363480      25.45641708
H       28.78360748      20.48726654      23.48735619
H       27.51653481      19.23846436      23.68047333
H       29.65396500      17.60537910      24.01534653
H       30.45715523      18.82381058      22.98547935
H       29.50373268      15.98753929      22.02621460
H       30.43503189      17.23411560      21.12371254
H       27.55051422      16.24008942      20.54201126
H       28.30143929      17.60368729      19.68108559
H       30.99351692      16.45673943      19.05043983
H       29.78564644      16.92298317      17.78456497
H       30.44946671      15.27410793      17.84706306
C       21.80641174      17.88244247      13.30554390
O       22.88394547      18.80547333      13.26069641
C       24.04084206      18.37761307      14.00154781
C       24.97204781      19.56928062      14.04753017
O       26.11401367      19.15876007      14.80239296
C       26.93086433      20.29012871      15.10009480
C       28.17983818      19.73421669      15.78991604
O       29.03467178      20.82371140      16.17564964
C       29.83057213      21.32269096      15.09649563
H       21.54973221      17.59655190      14.34015274
H       20.92286301      18.36155510      12.85240364
H       22.01502609      16.95328140      12.73586464
H       24.49110794      17.48473930      13.52560043
H       23.75999832      18.11577415      15.03323555
H       24.45532799      20.42922974      14.51980114
H       25.25328445      19.86494255      13.01959801
H       26.38253212      21.01189423      15.73628902
H       27.20402145      20.81196404      14.16160107
H       27.89568901      19.21030617      16.71742630
H       28.69450378      19.00656509      15.13380432
H       29.21681213      21.74580765      14.28745842
H       30.46426010      20.52790451      14.66327572
H       30.47282791      22.10812187      15.52444649
C       12.10890293       9.71897984      20.36913681
O       11.77878284       8.33046722      20.21135521
C       12.04864883       7.59171247      21.40001678
C       11.62432575       6.17734814      21.02623558
O       11.86534023       5.34041691      22.16917419
C       11.41985321       4.00209045      21.95113182
C       11.82585621       3.23031044      23.20958710
O       11.61091042       1.82739365      22.99689102
C       10.33999062       1.35525382      23.38918686
H       13.19844818       9.88716221      20.40667343
H       11.68068790      10.22776222      19.49553490
H       11.67194653      10.14617634      21.28644562
H       11.46838474       7.98769426      22.25917053
H       13.12118435       7.62256813      21.67861176
H       12.16921902       5.81313753      20.12700462
H       10.55694962       6.14997530      20.73006248
H       11.88552094       3.54939318      21.05054283
H       10.32096004       3.97948575      21.75546074
H       12.90501785       3.37988019      23.36513329
H       11.30805111       3.59275603      24.11799431
H        9.56492233       1.58307350      22.63533020
H       10.00447273       1.76237571      24.36173820
H       10.40072632       0.26251954      23.48278236
C        2.24125528      26.70639420      10.11672306
O        2.83927178      25.48366165      10.53324413
C        2.74288201      25.25929260      11.94883156
C        3.34878182      23.87774277      12.11652088
O        3.29948783      23.55460358      13.52121544
C        3.63547969      22.18436813      13.78223419
C        2.80568981      21.81188583      15.01992702
O        3.24267435      20.52217102      15.47988796
C        2.37932062      19.41916847      15.22562027
H        2.66749859      27.55893517      10.67131138
H        2.44892693      26.81941223       9.04800320
H        1.14768672      26.67269135      10.26472759
H        1.69969749      25.28639412      12.29964161
H        3.30542421      26.03089333      12.50669193
H        4.38835764      23.85085297      11.73719215
H        2.76222444      23.15152359      11.52516270
H        4.71764994      22.06665993      13.97916794
H        3.38595176      21.53589439      12.92332172
H        2.96578145      22.53857231      15.83822536
H        1.73529494      21.82817650      14.77055931
H        2.02122068      19.42271423      14.18160152
H        1.49744356      19.43505287      15.88613605
H        2.95653105      18.50565147      15.41509724
C       12.59702206      12.28376293      15.42525101
O       11.32062912      12.28605556      14.83718014
C       11.23056698      11.42748928      13.70288277
C        9.81994247      11.60327148      13.21980286
O        9.59154224      10.77681637      12.06189632
C        8.29123211      11.02973175      11.53489590
C        7.84286737       9.80928516      10.74708366
O        6.38385534       9.85813522      10.85360241
C        5.64816427       8.72766972      10.44383049
H       13.36304188      12.63083935      14.69291782
H       12.58886242      12.96830082      16.28091621
H       12.86684704      11.26723194      15.78316212
H       11.46692848      10.37430382      13.95244503
H       11.94894505      11.71892452      12.90175533
H        9.65925407      12.67133808      12.97984886
H        9.09962177      11.34518147      14.02377319
H        8.28054237      11.94808578      10.89942932
H        7.55908489      11.20829296      12.34540367
H        8.14367771       9.77905750       9.67559528
H        8.23479939       8.88159561      11.21343613
H        4.64946461       8.79363346      10.89837265
H        6.08832407       7.77835608      10.81510162
H        5.55674171       8.65496063       9.34492493
C       16.67266846      23.99886513      18.75625038
O       16.67683220      22.66943169      18.27325630
C       17.02540207      22.53979301      16.88388443
C       16.73105812      21.08767700      16.52389908
O       17.06076813      20.87788963      15.13337135
C       16.71938896      19.56218147      14.69036007
C       17.15107918      19.43734550      13.22024155
O       16.83576775      18.12166023      12.65898895
C       17.70730209      17.08323288      13.11789131
H       15.79007149      24.55378532      18.37313652
H       16.58788872      23.96915627      19.85391235
H       17.58849716      24.54030418      18.45590782
H       18.08696175      22.82128906      16.71275711
H       16.38590431      23.19778442      16.25221825
H       15.65899849      20.88400650      16.69111252
H       17.30268097      20.39715767      17.18091583
H       15.62772751      19.37166023      14.79516315
H       17.25321388      18.81854057      15.30289841
H       16.58210754      20.14210320      12.58192158
H       18.23338890      19.65969276      13.10490799
H       17.94222069      17.15867043      14.19420528
H       18.66770935      17.10021400      12.55316353
H       17.18485641      16.12827110      12.92789078
C        2.14644885      16.36021042      28.75669861
O        2.74846554      15.69480705      27.65171051
C        2.02684402      14.58031654      27.09713745
C        3.06412959      13.73915291      26.37102890
O        2.39665699      12.52011395      26.01454163
C        3.01489639      11.79585934      24.94258881
C        1.97771263      10.84777927      24.38282585
O        2.65474701      10.10560608      23.33689308
C        1.85619044       9.57918549      22.28463936
H        1.94176126      15.66055393      29.58481598
H        2.83114934      17.14789391      29.09590912
H        1.18324816      16.81258202      28.45727730
H        1.24530923      14.90901089      26.38798141
H        1.54037690      14.00603008      27.90368271
H        3.90903997      13.53748798      27.05441856
H        3.43433785      14.26013947      25.46566772
H        3.89076710      11.23510933      25.32826424
H        3.31265545      12.46578789      24.11153603
H        1.58097112      10.18347740      25.16777611
H        1.13617623      11.43401623      23.97625923
H        1.66660488      10.33471775      21.50517464
H        0.88452131       9.22124195      22.64832878
H        2.37750053       8.72812271      21.83211136
C       16.60303688       8.81976032       8.45030212
O       17.68832016       8.14113808       9.11635113
C       17.25463295       6.85513592       9.62835693
C       18.47590256       6.20318651      10.25313759
O       18.07332420       4.88268280      10.59140682
C       19.14679146       4.10011530      11.11070347
C       18.60288239       2.68880773      11.11636066
O       19.68654060       1.83693790      11.56612396
C       19.37766075       0.44917354      11.37386322
H       15.80720520       9.08456993       9.16921711
H       17.00543976       9.72315216       7.97254372
H       16.13619804       8.17061710       7.68416786
H       16.85545349       6.24993324       8.79177189
H       16.42194557       6.97329044      10.35224247
H       18.82033157       6.75681257      11.15185547
H       19.30610275       6.17832518       9.51837444
H       19.45325279       4.44611502      12.11619854
H       20.03151321       4.14234781      10.44495201
H       17.73114586       2.60190725      11.79007530
H       18.25921631       2.39092541      10.10867310
H       19.64710617       0.11066679      10.35481262
H       18.29763412       0.25967088      11.50530815
H       19.96317291      -0.12612037      12.10805893
C       19.84677315      27.53531837       9.76608372
O       20.25258255      26.20807076      10.07476330
C       21.48857689      25.84445381       9.42449093
C       21.85175705      24.52193260      10.08436775
O       22.93447495      23.94810486       9.35671425
C       23.60045624      22.96790695      10.16505527
C       24.72164154      22.40861893       9.28556919
O       25.48165894      21.41234398      10.00587082
C       26.39838028      21.92715263      10.97284031
H       19.62259674      27.63928413       8.68877602
H       18.93421745      27.72734070      10.34344673
H       20.62152863      28.26526260      10.04941273
H       22.26841736      26.60354614       9.60937500
H       21.34288597      25.72142410       8.33413315
H       20.96934509      23.85384369      10.06363583
H       22.08676147      24.69926262      11.14904976
H       22.88594627      22.16736794      10.42995167
H       23.98228836      23.41836739      11.09886932
H       24.28424454      21.88719559       8.41870403
H       25.37754822      23.21974754       8.94218826
H       25.90320969      22.49213409      11.78218937
H       27.17650604      22.55372620      10.50345802
H       26.86247635      21.04802704      11.44934940
C        5.63202620      16.54623032       0.17578521
O        4.94673824      15.68241405       1.09030545
C        4.87194157      14.33292007       0.58915854
C        4.21388388      13.56425953       1.72241867
O        3.99331713      12.22221184       1.26502132
C        3.46012783      11.43873882       2.33912539
C        3.14405274      10.06754971       1.75269580
O        2.50979185       9.32424641       2.81893182
C        3.15620565       8.14473248       3.24489164
H        5.25023270      16.41739082      -0.85601372
H        5.42590714      17.57230568       0.51842701
H        6.71818638      16.35807610       0.16862671
H        5.87279892      13.92138290       0.35692194
H        4.27978849      14.29333305      -0.34868279
H        3.26141167      14.04472923       2.01925564
H        4.84847403      13.59425926       2.62509632
H        2.53804803      11.89841366       2.75065041
H        4.18414116      11.35522079       3.17129779
H        2.43684912      10.15412140       0.90902174
H        4.04271841       9.57134342       1.35680413
H        4.01696730       8.34689999       3.90393329
H        3.48816562       7.51817751       2.40157652
H        2.42010450       7.57351208       3.83086061
C       28.67802048      10.68485832       9.03901100
O       29.16005707      11.97543526       8.71015263
C       28.79765892      12.95648479       9.69747162
C       29.52723312      14.23001766       9.30152893
O       29.06117439      15.26480103      10.16030598
C       29.62570381      16.51910782       9.77962399
C       28.97013474      17.56226349      10.70256710
O       29.08346939      18.87721062      10.15447903
C       30.43268776      19.35062408      10.08533096
H       27.58422661      10.61321831       8.90627003
H       29.15257645       9.95085430       8.37594414
H       28.89797211      10.41856766      10.08828831
H       29.07761574      12.65001488      10.71897507
H       27.70813179      13.13529587       9.71390629
H       29.30776596      14.44722271       8.23664570
H       30.62188148      14.09427834       9.39675331
H       29.40562630      16.74169350       8.71691418
H       30.72793770      16.51019287       9.90109444
H       27.88976097      17.35430145      10.76050949
H       29.38323212      17.52028465      11.72924423
H       31.04002380      18.75411034       9.38401318
H       30.92176819      19.35996819      11.07160950
H       30.35446930      20.37682343       9.69698811
C       11.31992054       5.92990828      30.08757210
O       11.59319782       7.10450411      30.84366608
C       11.27462196       8.26874733      30.05089188
C       11.67331696       9.48326111      30.88431549
O       11.46188927      10.60498619      30.01875305
C       12.15611839      11.77725124      30.48595047
C       11.91149235      12.84248352      29.42249489
O       12.26040077      14.11137199      30.00004387
C       11.16090775      14.92300415      30.46782684
H       11.92748070       5.89390612      29.16272736
H       11.52286625       5.06159258      30.72684097
H       10.26103592       5.92034483      29.77742195
H       10.19908905       8.28220272      29.80097580
H       11.83488178       8.24165535      29.09758377
H       12.73450661       9.42028046      31.19753838
H       11.06914711       9.56696033      31.80757523
H       13.24074078      11.57862473      30.57629204
H       11.79107666      12.11912346      31.46756744
H       12.53887177      12.67576408      28.52382660
H       10.87134361      12.81909084      29.05647659
H       10.68849754      14.51670551      31.37364006
H       10.38609123      14.99689388      29.68953514
H       11.55644417      15.92220116      30.68043900
C       14.57543945       7.65689087      23.96745682
O       15.25584221       7.22494221      22.77986336
C       15.39954376       5.79364872      22.66103554
C       16.28878975       5.49481869      21.46128654
O       16.24509621       4.06980181      21.32639885
C       16.63249016       3.55144262      20.05411911
C       16.28053093       2.06445384      20.10243416
O       16.63980103       1.38014829      18.89060593
C       15.65274334       1.26425850      17.88629150
H       15.22511673       7.62818956      24.85971642
H       14.21824837       8.68834400      23.80982018
H       13.68954659       7.02482700      24.16386414
H       14.39893246       5.36226988      22.50132561
H       15.81396866       5.38755798      23.60131073
H       17.31980705       5.85905790      21.63048172
H       15.88791561       5.99193335      20.55495834
H       17.71269798       3.69135761      19.85113335
H       16.05490685       4.02448368      19.23133469
H       16.83640289       1.59020472      20.92527580
H       15.20495033       1.98220813      20.32587433
H       15.33651924       2.23841429      17.47596741
H       14.76555538       0.73263627      18.26719475
H       16.06321335       0.67007691      17.06622696
C       14.52168369      18.65208244       7.22620916
O       13.63822746      18.81290245       8.33588409
C       13.06394482      20.13521957       8.39474392
C       11.84169388      20.01980209       9.29143715
O       11.34380913      21.33188248       9.48547268
C       10.35815811      21.39300919      10.53724766
C        9.85194302      22.82584763      10.57008171
O        8.89126301      23.03458214      11.62039471
C        7.72822952      22.22005463      11.58693886
H       15.24231720      19.48466110       7.14607811
H       15.04088211      17.68621063       7.32365894
H       13.93054771      18.63179398       6.27732372
H       12.75667286      20.47264862       7.38581896
H       13.78566074      20.85510826       8.81940174
H       12.10378361      19.53857994      10.25403500
H       11.08163929      19.38792610       8.79528522
H       10.81290436      21.13729477      11.51161194
H        9.52861118      20.69727707      10.32541847
H       10.67945290      23.51878738      10.79692841
H        9.44532776      23.11436844       9.58296013
H        7.82549381      21.29236794      12.17834663
H        7.40469742      21.95987511      10.56200504
H        6.88637352      22.77917099      12.02804089
C        8.13072491      25.94534302      13.17970276
O        9.38440418      26.49941063      13.57266235
C       10.47960091      25.74851227      13.00911903
C       11.74415302      26.40641975      13.52646065
O       12.81098175      26.09004784      12.61064243
C       14.05274582      26.67480850      13.04588604
C       15.03260231      26.45808029      11.87814999
O       16.39535141      26.57501602      12.28450108
C       16.70759201      27.86583519      12.82895756
H        8.08858395      24.86144066      13.37383270
H        7.34031105      26.45651627      13.75434589
H        7.92532921      26.08097076      12.09961891
H       10.40532970      25.80573463      11.90182304
H       10.41105938      24.67661285      13.26009846
H       11.99045086      26.07294846      14.55085087
H       11.60353661      27.50165176      13.55058289
H       14.40139008      26.16833305      13.96515560
H       13.91274452      27.75110054      13.26384926
H       14.91951466      25.44468307      11.46406364
H       14.80875969      27.17276764      11.06148338
H       16.16491699      28.06416702      13.76593781
H       16.47371483      28.65423012      12.09402561
H       17.77685165      27.85364151      13.08091831
C        6.73345566      17.04297256      17.16658783
O        8.13349438      17.19340706      17.40226936
C        8.67644691      18.14640617      16.46848869
C       10.12428093      18.38465691      16.87420273
O       10.57052326      19.45165253      16.01699638
C       11.78840256      20.04487228      16.54557228
C       12.21932220      21.15575790      15.58841896
O       13.45974445      21.72300911      16.03939056
C       13.29240894      22.67615509      17.09528542
H        6.52786684      16.65529251      16.15224075
H        6.34350777      16.33628845      17.90652275
H        6.21025801      18.00549316      17.27206802
H        8.11487675      19.09570122      16.51993942
H        8.53352737      17.74657059      15.43328667
H       10.77451611      17.49534798      16.75577545
H       10.17105675      18.67082977      17.94154167
H       12.57270336      19.27150536      16.62081337
H       11.60104656      20.41398239      17.57357407
H       12.37308407      20.75189400      14.56896114
H       11.44728947      21.93211365      15.45674229
H       12.46967125      22.38753128      17.77509308
H       13.06064320      23.67476463      16.66830063
H       14.20963764      22.71679306      17.70839882
C       25.24054337      18.96926308      30.22941971
O       25.27756691      17.53821945      30.04660606
C       24.06048012      16.84737587      30.42620277
C       24.48711395      15.39422035      30.60996628
O       23.31036186      14.62704086      30.87206459
C       23.58257294      13.22754860      30.80087471
C       22.24383736      12.52366257      30.63272285
O       22.58300781      11.20731735      30.15607834
C       21.69826889      10.62221813      29.21599579
H       24.81459236      19.22097206      31.21658707
H       26.28035927      19.32282639      30.17578888
H       24.64795876      19.43826675      29.42999458
H       23.30236626      16.92227745      29.62826157
H       23.64424515      17.28876495      31.35090065
H       25.22047615      15.31568909      31.42989540
H       24.97809410      15.03677654      29.67313957
H       24.14515686      12.87234497      31.68537712
H       24.15995026      13.00035381      29.88416481
H       21.67223358      12.44535732      31.57376480
H       21.63916016      13.06688690      29.88783455
H       22.31650734       9.78682899      28.82512856
H       21.41909981      11.28362942      28.37287903
H       20.76095009      10.27156353      29.68172836
C       14.05726337      16.72196579      17.64857864
O       15.42635822      16.43999672      17.95703506
C       16.24982643      17.30519676      17.17004967
C       17.68740463      17.08073616      17.64113045
O       18.52642632      17.76894379      16.68445778
C       19.66786575      18.46308136      17.22197533
C       20.11319351      19.44471169      16.10046387
O       21.53842354      19.58978271      16.03519058
C       22.15797615      20.02787399      17.26097298
H       13.75831318      16.25297165      16.68486404
H       13.40268421      16.33706093      18.44050026
H       13.89853287      17.80950165      17.52839088
H       15.92941189      18.35635948      17.30444145
H       16.12362671      17.07929039      16.08269310
H       17.93058968      15.99568176      17.65560150
H       17.82019234      17.46235085      18.67922020
H       20.47933197      17.73904037      17.45974159
H       19.40414238      18.98915672      18.16500473
H       19.80278778      19.03332901      15.12185383
H       19.61304474      20.42472458      16.19884491
H       21.88283539      19.35910416      18.10448456
H       21.83435249      21.06102371      17.49185371
H       23.25046921      19.97928429      17.11872673
C       28.85468674      11.77202797      19.04521561
O       27.67553902      11.00628281      18.82154274
C       26.42142296      11.54853535      19.35202599
C       25.42229271      10.58199692      18.76212502
O       24.15238762      10.64436436      19.45063400
C       23.39069176       9.48720455      19.13026237
C       22.24073982       9.45668221      20.12065125
O       21.60351753       8.14967918      20.09049606
C       20.51763916       8.06250668      19.18650055
H       29.11814308      11.84517574      20.11147499
H       29.67417526      11.25240517      18.53053284
H       28.73725700      12.79991531      18.66176414
H       26.26606178      12.59433365      19.01398849
H       26.42523003      11.59950542      20.45585632
H       25.84133911       9.56843090      18.87348938
H       25.26268196      10.74721336      17.66989517
H       23.97959709       8.56519318      19.27062035
H       23.04764938       9.48212528      18.06868362
H       22.62369919       9.63083649      21.14184189
H       21.46970558      10.23814011      19.96083260
H       20.83933640       8.02266598      18.12954903
H       19.80564690       8.90595818      19.29705429
H       19.96406746       7.12770033      19.39389038
C       21.28122711      15.07257366      15.57529926
O       21.91454315      15.40549946      16.79012871
C       22.89014626      16.46668434      16.71844482
C       23.50865555      16.50849533      18.11008072
O       24.17336464      17.77316093      18.19594383
C       24.83167076      17.94846916      19.45913506
C       25.24228287      19.42465019      19.47486305
O       25.90427780      19.77762985      20.71087646
C       25.08672714      20.39653206      21.70769119
H       21.95276260      15.07103539      14.69382763
H       20.91317749      14.02791882      15.74009895
H       20.41780281      15.74290562      15.36896229
H       22.38658905      17.42406654      16.48568153
H       23.63137436      16.23921204      15.92651558
H       24.20178795      15.65720749      18.25998878
H       22.71056747      16.42601585      18.87633133
H       25.68883896      17.25624657      19.55772400
H       24.14254570      17.74113083      20.30519867
H       25.93697357      19.61069298      18.63112831
H       24.35141182      20.05555153      19.28380585
H       24.20772362      19.76963615      21.95188141
H       24.70143127      21.37607765      21.35646629
H       25.67064857      20.51592636      22.63235474
C        5.69434023      13.08098793      17.96827507
O        6.71933079      12.36951351      17.27089310
C        7.50672722      11.48115730      18.08588791
C        8.10795212      10.42983246      17.15503502
O        8.51030636       9.34597969      18.00906181
C        8.94624615       8.21192932      17.26241302
C        9.05692196       7.05678415      18.25563622
O        9.42716026       5.86414719      17.51043701
C        8.73388290       4.65733719      17.77441216
H        6.04438972      13.61441326      18.86622047
H        5.26445484      13.80542850      17.26664352
H        4.88488960      12.40282726      18.29052925
H        6.86150694      11.01061630      18.84999084
H        8.28436661      12.04839611      18.63504028
H        8.96379948      10.82633781      16.56808281
H        7.34241343      10.09886551      16.42519188
H        9.92439938       8.38460350      16.76377678
H        8.22461510       7.92470980      16.47262001
H        9.82481289       7.29021502      19.01255608
H        8.10190964       6.92133188      18.79051781
H        7.82486534       4.56532621      17.15467834
H        8.44451141       4.55221653      18.83608818
H        9.38675976       3.80733061      17.52453041
C       16.70516396      23.17559624      25.13624001
O       16.01545334      23.62623024      23.95667648
C       14.87623024      22.81822014      23.56810951
C       14.35715485      23.34324646      22.23703957
O       12.95597076      23.04911613      22.19787025
C       12.35531807      23.48185921      20.97290421
C       10.97816849      22.81179047      20.87944031
O       10.36466980      23.09125710      19.60607529
C        9.61316776      24.29494286      19.52521896
H       17.01872063      22.12909698      24.99703789
H       17.57318497      23.83524132      25.27530098
H       16.04012489      23.22219086      26.01702881
H       14.09941006      22.87083817      24.35785103
H       15.18662357      21.76515579      23.44296455
H       14.88374138      22.87943268      21.37833977
H       14.51623726      24.43915558      22.13040161
H       12.93826962      23.18144226      20.08467484
H       12.31441784      24.59915161      20.94201851
H       11.10974026      21.72312737      20.91598701
H       10.28595257      23.04451370      21.71506310
H       10.24734974      25.18638229      19.75081635
H        8.72217560      24.25741768      20.19069099
H        9.23915291      24.40402222      18.50006485
C       28.08222198      10.93924236      14.16443634
O       28.92910767       9.90193081      14.67107868
C       28.27614021       8.62680244      14.65721416
C       29.32890129       7.68260908      15.20925522
O       28.80266762       6.34978390      15.12065411
C       29.59670639       5.45903111      15.91171551
C       28.95052719       4.08386850      15.85648441
O       29.78566170       3.28700280      16.71775246
C       29.90707207       1.92377567      16.36428642
H       27.11817932      10.98753548      14.69800186
H       28.57424927      11.90799809      14.31112671
H       27.89689255      10.80345345      13.07771111
H       27.97538567       8.33411789      13.62730694
H       27.36498833       8.61766720      15.28199673
H       29.54485321       7.95649767      16.25820923
H       30.27251244       7.76042843      14.63693714
H       29.67136765       5.82688379      16.95357132
H       30.61987495       5.38064146      15.50421619
H       27.90676880       4.09783268      16.22410774
H       28.91140747       3.69459105      14.82314396
H       30.42141914       1.79607940      15.39160919
H       28.92146683       1.43013418      16.30204582
H       30.48742294       1.42651176      17.15774536
C       18.89890862       8.76667118       2.78624868
O       18.11293793       8.09063053       3.77511287
C       17.37946701       7.01754236       3.15574718
C       16.19515228       6.71038866       4.06111145
O       15.35267735       5.85138941       3.26690435
C       14.32737446       5.24592161       4.05998230
C       13.67748070       4.21589708       3.12793207
O       12.62949371       3.55960417       3.86814809
C       13.08152390       2.48927689       4.69267511
H       18.24877930       9.19726944       2.00334024
H       19.45648956       9.55791473       3.30569243
H       19.60126305       8.08105373       2.28072405
H       18.02716446       6.13773108       2.98081684
H       16.97166443       7.33791161       2.18122983
H       15.65877151       7.63583279       4.33713245
H       16.49173546       6.22984362       5.00981855
H       13.56769466       5.98239422       4.39367485
H       14.72567272       4.75938082       4.96543312
H       13.18738842       4.72592258       2.28185225
H       14.40548897       3.50539899       2.70852208
H       13.60814476       2.84208345       5.59515810
H       13.72852898       1.79600716       4.12929869
H       12.18342113       1.95133424       5.02855062
C       28.02718353      12.96659756      22.73433495
O       26.87320709      13.29285240      21.97725296
C       25.93990517      14.13552952      22.67812157
C       24.68997002      14.29051399      21.83471107
O       23.90069199      15.23516750      22.56925774
C       22.65608025      15.50346947      21.91720963
C       22.06368446      16.71039581      22.65042877
O       20.86495018      17.18087578      21.99671173
C       21.13262177      18.25724983      21.09788322
H       27.73301888      12.45700741      23.67255020
H       28.62351990      12.26213455      22.14109039
H       28.62690544      13.85944748      22.97346687
H       26.39840698      15.12438107      22.87032318
H       25.67919922      13.70516300      23.66779900
H       24.16756058      13.32410145      21.66971397
H       24.91835213      14.65540028      20.80365944
H       21.96359825      14.64329910      21.94335365
H       22.79871750      15.71043968      20.83719063
H       21.77550316      16.43227386      23.68387413
H       22.80608749      17.53648567      22.70574760
H       21.79765320      17.93901825      20.26279259
H       21.59732437      19.11861038      21.62224770
H       20.16649437      18.56011581      20.65279198
C       16.12270164      13.89327812       3.27120614
O       14.92329979      14.07087421       4.03276491
C       15.12603474      14.22007847       5.44599247
C       13.72362328      14.39978886       6.01677608
O       13.80378342      14.92108917       7.34568501
C       12.50189114      14.99523544       7.95801973
C       12.61610413      15.59968948       9.35886574
O       11.33130836      15.40571213       9.98803902
C       10.45027065      16.52363586       9.95089817
H       16.59897423      12.92654419       3.49336433
H       15.85288811      13.92738724       2.20853782
H       16.83758354      14.70277882       3.49225307
H       15.73377800      15.11835098       5.67655420
H       15.62485027      13.33427238       5.87874651
H       13.19373322      13.43023109       5.97182703
H       13.13869286      15.08253288       5.36604500
H       12.05222416      13.98691559       8.00953197
H       11.81884480      15.60672855       7.32757521
H       13.35380173      15.06718826       9.98119545
H       12.89062214      16.66892242       9.31946087
H       10.06059647      16.72157478       8.92771339
H       10.92786694      17.43284607      10.34644508
H        9.56843472      16.28185654      10.56706715
C       24.45167542       5.31250429      24.92963219
O       25.13358307       5.96123552      25.99493408
C       24.53166389       7.17605972      26.49884796
C       25.63386345       7.92479753      27.22326660
O       25.17436218       9.24412060      27.50799751
C       26.31396866      10.12027931      27.63748741
C       25.82420921      11.47458649      28.12733650
O       26.97967148      12.20559025      28.62532997
C       27.13996124      12.47351742      30.01428795
H       24.20189667       6.03852749      24.12562370
H       25.09664154       4.53701687      24.49460602
H       23.53612709       4.80671549      25.29678726
H       23.68519020       6.92862463      27.16789246
H       24.14375114       7.79396915      25.67015266
H       26.49314499       7.94892073      26.52748680
H       25.95013428       7.43064642      28.16061020
H       26.82125092      10.18458462      26.64852524
H       27.03970528       9.71200752      28.36454964
H       25.38373947      12.06069946      27.29960632
H       25.04623985      11.36104870      28.90058327
H       27.49913597      11.58984661      30.57908821
H       26.19431877      12.80048943      30.47757339
H       27.87099838      13.29066753      30.12057114
C       20.55094337       9.11193562      12.82358360
O       19.96059799       8.25154781      13.79597187
C       20.60677147       6.96745205      13.80555153
C       20.03851128       6.25593185      15.02205372
O       20.00745392       4.84557962      14.76488018
C       19.54358864       4.17747021      15.94731236
C       19.43668938       2.71391606      15.53314400
O       18.83975410       1.92747080      16.58626556
C       19.78371239       1.53980911      17.59139252
H       20.39200211       8.73026848      11.79136944
H       20.09890938      10.11108971      12.94659901
H       21.64350128       9.21389675      12.97335148
H       21.70823097       7.07889938      13.87869835
H       20.39344978       6.41358566      12.86596394
H       19.01296234       6.61933851      15.21887493
H       20.62048340       6.47922897      15.93837166
H       18.54792595       4.56037092      16.25530815
H       20.24226189       4.32959986      16.78910065
H       18.77092361       2.64062357      14.65519142
H       20.41142082       2.29260778      15.21490860
H       20.43024445       2.37882543      17.90804482
H       20.42050362       0.72221226      17.21324539
H       19.21538734       1.17294753      18.45720673
C        7.55172396       6.59744596      30.04883194
O        8.07158470       7.43446684      29.02128983
C        7.77461910       6.97596598      27.68330765
C        8.59586334       7.79449368      26.66774178
O        7.84714317       7.70577478      25.44280434
C        8.59144020       8.33644676      24.38459587
C        7.79107141       8.16237831      23.08534622
O        8.65976334       8.31172180      21.96527863
C        8.66933537       9.62906361      21.37273216
H        7.72991467       5.53076172      29.80748367
H        8.03012753       6.84111500      31.00814629
H        6.46135235       6.73450136      30.17044449
H        6.69640064       7.10471249      27.48913765
H        7.99949074       5.90033484      27.55584335
H        9.60686302       7.36058998      26.53489685
H        8.69518566       8.84398746      27.00846672
H        9.58372688       7.85556030      24.27691269
H        8.74544048       9.40869141      24.61483192
H        7.35271502       7.14096451      23.02069092
H        6.91769934       8.83659458      23.05012894
H        9.06475544      10.39116764      22.06187439
H        7.65224457       9.91376019      21.05813789
H        9.30601025       9.56906605      20.47528458
C       15.35317898       2.51450825       7.98541117
O       14.73744106       3.78727484       7.85173178
C       14.18528271       4.34000015       9.07139206
C       13.76000023       5.72557259       8.65349579
O       13.32934666       6.45605564       9.80358219
C       12.96515465       7.77303457       9.36419010
C       12.39958382       8.59849739      10.51177692
O       11.66581821       9.69612122       9.91297531
C       12.30005836      10.97748566       9.93614006
H       14.66809750       1.79444146       8.46199131
H       15.59675694       2.15976572       6.97960615
H       16.27114296       2.57534957       8.58641434
H       14.92560101       4.36499882       9.89221096
H       13.32238865       3.74731731       9.42769527
H       12.96237087       5.64640284       7.88273144
H       14.61694622       6.22407913       8.15564823
H       12.19950867       7.69352150       8.57716560
H       13.83440018       8.29085827       8.90469742
H       11.66521454       8.02444649      11.10458851
H       13.15711689       8.98075390      11.22161388
H       12.87939644      11.16549873       9.00268173
H       12.95773411      11.10566711      10.81851101
H       11.50052071      11.73679829      10.00078869
C       24.33737564       5.86520767      13.62280369
O       24.33205795       4.70859671      14.45261288
C       23.25345802       4.77480888      15.40287781
C       23.53985786       3.84086633      16.56241417
O       22.57065773       4.14876986      17.57600403
C       22.95797157       3.80449986      18.92278862
C       22.06403160       4.70525026      19.78115654
O       22.08308411       4.33731127      21.18515778
C       21.01474380       3.46922135      21.56759834
H       24.22149467       6.78145218      14.23026848
H       25.29272842       5.89975405      13.07724190
H       23.51026726       5.83292675      12.88383961
H       22.29298401       4.53301477      14.90442562
H       23.15203476       5.78977394      15.83248138
H       24.56407166       4.00253057      16.93072701
H       23.45420456       2.78542447      16.23605728
H       24.01814270       4.04229164      19.11564636
H       22.77800560       2.72937632      19.10881615
H       22.42337799       5.74645805      19.72251892
H       21.02983665       4.70160913      19.39037323
H       20.97435951       2.56695414      20.94121742
H       20.03723717       3.97583246      21.47270775
H       21.15394592       3.17843556      22.61820030
C       11.28478146      20.07182121      24.83125877
O       12.37545967      19.25841522      25.18172073
C       13.31463623      19.90615273      26.03518867
C       14.22764969      18.80615807      26.54119492
O       15.26074791      19.50322914      27.25358200
C       16.17760086      18.65634346      27.94231987
C       17.13626480      19.62887383      28.63838577
O       18.04045677      18.84813690      29.43150330
C       18.62841797      19.45589256      30.56940842
H       11.60849762      20.94923019      24.24285507
H       10.59702682      19.47943497      24.21092796
H       10.69506168      20.39200211      25.71342659
H       12.81272602      20.41926193      26.88497162
H       13.89328766      20.65223885      25.45944214
H       14.63205528      18.19177818      25.71311760
H       13.64121342      18.12413979      27.18148994
H       16.70439911      17.98291206      27.23620415
H       15.67208195      18.02104568      28.69649124
H       17.67297554      20.19231987      27.85254478
H       16.58500481      20.35690308      29.26689911
H       18.13345909      19.12269020      31.50092888
H       18.56615829      20.55908203      30.54629326
H       19.68868828      19.16524696      30.65424919
C        7.95158577       9.30494881       2.26471567
O        8.77863026       8.20357800       2.66398811
C        8.13439465       7.31041050       3.61030984
C        9.05749321       6.09538126       3.64975619
O        8.62989616       5.25070143       4.73339128
C        9.41249180       4.05077219       4.73648310
C        9.10329056       3.30909920       6.04673910
O        9.53428555       1.93248463       5.90955782
C        8.59788609       1.05566788       5.29833937
H        7.56504393       9.86594296       3.13042593
H        8.56866169       9.95573521       1.63077950
H        7.08392048       8.95583725       1.67389774
H        7.12764454       7.03704500       3.25471020
H        8.01460266       7.79098034       4.59681940
H       10.10286522       6.41567421       3.81506610
H        9.02640057       5.55377483       2.68411064
H       10.49467850       4.26486635       4.71412849
H        9.15495586       3.41417360       3.86844850
H        9.67580509       3.74112988       6.88765287
H        8.02290058       3.37077141       6.27803707
H        8.20138359       1.47100377       4.35738468
H        7.74031305       0.84019947       5.97431755
H        9.09925652       0.09873205       5.11443186
C       27.18622398      24.26909447       6.96852827
O       26.30775261      25.02112579       6.15426493
C       24.91236115      24.67524338       6.24916220
C       24.22732735      25.52462578       5.18820047
O       22.82225609      25.48353958       5.46315575
C       22.05849075      26.10817146       4.42786121
C       20.62083244      26.19919968       4.93613529
O       19.84128571      26.68261147       3.83745694
C       18.85324478      27.65098381       4.16729689
H       27.13462257      23.19305229       6.73227453
H       28.21576691      24.62201881       6.80530643
H       26.95051384      24.37711906       8.04680634
H       24.51317024      24.88092995       7.25695086
H       24.75114250      23.60408401       6.04544067
H       24.43945885      25.14131927       4.17496777
H       24.61028671      26.55611229       5.23194885
H       22.12351608      25.52064514       3.49349594
H       22.43418503      27.12530518       4.22551203
H       20.25108528      25.20730019       5.25071764
H       20.55503273      26.86430359       5.81793976
H       19.30274582      28.64549637       4.32091522
H       18.26375389      27.37075233       5.05314398
H       18.15150070      27.71545029       3.32429194
C       20.93984222      13.30289078       4.08285952
O       21.58831406      13.87675190       5.20510530
C       20.89484406      14.99791145       5.78675938
C       21.84355736      15.51081944       6.84559870
O       21.33393097      16.74616241       7.34075022
C       22.30850410      17.44348717       8.12899590
C       21.71260834      18.81054688       8.43485165
O       22.70363998      19.60051155       9.09162712
C       22.76547813      19.45970535      10.51671410
H       20.80193901      14.04373169       3.27630019
H       21.55103111      12.47126865       3.71183610
H       19.95577049      12.89239597       4.35292768
H       19.91447830      14.72070503       6.21295404
H       20.70314598      15.77369499       5.02756453
H       22.83309555      15.66355991       6.37147665
H       21.95918083      14.77937603       7.67107201
H       23.25243759      17.55933762       7.56723118
H       22.53565407      16.90593719       9.07171822
H       21.42286873      19.31439209       7.49813747
H       20.79628181      18.73832703       9.03925514
H       22.73738670      18.40334892      10.83025646
H       21.91429901      19.95312119      11.02672768
H       23.70690155      19.89293671      10.87305641
C        2.45165515       5.47213984      14.27484035
O        3.52044535       5.15501261      13.39528656
C        4.58789730       4.41762781      14.01573753
C        5.57285023       4.18496466      12.86279297
O        6.79371834       3.61612725      13.38987923
C        7.63373852       3.21712160      12.28757668
C        9.06323147       3.07327938      12.81852531
O        9.96041107       3.00942850      11.69243717
C       10.12752151       1.71740973      11.09475803
H        2.81825399       5.94025373      15.20711040
H        1.78414941       6.17684698      13.76542473
H        1.85779369       4.58290482      14.53635693
H        4.19683933       3.45075870      14.38813591
H        5.01181793       4.98785830      14.86115646
H        5.78990459       5.14074326      12.35395241
H        5.11693764       3.50052643      12.12681961
H        7.65130234       3.95652509      11.47286892
H        7.24604940       2.27209735      11.85403061
H        9.26410294       3.98312283      13.39511776
H        9.18916416       2.18778563      13.46373367
H        9.15104198       1.23058593      10.90041447
H       10.71704674       1.03226507      11.72882080
H       10.66847038       1.83119833      10.14042950
C       18.45349884      18.88237000       3.74189663
O       17.17210770      19.48338699       3.51601839
C       16.97460938      20.66431618       4.31565619
C       15.54065800      21.12442207       4.07396984
O       15.31252193      22.06910515       5.11413622
C       14.04817104      22.74115944       5.06691933
C       14.12283516      23.74979973       6.22200108
O       12.90447521      24.51981926       6.26033878
C       13.05622101      25.91480637       6.05898952
H       18.54078293      18.56534576       4.79611969
H       18.52337074      18.00259972       3.09074783
H       19.27545738      19.58888054       3.52954984
H       17.67948341      21.46133423       4.02299213
H       17.11796951      20.45580864       5.39144945
H       14.82318974      20.28560257       4.14110279
H       15.42356777      21.56757164       3.06667089
H       13.20508289      22.04338264       5.20692921
H       13.91409016      23.25102615       4.09336662
H       14.22284698      23.20736504       7.17836094
H       15.01123333      24.38936615       6.10982466
H       13.49713707      26.15245628       5.07206059
H       13.67144394      26.37365341       6.85158348
H       12.04849148      26.35077858       6.12069464
C       15.73853397      12.54858685       9.06370354
O       16.58694839      13.47325039       9.75736618
C       16.83262634      14.57781506       8.85814285
C       17.49236679      15.67366409       9.67433357
O       17.63347435      16.75061798       8.74040794
C       17.99147034      17.98859978       9.38975525
C       18.16328430      18.98124886       8.23262310
O       18.88999176      20.15346909       8.63936329
C       18.53716087      20.77635574       9.88342381
H       16.21997833      12.18231678       8.13726521
H       15.52695084      11.69741344       9.72951412
H       14.78875446      13.03022766       8.77120018
H       15.87972355      14.95593071       8.45084476
H       17.42860794      14.22978878       7.98839903
H       18.46960068      15.37791634      10.10209942
H       16.84568787      15.95926571      10.52469635
H       18.93622208      17.88109016       9.95611572
H       17.21258163      18.30053711      10.11070538
H       18.72133446      18.51752663       7.39783001
H       17.17425728      19.26496124       7.83319378
H       18.60026550      20.08552170      10.74785805
H       17.49869537      21.16941643       9.85454750
H       19.23247528      21.61732292      10.03002453
C       27.44248581       2.69294810      27.71224403
O       28.28191185       3.68995190      28.25132561
C       28.54884338       4.71476412      27.28714752
C       29.22705460       5.82596064      28.07972145
O       29.35444450       6.87791252      27.14087868
C       30.04656029       8.00386333      27.68830681
C       30.00493431       9.06139851      26.56993294
O       30.84136963      10.15466404      26.97403336
C       30.37086296      10.96949100      28.05686378
H       27.88187218       2.20708871      26.82159805
H       27.28065491       1.94665146      28.50262070
H       26.47034645       3.12564325      27.41586113
H       27.61724472       5.10397339      26.84350777
H       29.18420982       4.33978510      26.45977974
H       30.20682907       5.51097202      28.48218536
H       28.59835434       6.12130833      28.94478035
H       31.09541893       7.75535488      27.92794800
H       29.56431007       8.38686657      28.60750771
H       30.40947723       8.64822674      25.63190269
H       28.96942139       9.38473320      26.35433960
H       30.31213951      10.44637394      29.03257942
H       29.35894775      11.35822582      27.82781029
H       31.07323456      11.81303787      28.13311958
C       11.38669300      10.92743587      24.41646576
O       12.45553207      10.75034428      25.33939552
C       12.40504074       9.62430573      26.23498344
C       13.66471577       9.85713768      27.06737137
O       13.98551464       8.70854855      27.85531807
C       14.93969440       9.09214592      28.83922958
C       15.49128628       7.83161688      29.48485947
O       16.51494026       8.26836967      30.41021156
C       17.71166229       7.48640537      30.48265839
H       10.43868923      11.19387245      24.91520119
H       11.67077827      11.72862434      23.72293091
H       11.20385265      10.01469898      23.81743431
H       12.41413879       8.67499256      25.66715431
H       11.48231125       9.64666176      26.84893608
H       13.49575043      10.74701786      27.70406723
H       14.50663853      10.10954571      26.38988304
H       14.48793316       9.78037453      29.58803368
H       15.79045200       9.63784313      28.38525963
H       14.69979286       7.28798914      30.03058624
H       15.90217590       7.16369104      28.70830345
H       18.52134514       7.99697733      29.92451096
H       17.55443573       6.49266291      30.04163551
H       18.03531265       7.37257433      31.52689171
C       16.31530380      24.92387772       9.18638039
O       16.70196342      24.15614891       8.04859352
C       18.13030815      23.99997711       7.91194153
C       18.33555031      22.96796989       6.81282854
O       19.76253319      22.84094238       6.74058437
C       20.23661232      21.96411896       5.71218824
C       21.76338005      22.07766342       5.77026272
O       22.34144974      21.59206581       4.53029108
C       22.40821838      20.17816734       4.34149694
H       16.91859818      25.84443855       9.30045223
H       15.25273323      25.18961334       9.05048370
H       16.38008499      24.34984970      10.13083649
H       18.57393837      23.65472984       8.86382484
H       18.59925461      24.96614838       7.65162325
H       17.92117691      23.29670525       5.83748960
H       17.85568237      22.01105499       7.08163691
H       19.86498070      22.27830315       4.71559000
H       19.88883972      20.93203926       5.88947773
H       22.03412056      23.14072609       5.83354282
H       22.17264938      21.55606651       6.65329981
H       21.43003464      19.69452858       4.49767971
H       23.14096832      19.71171570       5.01517010
H       22.70553017      19.99790573       3.30085397
C       17.13197899       9.74957752      23.29614258
O       17.42549896      10.58855438      22.18337059
C       16.38049316      10.58649063      21.21006393
C       16.94219971      11.39296722      20.05619240
O       15.98345661      11.45668793      18.99435806
C       16.42078400      12.49552441      18.10132790
C       15.66181469      12.38681316      16.77232170
O       16.41415977      13.12081909      15.77308750
C       15.87450695      14.42227077      15.43373775
H       17.05880356       8.69118881      22.98590851
H       17.92012787       9.89374638      24.04358482
H       16.16163635      10.01027298      23.77490997
H       15.45154572      11.04530144      21.62133789
H       16.09202957       9.55803776      20.89702415
H       17.89647293      10.94066525      19.67195892
H       17.18337631      12.40771198      20.43741035
H       17.50929260      12.38782883      17.88530922
H       16.31388092      13.48123932      18.59875488
H       15.61016941      11.34169579      16.41032982
H       14.61863422      12.75162888      16.82631302
H       15.46756744      14.92506504      16.32929420
H       15.05294514      14.33292007      14.69304657
H       16.69792366      15.03034782      15.01989079
C        5.89571142      18.81104660      13.12609291
O        5.69328070      19.75758171      12.06697750
C        4.68576574      19.42945671      11.09433460
C        4.79559565      20.54548645      10.07859325
O        3.73540163      20.38582230       9.13501644
C        3.83375478      21.42636871       8.16028690
C        2.74188852      21.16950607       7.12677479
O        2.92623782      22.13083076       6.07422447
C        1.80432665      22.95173073       5.77001381
H        6.49300957      17.94916344      12.78743935
H        6.39604378      19.34368324      13.94739437
H        4.93376493      18.42043495      13.50458241
H        3.68199086      19.38073349      11.55082226
H        4.87962675      18.45152092      10.62464809
H        5.78032875      20.48982620       9.57684135
H        4.73608780      21.52481651      10.58659649
H        4.82367802      21.41676140       7.66418028
H        3.71582174      22.41369820       8.64348221
H        2.83481646      20.15894699       6.69383287
H        1.73776639      21.22459793       7.57629442
H        1.55543530      23.64238739       6.58833551
H        0.91837847      22.34242630       5.53525972
H        2.07624650      23.53542519       4.88218737
C        1.38214028      13.37862873       6.71018505
O        2.72156429      13.84407806       6.89774513
C        3.34959149      14.08532429       5.61852551
C        4.75295591      14.57084179       5.93397713
O        5.32774353      14.88192654       4.66310692
C        6.76357269      15.05454159       4.73199797
C        7.18636847      15.53074360       3.33873391
O        8.61841297      15.59873962       3.18212175
C        9.28951454      16.47586250       4.09314775
H        1.36685026      12.44276619       6.12553024
H        0.92540950      13.19626617       7.68726635
H        0.78554803      14.13508892       6.16839123
H        2.76947331      14.82831573       5.04087067
H        3.38755107      13.15705109       5.02811146
H        5.31295347      13.77852345       6.45901871
H        4.73209715      15.47156620       6.58681297
H        7.25212765      14.10214043       4.99622440
H        7.01548195      15.78927612       5.51971292
H        6.85546160      14.81704140       2.57093930
H        6.70398617      16.49789429       3.10652089
H        9.24468708      16.09211731       5.13425589
H        8.84121323      17.48853493       4.07064819
H       10.33862686      16.52259254       3.74574447
C       17.95200157       6.53424358      25.68177032
O       17.80480576       7.94726181      25.57194138
C       18.24656868       8.61162186      26.75295067
C       17.91251183      10.09764194      26.69536400
O       18.14249229      10.57475185      28.01798248
C       17.68227005      11.92426395      28.20388985
C       18.01208305      12.27505779      29.65260124
O       17.40517616      13.52244663      30.08000565
C       18.02283859      14.70815277      29.56098938
H       17.43721581       6.15116167      26.57983208
H       17.52893257       6.06759262      24.78182602
H       19.02233315       6.24136019      25.74272346
H       19.35227776       8.50137901      26.80389214
H       17.82564545       8.17442703      27.66999054
H       16.86332512      10.23315716      26.35706711
H       18.55561066      10.62269115      25.95907593
H       16.58700562      11.96218967      28.02569389
H       18.15118408      12.60161781      27.46308136
H       17.59553337      11.51423073      30.33493042
H       19.10651970      12.31718159      29.80731964
H       18.40241432      14.58013821      28.53573608
H       18.83354950      15.04671669      30.22440147
H       17.23986244      15.47597504      29.51864624
C       22.54609489       4.97402096       8.76178837
O       22.91306686       6.03278351       9.65897369
C       22.31359100       7.26865292       9.20966053
C       22.92217636       8.41242313      10.01659107
O       22.20790672       9.56084538       9.54174042
C       22.67410278      10.81618690      10.05803585
C       21.75471306      11.83981705       9.37934303
O       22.02588463      13.16605186       9.83508492
C       21.50735092      13.53264618      11.11788177
H       22.94177055       5.16681767       7.75155973
H       22.92473984       4.03504419       9.18230343
H       21.44586182       4.90618849       8.68707657
H       21.22301674       7.23752785       9.37785244
H       22.48425674       7.40374804       8.12804127
H       24.00947189       8.51755142       9.83361626
H       22.77328682       8.28640747      11.10508537
H       23.72897148      11.00510311       9.78010273
H       22.59303093      10.87396812      11.15875340
H       21.91680908      11.81785393       8.28699017
H       20.68974495      11.57274818       9.53681469
H       21.91209984      12.94262505      11.95926476
H       20.40325165      13.41747761      11.12994003
H       21.75200653      14.59383583      11.28046894
C        4.92865467      29.08680916      14.54877472
O        6.16817379      29.58170891      14.02894306
C        6.37531662      29.28595352      12.62497330
C        7.86211967      29.51625824      12.37349033
O        8.07575607      29.32488632      10.97411442
C        9.46222115      29.07524109      10.67565346
C        9.54813194      28.89619446       9.15816402
O       10.91156101      28.70722389       8.71938324
C       11.58967781      29.93800926       8.38478661
H        4.83484507      27.99684334      14.38658905
H        4.89862394      29.28756523      15.62989902
H        4.07410574      29.57436562      14.04388142
H        5.73770666      29.94051170      12.00411510
H        6.13277245      28.24066544      12.38328743
H        8.45435047      28.81022072      12.98469067
H        8.14915657      30.54875755      12.66380501
H        9.79426956      28.15560722      11.19530201
H       10.08957863      29.91248322      11.02497005
H        8.98700047      28.00656700       8.84187126
H        9.08408165      29.76159859       8.65243626
H       11.77864456      30.55767632       9.27099800
H       10.98821735      30.50548363       7.65453243
H       12.54517174      29.65904617       7.92161322
C       18.82506180      15.79599476      24.68408775
O       19.39231110      14.81371403      23.80828285
C       19.07755280      13.45112896      24.17617989
C       19.85441017      12.52100658      23.24687576
O       20.05490303      11.28958797      23.95731354
C       20.74812317      10.37251091      23.12338829
C       20.77380371       9.05303001      23.89832878
O       20.99179077       7.93677616      23.01149559
C       19.83304977       7.53324795      22.27178383
H       19.34855652      15.85026360      25.65386391
H       18.88577461      16.76024055      24.15877151
H       17.75472069      15.58939457      24.87587738
H       17.98760796      13.28278065      24.07601166
H       19.33387756      13.27802658      25.24143219
H       20.82255745      12.96642303      22.93131638
H       19.28022575      12.30675125      22.31245613
H       21.77743721      10.71645641      22.88749504
H       20.20530510      10.22744846      22.16821480
H       21.60431671       9.05957031      24.62776756
H       19.82102776       8.92145157      24.44293213
H       19.45655251       8.35336781      21.63370132
H       19.02736664       7.20858526      22.95278168
H       20.12150574       6.68836069      21.62587166
C        3.67368150      11.55488777      29.29440498
O        3.86302161      10.14213276      29.38460350
C        3.86340857       9.54440689      28.08910942
C        3.97703028       8.04337406      28.28677368
O        3.93794560       7.48356915      26.96723747
C        3.98680615       6.05837679      26.90925980
C        4.36672163       5.70549202      25.46447754
O        4.49202681       4.27682114      25.30554962
C        5.65388727       3.72125626      25.88907433
H        2.70974612      11.77097511      28.79697227
H        3.66181159      11.98069382      30.30808449
H        4.48058605      12.02417850      28.70369339
H        4.71306658       9.89836121      27.46972275
H        2.92861485       9.77271080      27.54204178
H        3.14436579       7.68371820      28.91378975
H        4.92526484       7.80475426      28.80071259
H        3.00190282       5.62914753      27.15875626
H        4.73045540       5.67833519      27.63310814
H        3.57691836       6.01731443      24.76172066
H        5.30560780       6.22266054      25.19737434
H        5.82668543       4.00476980      26.94027138
H        6.56173372       3.99439788      25.30535507
H        5.54376650       2.62711501      25.85311699
C       24.39697075      23.14156914      26.46182251
O       24.37272835      24.42930412      25.86477852
C       24.39255333      24.32151222      24.43612862
C       24.38655281      25.77057266      23.97747421
O       24.26172638      25.70987701      22.56049728
C       24.09041786      27.03547478      22.05271339
C       23.99772263      26.92541122      20.52649117
O       23.88970566      28.27084732      19.97945595
C       22.56602478      28.82535934      19.82783127
H       25.24334908      22.54024124      26.09319305
H       24.48325920      23.25130081      27.54980469
H       23.46618843      22.58919525      26.23256683
H       23.49928093      23.80623055      24.03169823
H       25.28131294      23.77106094      24.06385994
H       25.31966209      26.27192116      24.29222488
H       23.53662491      26.30414200      24.44690132
H       24.95102882      27.66901207      22.34997559
H       23.17345238      27.48367310      22.47969437
H       24.90521049      26.47124290      20.09631729
H       23.15100670      26.29946136      20.20540810
H       22.18173409      29.27092552      20.75933456
H       21.84518814      28.07430458      19.47367287
H       22.62686157      29.62060928      19.06220245
C        7.92822933       6.05506325       8.74431419
O        8.89957714       7.08835220       8.61487389
C        9.75697994       6.95858097       7.45589352
C       10.21425438       8.34918404       7.04426718
O       11.41183949       8.12839603       6.27405548
C       11.94676304       9.36709023       5.77356100
C       13.37290859       9.01218319       5.32679319
O       14.12664127      10.20790577       5.01445246
C       13.99005318      10.55606270       3.62088513
H        8.37180138       5.13506508       9.17345905
H        7.13620043       6.39492464       9.42548084
H        7.46871471       5.80627108       7.76866579
H        9.20469570       6.48955297       6.62360239
H       10.61723518       6.30641460       7.68720341
H       10.40281105       9.01539421       7.90958738
H        9.42848206       8.83096409       6.42738628
H       11.93427849      10.13130665       6.57531834
H       11.30806923       9.75712585       4.95595646
H       13.88675785       8.50612354       6.16639376
H       13.36739826       8.31486607       4.46560621
H       12.93336773      10.73617268       3.35997367
H       14.37154770       9.75138664       2.96369791
H       14.55463314      11.48447895       3.45657277
C        6.46623564      16.17303085      21.28538895
O        6.26559496      17.09914398      22.34293938
C        6.58975983      16.65458488      23.66685677
C        7.07855988      17.87152290      24.44444084
O        6.60806513      17.82799339      25.80997467
C        7.11581039      18.93965149      26.55591965
C        6.86336231      18.72383881      28.04516792
O        7.37651443      19.86660194      28.76372910
C        8.76278782      19.80624390      29.14937592
H        5.84232664      15.26903534      21.40383339
H        6.19039011      16.67378616      20.34878349
H        7.52427053      15.88840866      21.17267799
H        7.38543081      15.88409519      23.64714432
H        5.68787766      16.20106888      24.13820267
H        6.69993114      18.78888702      23.95367622
H        8.18549442      17.90075684      24.42820740
H        6.62198019      19.86762810      26.21128082
H        8.20424747      19.03697586      26.39743614
H        5.78699732      18.64702606      28.27923393
H        7.36314583      17.79999352      28.38504028
H        9.43081856      19.83546066      28.27351761
H        8.96612549      18.88161659      29.71069527
H        8.95599937      20.65354919      29.81961250
C       16.13730431      18.61969376      23.43241119
O       16.74955940      19.89391518      23.19933891
C       17.76367760      19.80193520      22.18008614
C       18.23808098      21.23172379      22.02328300
O       19.28067780      21.24119759      21.04508018
C       19.85371017      22.55600166      21.00835609
C       20.86955261      22.59810638      19.86286545
O       21.47153854      23.91032600      19.85167503
C       20.63763428      24.89994812      19.22299004
H       16.68685913      18.02564240      24.18758392
H       15.10503578      18.79090309      23.77351952
H       16.06804657      18.02549553      22.50404930
H       17.36542702      19.38517761      21.22296906
H       18.59287834      19.13031387      22.47571945
H       18.57189369      21.64406204      22.99898720
H       17.39328384      21.87939453      21.70437622
H       20.32324600      22.79604530      21.98159790
H       19.05169868      23.30268669      20.84157181
H       21.69456291      21.87887573      20.02409363
H       20.39776611      22.36263275      18.88254166
H       19.69937134      25.06278992      19.77768135
H       20.37275505      24.61774635      18.18736076
H       21.20371819      25.83730507      19.21000099
C        1.19990730      17.02382660       2.90128279
O        2.12341714      17.32223892       3.93728280
C        3.10564780      18.34169197       3.65381956
C        4.13350201      18.12777710       4.75554180
O        5.17471647      19.10047531       4.62136555
C        6.13811398      18.95676231       5.68375015
C        7.32109928      19.85916328       5.32514000
O        8.43634033      19.63723373       6.20737314
C        8.39589024      20.34257126       7.45801353
H        1.63928783      16.32645988       2.16976118
H        0.33463132      16.53972435       3.37563133
H        0.88123244      17.94135284       2.37790418
H        2.64245749      19.34371376       3.68620110
H        3.54559016      18.17944145       2.65213037
H        4.54345655      17.10957336       4.65410280
H        3.65280938      18.19795036       5.75485802
H        6.48714018      17.90978813       5.75206137
H        5.69036388      19.23170280       6.65953541
H        7.65172005      19.60069275       4.30506420
H        7.00597906      20.91602516       5.32983732
H        7.85985184      19.76715279       8.23298645
H        7.88544416      21.31666946       7.35809851
H        9.42609024      20.52423859       7.79845905
C        8.57857513       6.58189821      13.97945023
O        7.27654839       6.90218687      14.44846725
C        6.81813192       8.15578651      13.93465519
C        5.36544037       8.32878113      14.39151382
O        5.07797384       9.68896675      14.13543892
C        3.70350003      10.03864288      14.20641899
C        3.68932533      11.50148010      13.75277233
O        2.36791539      12.05207825      13.81574249
C        1.56828499      11.78546047      12.67485523
H        9.31423569       7.37119293      14.22069263
H        8.85580158       5.64279318      14.48295593
H        8.59064007       6.44833374      12.87340355
H        6.84384632       8.15978813      12.82675552
H        7.44139338       8.99957466      14.29277039
H        5.23741388       8.09132576      15.47004986
H        4.69854593       7.65932751      13.81416988
H        3.29477572       9.95258522      15.23509979
H        3.09308624       9.40617466      13.52931976
H        4.32116270      12.10670471      14.41957283
H        4.13199949      11.57487869      12.74348164
H        1.37697291      10.71285248      12.53335571
H        2.02600694      12.18997574      11.75961208
H        0.59478319      12.26431656      12.83734417
C       23.12062073       1.08219862      13.28274632
O       24.47429085       1.53888285      13.34823513
C       24.80586243       2.37052917      12.21963120
C       26.22132683       2.85588861      12.50817299
O       26.48423195       3.81108546      11.47746277
C       27.75410271       4.43928528      11.69969082
C       27.94383049       5.43687534      10.54347324
O       29.30575371       5.86307192      10.50620174
C       29.65423775       6.82636213      11.49901390
H       22.84471512       0.76974696      12.26071072
H       23.01927376       0.21127665      13.95375729
H       22.41272354       1.87380075      13.58360767
H       24.13291168       3.24147582      12.15127277
H       24.73388672       1.80340946      11.27417469
H       26.94808006       2.02457500      12.49391079
H       26.24574471       3.32071567      13.51215172
H       28.57753754       3.70702672      11.68984509
H       27.77848625       4.96498871      12.67160797
H       27.72618294       4.94011927       9.58364391
H       27.23250961       6.27815485      10.63594437
H       29.46345711       6.48179436      12.53008270
H       29.08588219       7.76305866      11.35328579
H       30.72864151       7.04154444      11.39384079
C        2.67822361      18.63995934      25.99243164
O        2.39586258      19.46598625      24.86532593
C        3.60154414      19.63471413      24.11393166
C        3.26238966      20.41576958      22.85659981
O        4.55362034      20.60640526      22.27994728
C        4.47815514      21.19203758      20.97800446
C        5.92199659      21.29393578      20.49894905
O        5.90875149      21.91398239      19.19440079
C        5.50515223      21.08630180      18.10218620
H        3.37286925      19.12885666      26.70187187
H        1.73300362      18.43235397      26.50932312
H        3.10185885      17.66490364      25.68845749
H        4.02178049      18.65402794      23.81615257
H        4.36635685      20.14728928      24.73153305
H        2.74602008      21.37065697      23.06991005
H        2.59199429      19.83200645      22.19829178
H        3.98320341      22.18562317      21.00697708
H        3.89791512      20.55702209      20.28804970
H        6.50737286      21.95899200      21.15484238
H        6.41823387      20.30850410      20.48652649
H        4.52753687      20.59636116      18.25034332
H        6.25226641      20.30483627      17.88643456
H        5.40572882      21.73118782      17.21962357
C        8.23576832      12.02772999      29.79376984
O        7.48206472      11.64077187      28.63575745
C        8.07986164      12.03492737      27.37583923
C        7.02464533      11.68825722      26.34045792
O        7.47406816      12.19483852      25.08368874
C        6.41070175      12.05864716      24.12341309
C        6.76429701      12.81294918      22.83675957
O        5.59984112      12.91236115      22.00422478
C        5.03538942      11.67334080      21.54950714
H        8.54822540      13.08343983      29.72121048
H        7.57778978      11.88947964      30.66075516
H        9.13292217      11.39850998      29.91073990
H        9.01806259      11.47577667      27.20441628
H        8.32527733      13.11116314      27.36350822
H        6.05133438      12.13563347      26.62681770
H        6.84898615      10.59461021      26.28569984
H        5.47930574      12.49799347      24.53297997
H        6.19471788      10.99639416      23.90046692
H        7.03022385      13.84529114      23.11443520
H        7.60853720      12.37773418      22.26306343
H        4.60517406      11.05795860      22.35727310
H        5.75186348      11.09050846      20.94344330
H        4.19130087      11.93983936      20.90123177
C       18.77926826      10.52370644       6.13142490
O       20.05791092      10.39566517       5.51518726
C       20.89485550       9.38419437       6.11500549
C       22.28665924       9.62696648       5.52964020
O       23.20383072       8.76435566       6.18987322
C       24.54731560       9.09488201       5.86053705
C       25.42922783       8.07005405       6.58916092
O       26.69150925       7.93918610       5.91455507
C       26.89761353       6.72955036       5.20500517
H       18.84433365      11.04867172       7.10183382
H       18.11238861      11.09572887       5.46617889
H       18.30418015       9.54228973       6.28999662
H       20.51065254       8.38095856       5.86300039
H       20.91471100       9.48224640       7.21476746
H       22.53513145      10.68752670       5.70992565
H       22.29240608       9.44372654       4.43574333
H       24.78046799      10.12509727       6.19019270
H       24.72586250       9.01914787       4.76969385
H       25.59955788       8.38009739       7.63513947
H       24.90034103       7.10837984       6.61716175
H       26.13270760       6.56566572       4.42616701
H       26.90690422       5.86023188       5.88813782
H       27.89344597       6.79383898       4.73661852
