3168
Lattice="38.099998474121094 0.0 0.0 0.0 38.099998474121094 0.0 0.0 0.0 38.099998474121094" Properties=species:S:1:pos:R:3 pbc="T T T"
Na      30.12505341      20.56581306      24.81773567
Na      29.14679146      27.69543457      38.30362701
Na       6.01503372       8.11671543      21.61205292
Na       3.45573807      13.54017925       5.31531620
Na      29.96411133       3.59838319      37.28397751
Na      35.09783554      28.60494614      26.89226723
Na      21.95615196      14.20023441      -0.19811346
Na      25.69384003      35.30849457      34.07402039
Na      15.45092106       9.55298519      16.88712120
Na      22.76682472      20.76136017       4.01775217
Na      31.00490952      17.05765915      27.85697746
Na      16.55047798      33.06618118      30.56146812
Na      32.65412903      15.17431259      11.99542999
Na      21.25758743       5.53524208      17.01317406
Na      27.45306015      34.22966385      31.62796593
Na      17.97743034      38.45859909       7.88601685
Na       9.01226711      26.08254433      -0.01644604
Na      16.23274422      12.03420258      28.83483505
Na      33.47547531       5.02940178      39.30286407
Na       6.74644852       3.07466865       1.11717474
Na      24.84844780      12.68648624      11.97340393
Na      21.53370476       7.31189728      23.31848526
P       20.76332474      16.07579803      10.59927273
F       19.14180183      15.67611504      10.54019833
F       22.32919312      16.46922493      10.68584633
F       20.39086342      17.65322876      10.34043026
F       21.14936447      14.50366497      10.84817696
F       20.86580849      15.83503246       8.99110603
F       20.63370323      16.30103683      12.21048164
P       16.22680092      33.22869873      27.19978714
F       15.40726948      31.82570839      26.90362930
F       17.09449196      34.54197693      27.54665375
F       17.08364677      32.94232941      25.88076782
F       15.32284737      33.43833923      28.63939285
F       17.27279854      32.38215637      28.19041061
F       15.11641121      34.13362503      26.45949364
P       35.71599197      26.60303116      20.03062820
F       35.85165405      24.98258591      20.18916512
F       35.58534241      28.22280502      19.87199211
F       37.21277618      26.65909958      19.39479828
F       34.22642517      26.55596542      20.70021439
F       36.35417175      26.81733131      21.52216339
F       35.07281113      26.40796661      18.55031967
P       24.67855453      26.96059418      25.48284531
F       25.15776253      27.79596329      24.16802979
F       24.24822235      26.10173035      26.81903458
F       24.72987938      25.57526970      24.61900711
F       24.65214539      28.33325195      26.35626984
F       23.11694527      27.15909767      25.07213211
F       26.25241089      26.74743843      25.89856720
P       35.63963318       5.46825647       6.47777557
F       36.30822372       6.88442469       5.99353886
F       34.94918442       4.05407238       6.92720652
F       36.84822464       4.65155602       5.78314543
F       34.40010452       6.28940248       7.16720533
F       34.78124237       5.40866804       5.04576826
F       36.47029495       5.53637981       7.87772322
P       30.54190445       2.32327294      34.09440613
F       30.35741997       3.90907431      33.78240204
F       30.73741341       0.79237056      34.52260971
F       29.85892296       1.91189790      32.69770813
F       31.24818802       2.77247548      35.57206726
F       29.09677124       2.35288262      34.87956619
F       32.02117157       2.36189485      33.43905258
P       16.01246452      23.59805298      34.60974503
F       14.41407204      23.49168015      34.18106079
F       17.56218147      23.74978828      35.03240967
F       15.73057556      25.08385658      35.25949860
F       16.30755424      22.13371658      33.98710251
F       16.32752800      24.31451035      33.15254593
F       15.69642353      22.93336105      36.07405853
P        2.70911789       8.52235413      31.38013649
F        3.24353504       7.10251904      30.78551865
F        2.18520904       9.95256519      31.98292732
F        1.16421020       8.06718922      31.08384132
F        4.25254154       8.94569111      31.70306969
F        2.80823326       9.17781353      29.89277458
F        2.60396886       7.85842419      32.87720108
P       18.12318420       9.54372406      26.87757874
F       16.68946457      10.33576298      27.28725433
F       19.52427864       8.78843975      26.49907875
F       17.36786842       8.12247372      27.06962013
F       18.84575844      11.00122070      26.70790863
F       18.53631020       9.54738235      28.46434975
F       17.68432808       9.58184910      25.31742096
P        1.46618676      22.52847099      26.70990181
F        1.28833294      22.62827110      25.08620071
F        1.63371718      22.44114304      28.34287834
F        2.41518664      23.85776711      26.68741417
F        0.50539982      21.19549370      26.72729874
F        2.76722360      21.56620407      26.52126312
F        0.13544390      23.49169350      26.90381813
P       32.09530258      22.64827728       2.42551565
F       30.57174301      21.98378944       2.29666448
F       33.58007050      23.27535820       2.55022740
F       31.42323685      24.12107658       2.55834270
F       32.72806168      21.15761948       2.29165387
F       32.14886475      22.80702019       0.79273772
F       32.03096771      22.48353767       4.06483984
P       27.45383835       6.62938976      15.89603329
F       28.61301613       6.46034241      17.01796722
F       26.24014664       6.78062963      14.78830147
F       27.67640686       5.07193565      15.40814400
F       27.20789337       8.18388081      16.38556671
F       28.53200340       7.12381887      14.77166939
F       26.34400558       6.09892368      16.99758720
P       20.99796486      36.15285110      26.60087776
F       20.11108780      34.79408264      26.70899582
F       21.91359901      37.51292419      26.51938057
F       19.64533806      37.06624985      26.73482513
F       22.35807419      35.25300217      26.46899033
F       20.83488655      36.14717865      24.97898102
F       21.18667412      36.17868805      28.24169159
P       15.67298794      19.42253685       2.20486999
F       16.52603149      19.32391167       0.76784319
F       14.88428020      19.51846504       3.61808944
F       16.11237335      21.00549698       2.32201838
F       15.30934906      17.83496857       2.02950501
F       17.06408691      19.00904655       2.99853587
F       14.32944012      19.85231972       1.37675619
P        2.18025804       5.07242489       4.37477922
F        3.02733946       4.49960232       3.08714890
F        1.41717243       5.64803982       5.67675114
F        3.06483459       6.45198917       4.29222727
F        1.35423970       3.66529226       4.42688513
F        3.32499743       4.42635441       5.36395216
F        1.06444073       5.71541786       3.36210537
P        1.80523121      30.87101746      23.65721130
F        2.54861879      29.64077377      24.41510391
F        1.06396413      32.12815857      22.92889977
F        2.07657909      30.17277145      22.22373199
F        1.54495406      31.58755302      25.09960747
F        3.23793983      31.63591385      23.55068207
F        0.37453300      30.06075096      23.77929115
P        2.46196008      31.71051788      32.56705093
F        3.12104893      33.19795227      32.83432388
F        1.80756879      30.22932816      32.32387924
F        3.92505503      31.02408791      32.83191299
F        0.99518740      32.40926743      32.34846878
F        2.78008604      31.84725761      30.97899437
F        2.16062403      31.58450508      34.17994308
P       25.93464470      13.23556519      15.27966595
F       26.93582344      14.24961376      16.03902817
F       24.91469574      12.16227245      14.44194698
F       24.95145416      14.44795036      14.86054802
F       26.89850044      11.97821903      15.63957691
F       25.06327820      12.99854851      16.65081596
F       26.75938416      13.42739677      13.85501385
P       15.96107292      30.25172997      21.12092400
F       14.31325817      30.09903145      20.92526245
F       17.55716515      30.42152023      21.26331711
F       16.07693100      30.71512032      19.54551697
F       15.85982323      29.77051544      22.67885017
F       16.15207672      28.69729233      20.63169861
F       15.73124218      31.79992867      21.58851814
P       13.06966877      12.69712734      10.77545643
F       11.44156742      12.27200603      10.72720718
F       14.65613556      13.10022545      10.83991146
F       12.60641766      14.25305462      10.67841721
F       13.45809460      11.11402130      10.91176891
F       13.13951778      12.56870079       9.15550232
F       12.99266815      12.79362965      12.42532253
F       34.36233902      25.96664238       3.39726543
B       34.77519226      26.30369377       4.67527294
F       35.14429092      25.17426872       5.40325069
O       35.87916183      27.35261536       4.65320683
C       35.40280151      28.53893471       5.13208151
O       36.03319931      29.58949471       5.14851713
C       33.99597168      28.34976196       5.63736916
O       33.28964233      29.20885468       6.14317369
O       33.66434479      27.06133080       5.44006777
F       27.07290840      28.59328651       2.43351340
B       27.54236412      29.91130257       2.51967382
F       26.48770905      30.81635475       2.55799747
O       28.51235390      30.12624168       3.62446046
C       29.61460495      30.81122398       3.18198252
O       30.46863937      31.25525475       3.91151667
C       29.56405067      30.85882759       1.66171443
O       30.37700272      31.35975647       0.89893121
O       28.47154999      30.17140770       1.24993408
O       12.93286610      16.44489861       3.94303560
C       13.86545277      15.68953609       3.96218681
O       15.01066208      15.87983036       4.68685627
C       15.86236572      14.73477268       4.57985306
C       15.14214325      13.82008839       3.56014371
O       13.91264725      14.50195408       3.27526784
H       16.85531807      15.03804874       4.20793438
H       15.96612358      14.26593971       5.57508612
H       14.90172863      12.83899689       4.00568199
H       15.73303032      13.68735886       2.63356805
O       13.96265030       8.77344131      26.06886101
C       14.01030159       9.97331715      26.18057251
O       14.54513741      10.82215881      25.24923325
C       14.57913399      12.14957619      25.84642029
C       13.52762699      12.06470203      26.96238327
O       13.48881721      10.65676594      27.25587082
H       15.59200668      12.34315872      26.23513985
H       14.35668755      12.91000652      25.08725929
H       12.53405476      12.40077209      26.63246346
H       13.75202370      12.62455368      27.88063431
O       13.22791767      24.30674744      14.50244045
C       12.48688984      23.69844627      13.75635624
O       12.42649555      22.33857346      13.67719269
C       11.44409370      21.91232491      12.70701885
C       10.79756737      23.22708130      12.20639706
O       11.58075619      24.24450111      12.88080788
H       11.93173122      21.33356667      11.89956760
H       10.69865894      21.27084160      13.20496559
H        9.73443413      23.32448959      12.48847485
H       10.90137577      23.33192253      11.11248875
O       23.08088875      30.19041443      10.71940231
C       23.42405319      31.16065979      11.35235119
O       23.65118408      31.17741013      12.69428444
C       24.13795280      32.46260452      13.13039875
C       23.92325592      33.35380936      11.89036369
O       23.63641548      32.40830994      10.82768440
H       23.59356308      32.80733109      14.01924992
H       25.19975281      32.37887573      13.41035843
H       24.83185387      33.91813278      11.62731457
H       23.06060028      34.02905273      12.02906132
O       35.07863617      11.57501030      33.14585114
C       34.01115417      11.25300121      33.60378647
O       33.25936127      10.21000767      33.13938522
C       32.02051544      10.11167908      33.89349747
C       32.14057922      11.21834373      34.97136307
O       33.38300705      11.88483429      34.64443970
H       31.16236496      10.25327206      33.20962906
H       31.96616745       9.10411358      34.33590698
H       32.20197296      10.81035995      35.99008942
H       31.31530762      11.94653416      34.94235611
O        9.91842937      24.47356033      26.26477623
C       10.51217747      23.72202873      26.99060440
O        9.95897484      22.71107674      27.70840073
C       10.97512913      21.94720840      28.37853622
C       12.27423477      22.74068069      28.13858986
O       11.87401199      23.77646637      27.21868896
H       10.74296570      21.88756752      29.45363617
H       11.01015377      20.93200493      27.93945312
H       13.07429504      22.12851906      27.69321442
H       12.64946079      23.18684196      29.07179832
O       29.68919182      28.58570671      10.81301117
C       30.49283981      29.33059311      10.29921722
O       30.61038399      30.63428879      10.67298031
C       31.65224075      31.26806068       9.90356255
C       32.03907776      30.18533325       8.84707928
O       31.32908630      29.01496506       9.29155540
H       31.21850014      32.16890717       9.43476868
H       32.46695328      31.55166245      10.58308220
H       33.11642075      29.96969986       8.82873821
H       31.71952057      30.45042229       7.82381535
O        2.84839106      29.39117050      12.98218250
C        3.91867495      28.93750954      12.63159943
O        4.11025524      27.69937706      12.08839607
C        5.51693964      27.42665291      11.92591286
C        6.19980478      28.76560974      12.28571701
O        5.10499382      29.59497261      12.72567272
H        5.80458021      26.62880898      12.62435627
H        5.74996281      27.09754181      10.89695263
H        6.66156673      29.22142601      11.39652348
H        6.94021702      28.69404793      13.09238625
O        8.50664902      35.26966095      10.48294353
C        8.67502403      35.23776627      11.67421436
O        7.70542145      35.47786713      12.59781170
C        8.17025471      35.23558426      13.93324852
C        9.63644791      34.77905655      13.72046471
O        9.85295963      34.94506836      12.30346298
H        8.08372498      36.16003799      14.52781296
H        7.55358982      34.45680618      14.40574551
H        9.79712868      33.72036362      13.97391319
H       10.35658073      35.38536835      14.28954792
O       36.89807510      12.18661880       5.14388561
C       36.74018478      13.13388920       4.42369413
O       35.86989594      13.16795826       3.37557888
C       35.93839264      14.44365120       2.69280434
C       36.85487747      15.29545498       3.61633706
O       37.39280319      14.32411766       4.56737852
H       36.35807037      14.29239845       1.68155205
H       34.92097473      14.85996246       2.61022758
H       36.30697632      16.06624794       4.18018770
H       37.69165802      15.73390007       3.04860568
O        8.71542168       9.98509216       5.18219328
C        9.45043755       9.02355099       5.22427368
O        9.05767632       7.78208256       5.57108545
C       10.17511082       6.87353563       5.60218573
C       11.37600899       7.74791098       5.17798805
O       10.78349400       9.04334545       4.94928217
H       10.31440163       6.50112915       6.62493515
H        9.98491764       6.03090334       4.92159748
H       11.86925888       7.40113449       4.25477505
H       12.11657429       7.82250500       5.98579359
O        3.87581849       2.79351377      24.27159882
C        3.15334153       2.85364938      23.30812836
O        2.26321983       3.84050941      23.08444977
C        1.43431675       3.55131650      21.93962479
C        2.12276149       2.30465984      21.30623055
O        3.11794925       1.94319117      22.29275131
H        0.41575262       3.34213567      22.29493713
H        1.42210269       4.41793156      21.27186203
H        2.62649226       2.51725578      20.34635162
H        1.42703557       1.46549320      21.17544174
O       25.23740768      13.90524101      37.17816544
C       25.40748787      15.10793686      37.11848831
O       24.91093636      15.96860504      38.05550385
C       24.99083710      17.32766151      37.55542374
C       25.95457840      17.20066452      36.34785461
O       26.03687286      15.76357841      36.11777496
H       23.98372459      17.65929604      37.26298904
H       25.35473824      17.97277260      38.36605072
H       26.96308517      17.56888580      36.58459473
H       25.58089638      17.67908859      35.43122864
O        0.29342288      20.25868416      38.12350845
C        1.14912093      19.98576164      37.31888962
O        1.70185792      20.86099434      36.45502472
C        2.75553060      20.24867821      35.67509842
C        2.69760251      18.75951385      36.12158585
O        1.68527198      18.76111031      37.14982224
H        2.59098148      20.36147118      34.59138107
H        3.71905732      20.70391655      35.94493103
H        3.66209483      18.43261337      36.53277588
H        2.42545819      18.07252312      35.30194473
O       17.81902885      28.07627106       6.37652731
C       18.89251137      28.39937592       6.83080864
O       19.89622688      27.53663826       7.13408852
C       20.95108795      28.21943474       7.83737469
C       20.53232384      29.69989395       7.80168486
O       19.24040794      29.66599655       7.15278387
H       21.00483513      27.86860847       8.87613201
H       21.91483688      28.02511787       7.34485006
H       21.22988701      30.31092453       7.20695686
H       20.44415092      30.14255905       8.80259132
O       21.83379936      26.53266335      17.93963242
C       20.68405724      26.29588699      17.66728592
O       19.76058960      27.21341705      17.24343872
C       18.42293167      26.64672089      17.23786163
C       18.71452713      25.13913727      17.34617424
O       20.11637878      25.05551910      17.71953201
H       17.83966255      27.02773476      18.09327698
H       17.91286278      26.92794228      16.29728127
H       18.53987503      24.59293747      16.39875412
H       18.09388161      24.68051910      18.13371849
O       31.77168465      14.72095585      15.27001858
C       31.22830009      13.79123306      14.72675800
O       30.18144035      13.09047794      15.20115757
C       29.87098694      11.99522591      14.29609394
C       30.93929291      12.04212952      13.20171547
O       31.63378906      13.30554676      13.49526119
H       29.90634918      11.04640007      14.85189152
H       28.84828186      12.13567066      13.90502071
H       30.52798462      12.09844971      12.18064594
H       31.65501976      11.20712662      13.26307487
O       36.62530518      15.42248058      14.53372574
C       35.92969894      14.48584938      14.86025524
O       35.71883011      13.39577866      14.08218384
C       34.85947418      12.45441151      14.77600574
C       34.53188324      13.16409779      16.10379219
O       35.28829575      14.39941502      16.05047989
H       33.98524475      12.25516224      14.13532829
H       35.39052963      11.49746227      14.88932991
H       34.84877396      12.59869576      16.99085426
H       33.46976089      13.42356777      16.22593689
O       25.94299889      31.26226425      22.98147583
C       26.91404533      31.72178268      23.49875069
O       26.91720200      32.93154144      24.15824890
C       28.21235275      33.19863892      24.68034935
C       28.98526001      31.87055588      24.47318077
O       28.14565659      31.14367867      23.56139565
H       28.68800163      34.02945328      24.12825966
H       28.12662125      33.48120499      25.74076080
H       29.08232689      31.30355263      25.41323662
H       29.98651886      32.01956940      24.03887939
O       23.49505234      16.38443565      13.61223793
C       22.88260460      15.37513924      13.85205078
O       22.87046242      14.24901485      13.04422951
C       21.98418236      13.25448513      13.63200378
C       21.80838394      13.76840019      15.06657410
O       22.12494469      15.18096924      14.99094296
H       21.04807472      13.22546768      13.04094601
H       22.45386696      12.26001835      13.55474186
H       22.49834251      13.27152634      15.76948547
H       20.79051399      13.65454865      15.47251511
O       31.25377464      15.60227299       8.24768639
C       32.43209457      15.74480724       8.01150799
O       33.23526764      14.77081585       7.47510386
C       34.61162567      15.15646458       7.65133476
C       34.52961349      16.67017174       7.92968798
O       33.13969803      16.87235641       8.26427746
H       35.04476166      14.61607838       8.50367069
H       35.18424606      14.89623642       6.75223207
H       34.78038025      17.26394272       7.03625774
H       35.14764404      16.99797821       8.77372932
O        7.04412937      16.57855797      38.28448486
C        7.16866016      15.50129509      37.75493622
O        6.12619162      14.68404198      37.43635178
C        6.60595655      13.45210171      36.87145615
C        8.11851025      13.71643639      36.64362717
O        8.34902000      14.93416119      37.38319016
H        6.42008829      12.63549232      37.58789825
H        6.07896423      13.23920155      35.92880249
H        8.35751438      13.85087681      35.57229233
H        8.74732971      12.91525459      37.05441284
O       27.27140999       1.58965385      12.73878956
C       27.61427498       2.72903299      12.51059055
O       28.91184807       3.15016246      12.51648521
C       28.93728256       4.57658720      12.26038933
C       27.46799278       4.96217203      11.98475742
O       26.74388504       3.72133970      12.20977974
H       29.33270073       5.10613775      13.13817024
H       29.56806946       4.77476692      11.38021660
H       27.28897476       5.31064463      10.95418072
H       27.08576775       5.72271919      12.68257236
O       34.53073883      33.48297501      21.89381790
C       34.63796234      32.30960464      22.16534042
O       33.62089920      31.54561424      22.67305946
C       34.14470673      30.27737236      23.09940910
C       35.58374405      30.24558067      22.54413033
O       35.77414322      31.56192970      22.01191521
H       34.14482498      30.26359367      24.21885490
H       33.51911163      29.46866798      22.69929314
H       35.73510361      29.47352982      21.77341652
H       36.33242416      30.07972336      23.33183861
O       15.44204807       4.30203247      22.85565567
C       14.63305759       4.35406828      21.94797516
O       13.39210796       4.90401316      22.08403969
C       12.62099266       4.71883059      20.87220192
C       13.69151878       4.28032827      19.83631897
O       14.82958889       3.91304111      20.67793083
H       11.87793922       3.92500901      21.03609467
H       12.10887718       5.65884352      20.62137985
H       13.99124432       5.10753107      19.17656708
H       13.38196182       3.41486740      19.23783875
O       22.72270012      22.98686028      15.28797054
C       23.45643425      22.26826286      14.65326977
O       24.37494659      22.67433357      13.72238255
C       25.00497627      21.55363846      13.06987572
C       24.34816360      20.32950211      13.75010204
O       23.42135239      20.90481758      14.70433426
H       24.80486679      21.58982468      11.98373985
H       26.09340096      21.59152603      13.23802471
H       25.08848381      19.70649338      14.27366924
H       23.79881287      19.68858337      13.04043770
O       25.77395630      17.39268303      33.02742767
C       25.35621452      18.18634415      32.22046661
O       25.62269974      19.51793289      32.30730820
C       24.91514015      20.22821426      31.25509071
C       24.25250626      19.11859894      30.40808868
O       24.60218048      17.90002632      31.13569641
H       24.16556549      20.87171555      31.73758316
H       25.64492226      20.80214310      30.66119385
H       24.62955475      19.04583359      29.37644958
H       23.15748215      19.21193314      30.38921738
O       32.66724014      17.56403542      11.52049923
C       33.34227371      18.58704185      11.45025826
O       33.91749954      19.20652580      12.50571537
C       35.17208481      19.78862381      12.08597660
C       35.12622452      19.63862801      10.53286648
O       33.77450180      19.15915108      10.29543114
H       35.20890045      20.83420372      12.43449116
H       35.98677444      19.20395851      12.53668499
H       35.82298279      18.87261963      10.15386009
H       35.25087738      20.58918762       9.99604416
O        7.18080378       1.99801731      37.12025452
C        6.26505280       2.34263253      36.38074112
O        5.95363903       1.89356959      35.16746140
C        4.74855137       2.57831478      34.66036224
C        4.29221392       3.44156432      35.86369324
O        5.42725801       3.31536222      36.79228592
H        5.04036140       3.15949941      33.77654266
H        4.02027607       1.81095195      34.37948227
H        3.40824246       3.05485392      36.38227844
H        4.16787052       4.49943590      35.62879944
O       36.74817657       3.82100558      14.30167198
C       36.01085281       2.87261629      14.24659824
O       36.38859940       1.55574965      14.35481644
C       35.22309494       0.69765073      14.35694027
C       34.02490234       1.66946554      14.13578606
O       34.65889359       2.96454978      14.04990005
H       35.30385590      -0.05574144      13.55659294
H       35.15129471       0.19854729      15.32925510
H       33.31432724       1.68665302      14.97435665
H       33.48029327       1.44955015      13.20498085
O       10.31624889       9.96891594      21.64330673
C        9.27029037      10.58233547      21.69162750
O        8.03206921      10.00994682      21.59980965
C        6.97525406      10.99696445      21.79747963
C        7.73244476      12.32944584      21.91151619
O        9.13658237      11.91964436      21.86226845
H        6.29424047      10.95601845      20.93196297
H        6.42060089      10.76133919      22.72019196
H        7.53566933      12.85859585      22.85025024
H        7.50176191      12.98840523      21.06414795
O       15.52814007      10.85904884      30.84059143
C       14.61417294      10.09278488      31.05220032
O       14.60512257       8.77201271      30.72646332
C       13.36957836       8.15176678      31.16817093
C       12.54544640       9.33992195      31.75394249
O       13.46767902      10.44984722      31.68271828
H       12.88441467       7.65869951      30.30902672
H       13.62566185       7.40869284      31.93919754
H       12.28084755       9.20947647      32.81646729
H       11.63897133       9.56311989      31.16699791
O        2.40443397      10.35383797      12.65655994
C        3.41523743       9.83961868      12.23975658
O        4.59666204       9.83518600      12.91872883
C        5.60738373       9.14142418      12.15742588
C        4.88000202       8.70223427      10.86818790
O        3.53604126       9.21234798      11.05016613
H        6.44880724       9.81580353      11.91714287
H        5.97579527       8.27492905      12.72439766
H        4.83139133       7.61138868      10.72782803
H        5.31376457       9.15267658       9.96034908
O       23.63014030      20.56797600      34.53443909
C       23.04516983      19.55953789      34.21177292
O       22.53941345      19.29668427      32.96775055
C       21.82077599      18.03291893      32.95780182
C       22.25241470      17.40962029      34.29040909
O       22.86924934      18.48863602      35.03796387
H       20.74231911      18.24629211      32.91345215
H       22.10297966      17.45404243      32.06438446
H       22.98427391      16.60061264      34.13624573
H       21.39116859      17.03829956      34.86958694
O       13.13450336      32.67205048      16.43824577
C       13.55538559      31.54103279      16.45804405
O       13.25217915      30.63389778      17.43066978
C       14.06441784      29.44820404      17.21534157
C       14.58835220      29.60517883      15.78597832
O       14.37210083      31.00597954      15.50704575
H       14.86678314      29.40152931      17.97188377
H       13.45522690      28.53556252      17.32573891
H       14.02896690      29.01999092      15.03267860
H       15.65594196      29.36234856      15.66199684
O        1.88265586      36.54661942      11.06303406
C        1.74506652      36.56584930       9.86307240
O        2.62505889      36.02498245       8.98151684
C        2.14634037      36.15038681       7.61921215
C        0.83744913      36.98176193       7.78022909
O        0.69767308      37.12411880       9.21225166
H        2.90639544      36.67854309       7.01903963
H        1.98653662      35.14952850       7.19129848
H       -0.03400933      36.44766998       7.37593603
H        0.91701537      37.97890091       7.32119942
O        2.82873940      13.00567341      18.77569389
C        3.40107846      12.50837612      17.82558823
O        4.75614023      12.35060215      17.77554321
C        5.15395546      11.82727242      16.49308395
C        3.81955767      11.49611664      15.79753494
O        2.82389808      12.06367683      16.69053459
H        5.70121336      12.59024334      15.92029381
H        5.78596735      10.94616604      16.63947868
H        3.65506721      10.41725254      15.68464279
H        3.73847389      11.97161865      14.80874252
O       31.56084824       7.19263554      16.53883362
C       31.84529305       6.17195272      17.11092949
O       32.65237045       6.11487436      18.21693420
C       32.85693359       4.74667978      18.60568810
C       31.77327728       3.99189544      17.80189323
O       31.44002151       4.91774511      16.74914169
H       33.87473679       4.41712856      18.32878304
H       32.71766663       4.65733862      19.69699478
H       30.88575172       3.76843619      18.41700554
H       32.13302994       3.04687095      17.36368752
O        6.86126423      14.47213268       8.99145126
C        7.70622206      13.65585232       8.72650146
O        8.88845158      13.90597153       8.09669304
C        9.68441391      12.69709301       7.95817327
C        8.78681469      11.62150860       8.58832455
O        7.59616184      12.33791256       9.00534248
H        9.90658569      12.51988220       6.89254475
H       10.63233185      12.81671238       8.49765873
H        9.27306271      11.15280151       9.45383930
H        8.50064564      10.83621025       7.86962414
O        8.10661697      16.49724197      33.18976212
C        7.70303249      17.43203926      33.85027313
O        7.90341473      17.58868027      35.19252396
C        7.30077648      18.80466461      35.65275192
C        6.57373238      19.36197472      34.41785049
O        6.90896463      18.42580795      33.36996460
H        6.61731911      18.57774544      36.48284531
H        8.06597328      19.49849510      36.02684784
H        6.95700979      20.35788536      34.14712524
H        5.47912264      19.40229034      34.50719833
O       19.03988075      17.83205032      29.16811943
C       17.86153221      17.71471214      28.93487930
O       17.19307709      16.52077484      28.99414444
C       15.82664585      16.66940689      28.54223061
C       15.66448784      18.18521309      28.34866714
O       16.98656845      18.71418762      28.62851334
H       15.67126369      16.09495735      27.61053276
H       15.11916256      16.31208801      29.30406952
H       14.94885921      18.62636566      29.05584335
H       15.37391853      18.45068359      27.32043648
O       24.14388657      32.69707489      17.92610168
C       24.14035797      33.89332581      18.02107048
O       23.39996529      34.58944702      18.91906548
C       23.47083092      35.99475098      18.62284851
C       24.73541832      36.08745193      17.72929382
O       24.90816879      34.73514938      17.25258064
H       22.55717850      36.29950714      18.08595657
H       23.53257751      36.55228424      19.56868172
H       25.62528992      36.37910080      18.31159973
H       24.60454941      36.76293564      16.86804581
O       21.04665565      34.41669464      16.18591309
C       20.28323746      35.14862823      16.76047516
O       19.69217300      34.87167358      17.95735550
C       18.62190056      35.80624008      18.20117378
C       19.01445770      36.99512100      17.30442238
O       19.94059753      36.41603470      16.34730530
H       17.66873741      35.34215164      17.89655685
H       18.53338432      36.07407761      19.26303864
H       19.52912331      37.77847290      17.88261604
H       18.15545464      37.43581390      16.76765442
O       14.96251678      14.82714939      24.04554367
C       15.62458611      15.79171658      23.74323463
O       16.95642090      15.74932194      23.46324158
C       17.44061470      17.07578468      23.12651253
C       16.21844673      17.97623634      23.37662506
O       15.11990070      17.03557396      23.58479691
H       18.27397156      17.35572624      23.78998184
H       17.78447723      17.09731102      22.07657623
H       15.95046711      18.61046028      22.51768684
H       16.31664658      18.58975792      24.27905083
O        8.39065075       5.87060833      11.64834976
C        8.96009541       6.20858574      12.65849209
O       10.27804089       5.98003531      12.94139290
C       10.53898239       6.38252306      14.30074692
C        9.23563194       7.04608679      14.78036785
O        8.37534332       6.94234228      13.63881207
H       10.80711842       5.51230049      14.91232491
H       11.36386967       7.10572052      14.31218719
H        9.37490463       8.11057186      15.01976109
H        8.77010632       6.55201483      15.64462662
O       23.96894836      12.02020264      30.19074249
C       24.95212746      11.31943035      30.21360207
O       25.57599640      10.81602192      29.12088776
C       26.64016533       9.91465282      29.52013016
C       26.62985802       9.99820518      31.04851341
O       25.56047821      10.92214108      31.36471176
H       26.42937851       8.91634178      29.10912323
H       27.59911346      10.24830818      29.09846115
H       27.59099197      10.40013885      31.41005325
H       26.39832497       9.02867222      31.51549339
O       31.20842361      14.77048683      28.38635445
C       30.24401474      14.10406876      28.05876541
O       30.30995178      12.80140018      27.67543030
C       28.96047974      12.28517914      27.56760216
C       28.06045914      13.53010654      27.59993362
O       28.98078156      14.58514023      27.96736336
H       28.88579941      11.64851952      26.66975021
H       28.77629280      11.63520432      28.43413925
H       27.26383018      13.47441673      28.35596657
H       27.58341599      13.77190685      26.63562775
O       24.47304153       0.27359515      14.90271473
C       24.43853951       1.46789777      15.08492661
O       24.41605759       2.03940225      16.32461357
C       24.26536942       3.46523833      16.20313454
C       24.38827705       3.72545457      14.69387531
O       24.40119171       2.39853835      14.09778404
H       23.28272438       3.73721004      16.60995293
H       25.02175331       4.00007868      16.79101944
H       25.31418800       4.26573849      14.44730377
H       23.51363373       4.26189470      14.29282093
O       34.25306320       9.38316441       7.35656595
C       33.07344818       9.56235695       7.24551821
O       32.48756790      10.67804146       6.68031597
C       31.04766083      10.62558270       6.87787485
C       30.80131912       9.13830662       7.18093824
O       32.09771729       8.69052887       7.64940071
H       30.74835777      11.27440071       7.71739197
H       30.55673981      10.95794296       5.94872189
H       30.49493408       8.54953098       6.29935455
H       30.05611229       9.00394726       7.97689486
O       15.33305645      10.43664360      13.16942215
C       16.04763412      10.96562576      12.34531689
O       16.24758911      10.51655769      11.07501411
C       17.14565468      11.40201759      10.37754440
C       17.63615227      12.36746216      11.48146725
O       16.80384064      12.06737804      12.63011646
H       17.95210457      10.78867722       9.94276905
H       16.61724091      11.91728020       9.55435848
H       17.50529480      13.42842197      11.21228123
H       18.69609833      12.18126488      11.73038483
O       28.38506699      14.97485447      21.17792511
C       28.84306526      14.34943485      22.10280037
O       30.00405693      14.65986633      22.75766373
C       30.27508926      13.72081470      23.82071686
C       29.05863571      12.77735615      23.76795578
O       28.29832268      13.23431969      22.62921906
H       31.23183632      13.21274567      23.64495850
H       30.34137154      14.25319099      24.78267670
H       28.41447258      12.84697247      24.65612411
H       29.34498215      11.72599792      23.63340569
O       22.74645233       4.11417675      34.62910461
C       22.10058022       3.13241482      34.40455246
O       20.76962662       3.00854349      34.71778107
C       20.28346443       1.73004329      34.30405807
C       21.59249306       0.93480879      34.02022552
O       22.56110573       1.98144436      33.83996582
H       19.70389366       1.29791260      35.13084030
H       19.64037704       1.82576180      33.41092300
H       21.55133057       0.28174996      33.13507080
H       21.88998222       0.35243922      34.90962982
O       24.10395432      30.77193260       6.66904831
C       24.60350990      29.87071609       7.29522848
O       24.51577568      28.55920410       6.95023012
C       25.06787300      27.74315453       8.00721264
C       25.74406624      28.75643730       8.96153450
O       25.30707932      30.02337074       8.44074059
H       24.23043442      27.22853851       8.50849915
H       25.75386047      26.99817467       7.57086563
H       26.84307671      28.69767761       8.92444134
H       25.41012001      28.65434837      10.00410748
O       34.52626038      26.25597763      11.70485401
C       34.14086151      25.60804176      10.76903439
O       33.18312073      25.98264313       9.88910580
C       32.97686768      24.98544502       8.86362457
C       33.87514114      23.81277084       9.33653355
O       34.61365128      24.36256981      10.45242500
H       31.91257668      24.70959091       8.82268047
H       33.29650879      25.37245941       7.88117743
H       34.57278442      23.46224976       8.55956078
H       33.27410889      22.96041107       9.69088364
O       28.64988708       1.38929689       2.25356436
C       29.73718262       1.77332532       2.63808942
O       29.95562744       2.44348383       3.79284930
C       31.32158661       2.89612985       3.87760234
C       31.99081612       2.24157405       2.65880084
O       30.89423752       1.64815354       1.92310226
H       31.33139992       3.99469876       3.83050394
H       31.77605057       2.56198859       4.81460333
H       32.72122574       1.47302222       2.92239285
H       32.46393204       2.98238254       1.98916483
O       10.17681599      26.40128517      33.82227325
C       11.30062485      26.83251572      33.84719086
O       12.30679131      26.34376144      34.65653229
C       13.52505970      27.10037041      34.46925354
C       13.18159294      28.09479332      33.33646393
O       11.77743244      27.83446503      33.06389999
H       13.79098415      27.60855675      35.41004562
H       14.35128403      26.42858505      34.20455551
H       13.76451683      27.95534134      32.41162109
H       13.26981926      29.13894463      33.66474533
O        9.95977211      17.61164093       3.02247643
C        9.09761524      17.10181236       3.67604065
O        9.16016197      16.87031174       5.03110886
C        7.96364164      16.18654633       5.45156860
C        7.02061939      16.27429581       4.22580528
O        7.88401222      16.72101593       3.17435884
H        8.19662476      15.14839649       5.73088503
H        7.54738617      16.67401886       6.34264517
H        6.20621634      17.00436592       4.38025761
H        6.58238363      15.30773640       3.93444300
O       31.08258629      15.51000786      31.51261711
C       30.30674171      16.36458778      31.17857552
O       30.62410927      17.40405083      30.33665085
C       29.56845474      18.38828278      30.47278976
C       28.37024307      17.56291962      30.94404221
O       29.01807022      16.45379066      31.60902977
H       29.88123131      19.17940521      31.16361427
H       29.37890053      18.83422470      29.49223709
H       27.73727989      17.20471001      30.11325264
H       27.71240044      18.09406281      31.64183235
O       35.76718521       3.85863733      30.14436150
C       34.69854736       4.28212833      30.51661110
O       33.52754211       4.04794025      29.87003708
C       32.42881393       4.59888649      30.63392258
C       33.10777664       5.31871176      31.82572556
O       34.50980377       5.02681494      31.64622879
H       31.85844421       5.28900909      29.99340057
H       31.76571083       3.79453158      30.98078537
H       32.75965500       4.93925619      32.79430771
H       32.96376419       6.40903473      31.80951691
O        5.43484831      30.22850227      30.10314751
C        6.17954779      29.58265495      30.78540039
O        6.95832586      30.08870697      31.77978897
C        7.70422840      29.04497337      32.40774155
C        7.29339981      27.77524376      31.65379143
O        6.38040543      28.23757362      30.64298630
H        8.78345680      29.24548531      32.32135010
H        7.45532131      29.02215767      33.47935486
H        6.76852560      27.05687141      32.30696869
H        8.15345383      27.27029228      31.17957687
O       29.74121475      18.70358658       6.43010283
C       30.04825401      19.78080368       6.88519049
O       30.24863434      20.91076660       6.14705801
C       30.72834969      21.96675301       7.00647068
C       30.46607018      21.42218018       8.42482281
O       30.19992638      20.02430344       8.20533371
H       31.79863167      22.13645744       6.81374693
H       30.16718292      22.87989044       6.75429964
H       29.60096741      21.87648582       8.93773556
H       31.34155083      21.52674675       9.08269215
O       22.11115074      12.36546326      20.63457298
C       21.31280136      12.84765816      21.40078354
O       20.70072174      14.06082821      21.19984436
C       19.88272285      14.41608143      22.34836006
C       19.85103035      13.10120869      23.15024757
O       20.93303490      12.31046391      22.60402489
H       20.32433319      15.27363777      22.88388634
H       18.88579941      14.70720005      21.98638535
H       18.88553429      12.59375191      22.98856926
H       19.98085213      13.23933315      24.22698402
O       19.89450073      32.95280457      10.69496536
C       19.06533241      33.76630020      11.03581429
O       18.66495323      33.93327332      12.32654381
C       17.52945518      34.83355331      12.38350773
C       17.34104347      35.31206894      10.93216991
O       18.37743950      34.58860397      10.20118237
H       16.65203857      34.27241898      12.74055672
H       17.73838425      35.61211395      13.12966251
H       17.51926041      36.39443207      10.82357121
H       16.36794281      35.03521729      10.51148224
O        3.76928806      12.39275551      30.97379494
C        2.84084845      12.71247768      31.66857147
O        2.82841659      12.64495659      33.03007126
C        1.59416890      13.16794968      33.54376221
C        0.93340623      13.81414986      32.31826401
O        1.68320465      13.27502823      31.21298027
H        0.97515887      12.35423946      33.95265579
H        1.82963192      13.88122082      34.34915924
H        1.03817546      14.90933323      32.35507584
H       -0.13041696      13.56892490      32.21525192
O       18.44567108      12.94318962      29.10899162
C       18.65189362      13.72308254      30.01496315
O       19.69451904      14.59236526      30.06764603
C       19.58565521      15.38792133      31.26879311
C       18.20718193      15.02911758      31.82821655
O       17.85358810      13.84146690      31.09837341
H       20.40353775      15.13608742      31.95581627
H       19.61636734      16.44668388      30.96698570
H       17.44500542      15.79663181      31.62007332
H       18.21533203      14.82652378      32.90601349
O       36.15826416      15.48903370      33.86426926
C       36.51802063      16.63733292      33.81853867
O       37.59194565      17.07835770      33.08894730
C       37.83655167      18.46370125      33.44783020
C       36.45012665      18.90836906      33.97389221
O       35.92671967      17.66573906      34.47224426
H       38.59642792      18.52123260      34.23712158
H       38.16975784      19.01562309      32.55504227
H       35.80722427      19.30014229      33.17105103
H       36.48083878      19.61927414      34.80691910
O       34.64324188       6.81515265       0.06424772
C       34.95812225       7.79887009       0.73257053
O       34.19679260       8.90379524       0.86219633
C       34.72858810       9.76859188       1.89077401
C       35.98263931       9.01591778       2.38004422
O       36.04130554       7.85502481       1.52297485
H       34.98155212      10.73757267       1.44507790
H       33.97877502       9.91995430       2.67813706
H       35.90782547       8.69719410       3.42767477
H       36.89661026       9.60712528       2.24854612
O        9.36164474      28.36426735      21.49934578
C        8.39263821      28.92282295      21.96830177
O        8.47442436      29.79495811      23.01743507
C        7.15162230      30.13439560      23.47436905
C        6.25701809      29.15678406      22.68360710
O        7.10044098      28.70101929      21.60755539
H        7.10182762      30.01607704      24.56602097
H        6.92856169      31.19013405      23.22945023
H        5.35257149      29.62618637      22.26442528
H        5.96558619      28.29758835      23.31035423
O       37.01245499       5.81543255      24.82012558
C       36.54132843       4.74722290      25.12736511
O       35.22812653       4.41490030      24.92560005
C       34.88898468       3.25139141      25.70733643
C       36.29080582       2.64043927      26.00418472
O       37.20279312       3.71265912      25.72531700
H       34.35817719       3.55310035      26.62000465
H       34.24832916       2.60101604      25.09391212
H       36.52859116       1.77609921      25.35985947
H       36.37590790       2.36096025      27.06251907
O       20.80676270       2.35075450      14.82828999
C       20.88530922       3.28394365      14.06938934
O       21.02357864       3.26205182      12.73403740
C       21.23002052       4.63329887      12.21321106
C       20.83394814       5.51846790      13.40443134
O       20.84189224       4.58073807      14.54172039
H       22.28906631       4.74003887      11.93934345
H       20.58573151       4.75633049      11.33097935
H       19.82522774       5.94919252      13.32273102
H       21.56996918       6.30382156      13.62089348
O       28.83075523      34.96429825       8.66699219
C       28.50168991      33.81969452       8.83845615
O       27.85715866      33.39292145       9.96158600
C       27.63918304      31.97156906       9.88261127
C       28.16696739      31.57362556       8.47378159
O       28.72979164      32.79881287       7.96261597
H       28.20579720      31.48976898      10.69408131
H       26.56526756      31.76699829      10.01555157
H       27.37416077      31.21765137       7.79968119
H       28.95546722      30.80883026       8.52198315
O        4.93335819      34.07077408      17.41631699
C        5.58029413      33.06456757      17.60449409
O        6.92328405      32.95151138      17.32708931
C        7.36788511      31.59225082      17.56560707
C        6.16608095      30.94445610      18.27370262
O        5.09991455      31.89893532      18.09202766
H        7.60248947      31.11825943      16.59823036
H        8.26252079      31.59118652      18.20491219
H        6.36891365      30.78661537      19.34535599
H        5.86566687      29.97638130      17.83257103
O        0.41940460      15.17950821       8.18139267
C        1.45155776      14.54576778       8.25922489
O        2.65079284      15.06928253       8.62345791
C        3.63999820      14.02631092       8.75889587
C        2.87524843      12.74869251       8.39533234
O        1.57555306      13.21971512       7.97102451
H        4.48453379      14.21456814       8.07719040
H        4.03670311      14.01516247       9.77793407
H        2.77619910      12.08647156       9.26469326
H        3.32517862      12.17027569       7.57203865
O        4.43356419      25.34995461       2.84095287
C        3.78253937      26.33071327       3.09885716
O        3.22336674      26.57838821       4.30656528
C        2.48453712      27.81060791       4.30884838
C        2.67623472      28.33675575       2.86431956
O        3.50070095      27.33362770       2.22171354
H        1.42874658      27.60339355       4.54085875
H        2.87662029      28.47398186       5.08803463
H        3.19940853      29.30226326       2.85508704
H        1.71471488      28.40945435       2.32896924
O       33.61841583      16.84418488      23.24827957
C       34.74438095      16.49020767      23.48349190
O       35.58722687      17.14383507      24.31239891
C       36.80435944      16.40932274      24.51830482
C       36.62209702      15.17317486      23.58784485
O       35.33322144      15.36757660      22.98421860
H       37.66420364      17.02663612      24.22642136
H       36.87565613      16.16084480      25.58578491
H       36.60963058      14.22943878      24.15458679
H       37.39447403      15.10636139      22.80248260
O        1.83605134       8.05974293      21.17257690
C        1.71146417       7.45412731      20.12506294
O        0.78652465       6.49435234      19.86599922
C        1.02310395       5.86079836      18.58147621
C        2.13580465       6.72956038      17.94888306
O        2.49083877       7.63691425      19.02665710
H        1.35173285       4.81936836      18.70861053
H        0.09562304       5.88158321      17.98966217
H        1.76358771       7.29697371      17.07900810
H        3.01902342       6.14815044      17.65837669
O        7.75269461      32.85333633       6.16295481
C        7.86954832      31.71212769       6.55258274
O        7.63358688      30.61922073       5.77154589
C        7.68688059      29.42335892       6.57922554
C        8.23641586      29.92774582       7.92510271
O        8.20138359      31.36674500       7.81654167
H        6.66644859      29.01186752       6.65857172
H        8.34172344      28.68722916       6.09015083
H        9.26903725      29.58157921       8.08073902
H        7.60700703      29.63454247       8.77682781
O       12.93840599      19.62929153      33.71083450
C       13.76299572      19.38129044      34.54801559
O       14.28224564      18.13525009      34.78924179
C       15.17671490      18.20821953      35.91656494
C       15.38312912      19.71163177      36.12166977
O       14.32490444      20.31124878      35.37046432
H       14.71602726      17.74601364      36.80914688
H       16.10417557      17.66026688      35.68056488
H       16.35244751      20.04543686      35.71037292
H       15.31996441      20.02894402      37.17197800
O       11.08991528      21.76867294       4.58598566
C       10.18831444      22.09564781       3.85043025
O       10.00406075      21.62186623       2.59324694
C        8.77929974      22.14104271       2.01823258
C        8.32521820      23.20296669       3.05987096
O        9.20427990      22.98733330       4.19199657
H        9.00184441      22.58779144       1.03220499
H        8.05019093      21.32708740       1.87965274
H        7.27588749      23.09962082       3.37111735
H        8.48605537      24.22973442       2.68349004
O       29.68511963      34.92114639      17.82564354
C       29.37122536      33.78879929      17.52929878
O       28.29050827      33.14047241      18.02551270
C       28.22690201      31.79723358      17.50043488
C       29.43381882      31.69622231      16.52513504
O       30.06978607      32.98238754      16.67713165
H       28.30085754      31.08316422      18.33210182
H       27.25870705      31.65959167      16.98987579
H       29.12780380      31.54433060      15.47627449
H       30.13759232      30.89991570      16.80428314
O       27.23498917      27.66137505      36.21465683
C       26.44650650      26.82170486      35.83503342
O       25.09453583      26.90386581      35.98561096
C       24.50171280      25.60045624      35.78530121
C       25.65702057      24.74468994      35.20779419
O       26.77982140      25.66272545      35.19694519
H       24.11688423      25.24549675      36.75173187
H       23.65190506      25.69802666      35.09793091
H       25.45072937      24.36435127      34.19677734
H       25.92911911      23.89787102      35.85272980
O       15.03474045      33.60278320       9.29505634
C       15.35569096      32.50457382       9.68488598
O       16.46872520      32.28778076      10.44159031
C       16.74142647      30.87347984      10.49962425
C       15.38855076      30.25211334      10.09861183
O       14.68763065      31.35133934       9.45793056
H       17.52812576      30.64225388       9.76826096
H       17.08182526      30.61413002      11.51024723
H       14.81073093      29.91659737      10.97545147
H       15.49407673      29.42215347       9.38013554
O        8.02148151      22.06073189      36.01717758
C        8.68294144      22.28311157      35.03192520
O        8.73360348      23.51201630      34.42219162
C        9.45952225      23.37435341      33.16523743
C       10.13921738      22.00189018      33.26751709
O        9.40258026      21.38160515      34.34929657
H        8.71947384      23.38331413      32.34908295
H       10.14582253      24.22734070      33.06639862
H       11.20855522      22.04913712      33.51926804
H       10.03673267      21.37904739      32.36528397
O       10.74538898      33.04168320       7.36244011
C       11.41388416      34.03874588       7.42534971
O       12.77125072      34.05748749       7.50985098
C       13.15641022      35.31201553       8.06796360
C       11.96362972      36.23003006       7.71908140
O       10.90984249      35.30665588       7.40957117
H       13.29294395      35.20756149       9.15094471
H       14.11143208      35.63516235       7.62453604
H       12.16590118      36.86654663       6.83698368
H       11.64556313      36.85737991       8.56484127
O       25.34650612      17.34038162      26.28622246
C       25.65172958      18.16522026      25.45270538
O       25.74761581      17.94952583      24.12292862
C       26.13851929      19.16916466      23.44169044
C       26.21546555      20.20231819      24.57170296
O       25.88073921      19.46701622      25.78791618
H       27.10466576      18.98549271      22.95214081
H       25.37207413      19.40526009      22.68787003
H       25.48335075      21.00789833      24.47768021
H       27.22415733      20.61484528      24.69584274
O        9.66920471      18.74014854      33.22997665
C        9.58930016      18.66257668      32.03321838
O       10.23531342      17.74066544      31.26780319
C        9.92648411      17.95715141      29.88397789
C        8.82249546      19.02658653      29.91564369
O        8.86151409      19.53240585      31.26501656
H       10.83497906      18.31020355      29.35855293
H        9.62646198      17.00664139      29.41446304
H        7.81656790      18.62208939      29.71982956
H        9.01893234      19.84715462      29.20793915
O       32.21861649      17.78866386      15.58325100
C       31.04527092      17.97276306      15.78008175
O       30.20774269      17.11341858      16.41823387
C       28.84993172      17.58409309      16.35977745
C       29.00122833      19.06020355      15.93134785
O       30.35262871      19.09994316      15.39962482
H       28.26091576      16.99309921      15.63961887
H       28.37121582      17.50430870      17.34452820
H       28.90587234      19.77093697      16.76713753
H       28.28903198      19.35196877      15.14381313
O       18.40939140      32.30568314      23.25446320
C       19.49158478      32.02555466      23.67696953
O       19.83102798      30.79404068      24.16976929
C       21.17601776      30.80354881      24.65328026
C       21.67774200      32.23222351      24.36021423
O       20.56852341      32.86402512      23.70573616
H       21.18145943      30.57996368      25.73335266
H       21.76047897      30.02232552      24.13202095
H       22.54638290      32.23008347      23.67838097
H       21.94080925      32.80465317      25.26391029
O       25.98466873      12.04532146      24.30524063
C       25.48717880      12.66095829      23.38330841
O       25.56398010      12.31578732      22.08073616
C       25.00685120      13.37898636      21.25628853
C       24.27766418      14.25757408      22.29236603
O       24.77866364      13.81199455      23.58251762
H       25.83829880      13.90075588      20.75228119
H       24.33920288      12.94197083      20.50041962
H       23.18429756      14.12389088      22.27237320
H       24.50397301      15.32899380      22.17473793
O       28.63066101      37.65153885      10.25032139
C       27.91287041      37.18613815      11.09656429
O       26.55466080      37.21719742      11.07141304
C       26.05714798      36.92081451      12.38526058
C       27.22368050      36.14093018      13.02035809
O       28.35245132      36.52369308      12.21320438
H       25.84418488      37.84695053      12.93353939
H       25.12419510      36.35148621      12.30497360
H       27.09025002      35.05007172      12.94407463
H       27.38661766      36.41083145      14.07269764
C       15.89348984      22.33861351      28.87054634
C       17.00815201      22.80800819      29.82142448
O       16.92558479      22.04761124      31.05233002
C       17.64838409      20.88186646      31.03085518
O       18.58046341      20.64875221      30.27950287
O       17.15008926      20.03071976      31.96658325
C       17.76469612      18.72141266      31.94763565
C       17.60271454      18.16768265      33.36062241
H       16.06549454      21.30553055      28.52027512
H       14.92390347      22.34474564      29.39097404
H       15.79241753      22.99571419      27.99300575
H       16.88742638      23.86022949      30.12441444
H       18.00206566      22.66944885      29.36056519
H       17.26085472      18.11259460      31.16946602
H       18.82247543      18.80793571      31.62961388
H       17.93650246      18.90661049      34.09913635
H       18.22759438      17.26886559      33.47082901
H       16.55590057      17.89169884      33.54620743
C       19.73614311      37.05573273      22.02289009
C       19.11722183      35.65663147      22.08456612
O       17.99217415      35.68145370      23.00642014
C       16.77647018      35.86219025      22.46217155
O       16.48613358      36.65610886      21.57612038
O       15.89232635      35.02238846      23.05186653
C       14.53282928      35.05615616      22.58411980
C       13.68923569      34.43031311      23.70252800
H       18.98628998      37.77341080      21.66296959
H       20.06524086      37.37864685      23.01713753
H       20.60582352      37.03860474      21.35207367
H       19.81943321      34.91706085      22.48657608
H       18.76875305      35.27060318      21.11555862
H       14.22717571      36.09040070      22.33244324
H       14.47098541      34.47080231      21.65105820
H       14.10914230      33.45961380      23.98645401
H       12.64526844      34.27175522      23.39635086
H       13.67830181      35.06060028      24.60347557
C       22.20797539      19.27179146       7.74505091
C       22.55218315      20.11432457       8.98601055
O       22.03899002      21.45264053       8.81210136
C       20.85112953      21.71638870       9.44007874
O       20.16208649      20.88741112      10.00314808
O       20.53144264      23.01693153       9.28195190
C       19.28182983      23.38968468       9.94853115
C       19.09216309      24.87823296       9.72515488
H       21.11468506      19.24002266       7.61054707
H       22.66459465      19.70188141       6.83436394
H       22.55544090      18.23793411       7.86823082
H       23.63889694      20.22460175       9.13129807
H       22.11225319      19.65832329       9.88674355
H       18.44946861      22.79643059       9.54326916
H       19.33559608      23.16226196      11.02895069
H       19.75434494      25.45689201      10.38352489
H       18.05687523      25.14590454       9.98606777
H       19.26537132      25.14878273       8.67288876
C       24.84564018       6.90024662      29.74761772
C       23.63381386       7.65832520      30.33521080
O       22.50960159       7.53007650      29.43671608
C       21.72105980       6.46346664      29.73119354
O       21.85513878       5.72502804      30.69006729
O       20.77365112       6.31926727      28.78231621
C       19.90523720       5.17034149      28.98059082
C       18.82138634       5.28986645      27.91406441
H       24.62620544       5.83094883      29.65995216
H       25.09347153       7.26607084      28.74170303
H       25.70263100       7.00575876      30.42404366
H       23.82944107       8.73857975      30.42439461
H       23.35572624       7.27345419      31.32272911
H       20.51080322       4.26051474      28.89098549
H       19.50567055       5.19475174      30.00386238
H       18.26222229       6.21707964      28.07145691
H       18.12331390       4.44725275      27.95823097
H       19.25052261       5.33601189      26.90852356
C       32.61583328       6.18265915      26.04122543
C       33.67628860       7.23435211      25.71073532
O       33.92890930       8.07118511      26.85985565
C       34.91619492       7.60515547      27.66604805
O       35.52977371       6.56102276      27.50389290
O       35.06624985       8.45889950      28.69744301
C       36.20856094       8.17944622      29.52913857
C       36.16106415       9.21671963      30.65832138
H       32.93009567       5.59699249      26.91179848
H       31.64944649       6.65273380      26.26804924
H       32.49519730       5.49661207      25.19130707
H       33.32466125       7.91896677      24.92233658
H       34.61159515       6.77605772      25.36199188
H       36.16297150       7.14317894      29.89664841
H       37.12381363       8.27867126      28.92185211
H       36.24074173      10.23175430      30.25357628
H       37.00524902       9.06566525      31.33897972
H       35.23416519       9.17105961      31.23834610
C       16.78137589       7.86471891      19.80113983
C       16.36530685       7.31189966      21.16070938
O       17.11621475       6.09781265      21.32230949
C       17.71623611       5.92044210      22.51794624
O       17.68067741       6.68192816      23.47680473
O       18.46617889       4.78093338      22.46152496
C       19.13847160       4.43739653      23.68110657
C       19.11642265       2.91374278      23.80448723
H       17.86462784       8.06385517      19.76647377
H       16.58314705       7.16813660      18.97767639
H       16.26274300       8.81157684      19.58914375
H       15.28911209       7.08356285      21.19997597
H       16.56525612       7.98555040      22.00795746
H       20.18244171       4.80957127      23.61741066
H       18.66469383       4.95847416      24.52461243
H       18.08178520       2.56537223      23.91543007
H       19.70667076       2.62397718      24.68480873
H       19.53414726       2.43242455      22.91111755
C        9.33250618      27.65500069       3.36802411
C       10.27887630      27.13632202       4.46582127
O       11.47600174      27.94503784       4.47113037
C       11.54117107      28.94529343       5.38843918
O       10.61887360      29.28878021       6.11659718
O       12.75111675      29.50726891       5.35188293
C       12.92414570      30.71773338       6.13361740
C       14.39145565      31.13911629       5.99219036
H        9.04178715      28.68986511       3.59386039
H        9.86639690      27.63214874       2.40444636
H        8.42457962      27.03676414       3.29713273
H       10.59181213      26.10312271       4.26495171
H        9.79824352      27.17325974       5.45425940
H       12.23559380      31.49656296       5.77253628
H       12.66110992      30.55975723       7.18529320
H       15.07454014      30.37059021       6.37374115
H       14.52934265      32.05212021       6.58515692
H       14.64762688      31.33385086       4.93888569
C       14.74475861      12.71664143      16.04913330
C       14.07681179      14.03149509      15.63911629
O       15.04058743      15.10601997      15.73476410
C       15.89692116      15.15347195      14.65973854
O       15.58449650      14.99422264      13.49074650
O       17.14859581      15.45424747      15.12015247
C       18.10659218      15.94409180      14.13104153
C       18.82339859      17.10115242      14.83572483
H       15.64366913      12.52971268      15.43874550
H       15.03321552      12.70667267      17.11106110
H       14.05422401      11.88657761      15.84906387
H       13.22692013      14.31004906      16.28189659
H       13.70590687      13.96248245      14.59905148
H       18.77495575      15.11611843      13.83279991
H       17.58247566      16.25200462      13.20742416
H       18.13933372      17.95789528      14.96380520
H       19.69267654      17.40410805      14.23264217
H       19.17763138      16.80845261      15.83698368
C       27.71546745      13.05966568      32.57243347
C       27.81655884      13.42805767      31.09702110
O       29.20208931      13.44774055      30.69832993
C       29.89995003      12.29126453      30.60922241
O       29.42670822      11.16437244      30.48257065
O       31.22488022      12.59160423      30.58638382
C       32.15071487      11.58928299      30.11943817
C       33.50293350      12.29510784      29.97208786
H       28.10979652      12.05233192      32.74757004
H       28.22997093      13.77573490      33.22051620
H       26.65397072      13.05586529      32.86399841
H       27.42665291      14.44287968      30.91890717
H       27.23965836      12.76191616      30.43073273
H       32.21516800      10.75085640      30.82697105
H       31.79629707      11.19442272      29.14979362
H       33.35547638      13.20187283      29.36955452
H       34.21421051      11.61898899      29.47613716
H       33.94379807      12.57859898      30.93927193
C       12.21172142      27.31229782      22.19578362
C       13.64277744      27.13378525      21.68130112
O       13.79367352      25.82793617      21.05521584
C       14.12729168      25.82645798      19.74790764
O       14.29686928      26.81689262      19.05949593
O       14.20993614      24.54450607      19.29980469
C       14.67357731      24.40186501      17.93039513
C       15.51247215      23.12683487      17.83147812
H       11.53556156      27.46689415      21.34719467
H       11.85848808      26.43678284      22.75504303
H       12.07579613      28.19368172      22.83986282
H       14.40113068      27.23384094      22.48163605
H       13.87521458      27.88595581      20.90636444
H       13.79579353      24.34339523      17.25832367
H       15.24056053      25.30308151      17.62794113
H       16.47268295      23.22552299      18.35703468
H       15.71058178      22.88190079      16.76805878
H       14.98452950      22.25598526      18.25042725
C       12.53712273      30.94290543      30.53111649
C       11.71996498      31.78550911      31.51045036
O       10.91060352      30.90704727      32.35520172
C       11.08028412      30.96240425      33.68325424
O       11.94438267      31.58861160      34.29615402
O       10.16668415      30.14946556      34.27809143
C       10.51465893      29.73663330      35.61862946
C        9.42322731      28.76471519      36.08721542
H       13.24205208      30.27818680      31.04026794
H       11.88416290      30.33610535      29.89326096
H       13.07838440      31.60362053      29.84394646
H       10.99682808      32.41353607      30.96372986
H       12.35292149      32.41518402      32.15036011
H       11.48600292      29.21485710      35.56358719
H       10.63380527      30.60146332      36.29168320
H        8.46374226      29.27227592      36.26543808
H        9.77409649      28.34407616      37.04819489
H        9.27035141      27.95471573      35.36312103
C       26.16807556      26.94028282      14.74075031
C       25.29581833      26.02946663      15.61527538
O       25.96986389      24.75566864      15.72184849
C       25.37800217      23.89254761      16.60151291
O       24.41407585      24.14861107      17.29257202
O       26.01929855      22.68139839      16.53647995
C       25.83010292      21.82532692      17.67508316
C       25.63426208      20.38758469      17.16382790
H       27.15158081      27.12298203      15.19215584
H       26.31883621      26.52923012      13.73240089
H       25.65848732      27.91252518      14.64428711
H       24.29765892      25.88120651      15.17018795
H       25.12002182      26.44169426      16.62126541
H       26.71865845      21.91682816      18.32193375
H       24.96307945      22.15910912      18.26873779
H       24.59222031      20.20193672      16.87313843
H       25.90686035      19.67896271      17.95684242
H       26.24541473      20.18413734      16.27327919
C       12.63959885      16.57128334      12.56775951
C       13.88846302      17.09156990      11.84026814
O       14.13416862      16.46080780      10.56811714
C       13.14542961      16.55955315       9.62317944
O       12.17415524      17.29940987       9.74139023
O       13.39353561      15.77774906       8.54809761
C       12.48527527      15.92463112       7.43128777
C       12.62202835      14.68517876       6.53454256
H       11.74923706      16.68177986      11.93314934
H       12.74540424      15.51684475      12.83677483
H       12.43743992      17.13781738      13.48356342
H       14.79700947      16.87766457      12.43388176
H       13.81369114      18.18736839      11.69715977
H       11.45433903      16.07604599       7.79688120
H       12.75916862      16.81250381       6.82733583
H       13.67556286      14.48047447       6.30246210
H       12.11248970      14.87152290       5.57493067
H       12.18729877      13.79719162       6.99731493
C       35.56760788       7.74472523      16.72113419
C       36.63993835       8.21654320      17.71789932
O       36.71619415       9.66678619      17.83750725
C       35.79039764      10.21423912      18.65257263
O       34.80696487       9.63723755      19.06459236
O       36.07834244      11.50835609      18.91142082
C       35.12434769      12.14108562      19.80419540
C       35.37676620      13.65525246      19.82334137
H       34.55845261       7.89685917      17.12195015
H       35.62073898       8.28014660      15.76689529
H       35.67704773       6.67177343      16.52070236
H       37.63957596       7.92076874      17.37829208
H       36.46177292       7.81185055      18.72489548
H       34.10439682      11.89452076      19.47158051
H       35.21588516      11.73652267      20.82116508
H       36.37927246      13.89379501      20.20705414
H       34.65194321      14.12537956      20.50328445
H       35.25599670      14.07685757      18.81483841
C       25.16819000       9.83387375      10.21332264
C       25.75610161       9.22655010       8.92984676
O       25.76731300       7.76641226       8.95260048
C       24.58302689       7.13468695       9.06821156
O       23.48994255       7.66591263       9.20815754
O       24.80062485       5.80081892       8.90734291
C       23.66073608       4.93842268       9.14023590
C       24.24837685       3.65871453       9.74050140
H       24.12450600       9.53238106      10.35575390
H       25.73002625       9.54474735      11.10750484
H       25.19940567      10.92428684      10.08927631
H       26.81906319       9.49690723       8.84062004
H       25.21218491       9.57523060       8.03585243
H       22.95019341       5.43384314       9.81594753
H       23.12376785       4.76908731       8.19160843
H       25.15325546       3.33293796       9.21529388
H       23.50844765       2.84875369       9.68366241
H       24.52081108       3.82102752      10.78811264
C       21.21350670      23.68620300      21.28138542
C       22.01686096      24.96388435      21.54809570
O       21.22658730      25.99270248      22.18468094
C       20.99478149      25.90023422      23.51883125
O       21.29725838      24.94865990      24.23567390
O       20.28921318      26.97765160      23.88891792
C       19.90338898      27.14890480      25.26804161
C       18.55632401      27.88775635      25.25008965
H       20.74805641      23.33484650      22.21161652
H       20.42543602      23.83076286      20.52582359
H       21.88619041      22.89161873      20.93244934
H       22.33722687      25.41473961      20.58859444
H       22.89101982      24.77644730      22.19164658
H       19.82726097      26.16119385      25.75314713
H       20.70438194      27.71221733      25.77934456
H       18.53309631      28.64138222      24.45042610
H       18.35352325      28.37776375      26.21093941
H       17.71175766      27.20500946      25.07377052
C        6.15833950       4.40966940       3.62256455
C        6.87707281       5.59755135       4.27387762
O        7.22181416       5.33530664       5.65540361
C        8.19040108       4.42443991       5.86961746
O        8.78026199       3.77820945       5.00949669
O        8.39706612       4.34936094       7.20235872
C        9.35867786       3.37858272       7.67482853
C        9.24456024       3.45651126       9.20103264
H        6.79733706       3.51644540       3.59705186
H        5.24002838       4.16365290       4.16649961
H        5.83554459       4.73673725       2.61638308
H        6.20947456       6.46866322       4.32004976
H        7.78504944       5.86992264       3.71658421
H        9.10342407       2.38562346       7.27172756
H       10.36844635       3.63672113       7.31903076
H        9.52118397       4.44278765       9.58921337
H        9.86612225       2.69281197       9.68375587
H        8.19968700       3.30774546       9.49927616
C       28.58736229      14.47456646       2.40207767
C       28.49675751      13.21006203       3.27665234
O       27.25953102      13.25627422       4.02579117
C       26.18120384      12.78634930       3.35216212
O       26.20433617      12.16503620       2.29766250
O       25.07968521      13.14173985       4.02820587
C       23.81686974      12.62053967       3.53172183
C       22.85329056      12.85543728       4.69087839
H       27.75084114      14.48298359       1.68560278
H       28.53237152      15.37176323       3.03081894
H       29.52696800      14.45173264       1.83561730
H       29.29498863      13.17235565       4.02837658
H       28.54806328      12.30168056       2.66149139
H       23.51268768      13.17012501       2.62798381
H       23.92257690      11.56291103       3.25691867
H       23.28116798      12.48198032       5.62811279
H       21.89223671      12.35792542       4.50556850
H       22.65109062      13.92644024       4.82936478
C        1.04031360      24.30151939      32.65284729
C        1.13687897      24.46250916      34.17881775
O        2.51418304      24.20121956      34.51448441
C        3.16671467      25.05417824      35.33407593
O        2.72633839      26.09299278      35.80179977
O        4.40172195      24.55763817      35.53033447
C        5.34931374      25.38340950      36.26154709
C        6.42775822      24.45603752      36.83813095
H        1.66487670      25.05493164      32.17060089
H        1.40263796      23.31443214      32.35755539
H        0.00604139      24.40188789      32.30171967
H        0.50200826      23.72164345      34.68434143
H        0.87252015      25.47375870      34.52239227
H        5.78273249      26.10825348      35.55050659
H        4.83241320      25.95808411      37.04133606
H        6.43680811      24.53820610      37.93639374
H        7.42601156      24.70846748      36.43521881
H        6.24547434      23.41148567      36.55946732
C       31.98567581      21.42017746      35.90688705
C       32.87687302      21.79836273      34.72468185
O       33.51899719      20.64436531      34.14180374
C       32.83147812      19.88125229      33.25834274
O       31.80379295      20.19046593      32.66563416
O       33.48271561      18.71316719      33.13961792
C       32.97729492      17.75830841      32.16841507
C       34.02627182      16.65430641      31.99009705
H       31.20160103      20.73182106      35.57652664
H       32.54246902      20.98975563      36.74367142
H       31.47564125      22.31078529      36.29654312
H       33.70026016      22.44871330      35.06027222
H       32.29001999      22.31999016      33.95125961
H       32.01707077      17.36564827      32.52849960
H       32.78881454      18.26674843      31.20977402
H       35.00945282      17.07798386      31.74784660
H       33.70605469      15.99294758      31.17032623
H       34.12451935      16.02928352      32.88326645
C       19.51253700      21.75769043      16.78937531
C       19.75890732      20.28392982      16.40318680
O       19.08030510      19.47294807      17.41514969
C       17.72271729      19.48088074      17.26160622
O       17.13412285      19.61133003      16.20342827
O       17.10996246      19.33064079      18.48013687
C       15.82122898      18.66156197      18.36699677
C       15.60906315      17.91643333      19.68612862
H       18.42328262      21.94451714      16.79216957
H       19.87491035      21.98318481      17.80166626
H       20.00778008      22.41426468      16.05863380
H       20.81705856      19.98541641      16.41956329
H       19.36656761      20.02943420      15.40052986
H       15.02446938      19.41255569      18.20840454
H       15.81954193      17.98649216      17.49401474
H       16.37930298      17.14743042      19.82807732
H       14.62268162      17.42273712      19.68740082
H       15.63513088      18.61116791      20.53664398
C        1.35737860      33.35482025       3.67535639
C        1.99280202      33.52993393       2.28975987
O        3.32455325      34.08002853       2.46283126
C        4.38270283      33.26119995       2.28232098
O        4.33475494      32.10169601       1.90845597
O        5.50168705      33.93922806       2.58148408
C        6.74664068      33.19532394       2.68326974
C        7.83685017      34.23102951       2.98257113
H        1.80789602      32.52074051       4.21216154
H        1.50782061      34.23290253       4.31422234
H        0.27858013      33.15874863       3.58735919
H        1.43904269      34.24967957       1.66775572
H        2.06398559      32.58445358       1.74008584
H        6.67815828      32.49509811       3.52624798
H        6.94184828      32.63012695       1.75952482
H        7.92651320      34.95038986       2.15502119
H        8.79755974      33.71564102       3.13483119
H        7.62366438      34.77305603       3.91436052
C       26.60527229      23.71675491       8.26400089
C       26.09860992      23.24874878       9.63901997
O       27.23975945      22.73177147      10.35147095
C       27.63542366      23.37362289      11.46948910
O       27.18606186      24.41317368      11.92117023
O       28.64137077      22.65609550      12.01332855
C       29.28359032      23.20515823      13.19103813
C       30.15809250      22.07627678      13.74572945
H       27.29208755      24.55686569       8.41336918
H       27.13364983      22.90744209       7.73970652
H       25.77559280      24.04137611       7.61979628
H       25.37347984      22.42658043       9.53675556
H       25.62151909      24.05583000      10.21671677
H       29.86624336      24.10339546      12.92687130
H       28.51910210      23.51645470      13.92011261
H       29.52765274      21.18928528      13.90275097
H       30.60428619      22.36520958      14.70928955
H       30.95570755      21.77501106      13.04922199
C        7.94460392      25.32036972      28.81259537
C        8.21639824      24.39225006      29.99853516
O        9.63102150      24.15123558      30.18491173
C       10.45772934      25.14810944      30.58055496
O       10.19387722      26.33012390      30.70440102
O       11.68476200      24.57448006      30.79141235
C       12.77600288      25.37736130      31.29003525
C       14.07379436      24.81630707      30.69002342
H        8.32743359      26.32831955      29.01214027
H        8.38257027      24.94917297      27.87657738
H        6.85756397      25.40023232      28.65383911
H        7.78423691      23.39580536      29.82062340
H        7.78770304      24.78418922      30.93763733
H       12.60699844      26.42707253      30.99299622
H       12.77857399      25.34008980      32.39117432
H       14.23280716      23.77106094      30.98238564
H       14.91398144      25.41327858      31.06632805
H       14.07782269      24.89866066      29.59022903
C       19.88314438      15.00314426      25.86414528
C       19.52333450      16.12303543      26.83623695
O       19.51601410      17.39724350      26.15985870
C       18.36975479      18.13082314      26.16404152
O       17.23933601      17.67971802      26.02027512
O       18.67291832      19.44762611      26.25671005
C       17.59413528      20.38899612      26.03074074
C       18.17279053      21.77979660      26.26511383
H       19.12792397      14.94354057      25.06608009
H       20.86544609      15.13137436      25.38727760
H       19.85966110      14.04579163      26.40575027
H       20.19144630      16.22093201      27.70462036
H       18.51888275      15.94080162      27.24283981
H       17.23058701      20.27414513      24.98844910
H       16.73209763      20.17601013      26.68431473
H       18.50797653      21.91042519      27.30331039
H       17.40011215      22.53872681      26.06609535
H       19.03068542      21.95839119      25.59728622
C        8.71353149       3.67641926      28.24397850
C        8.16658306       3.24594021      26.87716293
O        8.26688862       4.35140562      25.96632385
C        9.46305561       4.54816389      25.36473083
O       10.44177055       3.82949257      25.46273422
O        9.39537716       5.67703819      24.65816116
C       10.59917736       6.04604387      23.91792107
C       10.29242039       7.41633463      23.32977104
H        9.77171326       3.96287322      28.18729782
H        8.15760899       4.54026699      28.63666153
H        8.61920929       2.86849356      28.97965240
H        7.09548712       3.01713061      26.93266487
H        8.69027901       2.37517929      26.46698761
H       11.45704556       6.06175566      24.60114861
H       10.79251575       5.29290676      23.14432907
H        9.46084785       7.36477470      22.61362267
H       11.17179871       7.80777740      22.80857468
H       10.00460815       8.13525772      24.10737991
C        5.14765596      34.16728973       6.34266281
C        4.61830759      32.72813034       6.21749401
O        3.92010307      32.38119888       7.43970919
C        2.59550261      32.63452530       7.53264809
O        1.84453249      32.91573715       6.60763788
O        2.25024462      32.57952881       8.82653809
C        0.87184286      32.37113571       9.18082619
C        0.87052768      32.04123688      10.67979908
H        4.31775522      34.88233566       6.31589556
H        5.69906187      34.30646896       7.27783298
H        5.83052015      34.34964752       5.50217724
H        5.43389273      31.99893570       6.11957121
H        3.94554830      32.61668777       5.35407352
H        0.28105342      33.27760315       8.96034050
H        0.45794997      31.54874992       8.57593060
H        1.49978149      31.16539001      10.87716103
H       -0.15175703      31.83896065      11.03525734
H        1.28221881      32.87496948      11.26780987
C       18.51135445      21.53994942      22.62236214
C       19.48485184      20.46412086      23.12531853
O       20.81577110      20.88763809      22.76082802
C       21.63294411      21.37105942      23.75256538
O       21.34684753      21.45126915      24.93952370
O       22.79756355      21.78006172      23.19006729
C       23.63720131      22.65008545      23.98816681
C       24.83600235      22.96456528      23.07842064
H       18.75848770      22.50725746      23.08689499
H       18.56976318      21.64273071      21.52906609
H       17.46273994      21.29689407      22.86491776
H       19.32062340      19.47887802      22.65682983
H       19.44342804      20.32925606      24.21731186
H       23.06863594      23.55116081      24.27086639
H       23.90746498      22.15956306      24.93508530
H       25.29533386      22.06956863      22.63748741
H       25.57249451      23.55004883      23.63747787
H       24.50837517      23.54539871      22.20659637
C        4.28568411       7.01278543       7.38940620
C        3.31268287       8.19283485       7.40208340
O        4.11258888       9.39965820       7.40740204
C        4.17662048      10.11778831       6.26395369
O        3.28609371      10.26336098       5.43656206
O        5.39843655      10.69407082       6.23560953
C        5.80277300      11.30551243       4.97585297
C        6.73476028      12.45620251       5.35021162
H        4.90538120       7.04051876       6.48653746
H        4.94587469       7.03126001       8.26132488
H        3.73025036       6.06740618       7.38068676
H        2.65167093       8.24219608       8.27856159
H        2.67022252       8.19262409       6.50526953
H        6.30666685      10.54681110       4.36201143
H        4.89805508      11.60173607       4.41866493
H        6.28712845      13.10228729       6.12269831
H        6.97221994      13.02278328       4.43956661
H        7.66447639      12.04600048       5.76716948
C       20.00801659       5.86979151       3.91541290
C       19.14192390       6.21628952       5.13917065
O       17.77128029       5.82676840       4.89029551
C       17.38467216       4.62252331       5.34800291
O       18.04597855       3.84048057       6.00962877
O       16.10363770       4.41897678       4.97554302
C       15.49339199       3.20835090       5.48496771
C       14.00364113       3.43678212       5.26503181
H       20.03469849       4.78583813       3.75965738
H       19.60408974       6.33541632       3.00656390
H       21.02963448       6.21196318       4.11084127
H       19.11282730       7.29343891       5.35348845
H       19.51292801       5.72399569       6.04364491
H       15.89096260       2.33323359       4.94930649
H       15.73007965       3.09835935       6.55159283
H       13.67982292       4.32260704       5.82183123
H       13.42311192       2.56490636       5.58490944
H       13.80496407       3.61847210       4.19972324
C       20.12739944      12.49209309       8.97494030
C       21.33304405      12.27373600       8.04218864
O       22.19662285      13.44043732       8.04163647
C       23.08696365      13.61675453       9.04333591
O       23.30340195      12.79396725       9.94117546
O       23.71181679      14.80012608       8.89477062
C       24.71391487      15.14973354       9.88574696
C       25.15170860      16.57901001       9.58565807
H       20.40002823      12.40789890      10.03080463
H       19.65760231      13.47535038       8.83750820
H       19.38121605      11.72244358       8.74410534
H       20.99804115      12.16956139       6.99678802
H       21.91372490      11.37961388       8.31440067
H       24.28264999      15.10362625      10.89738369
H       25.55190468      14.43472672       9.82736111
H       25.60258102      16.68731880       8.58998394
H       25.89418221      16.87814140      10.33540916
H       24.30578232      17.27180099       9.67235851
C       31.45729256      15.29226398      34.82675552
C       30.44207191      15.55014229      35.95431137
O       29.26253700      14.72851372      35.74892426
C       29.28515625      13.47790909      36.24549866
O       30.05070496      13.04509068      37.10163879
O       28.30430222      12.77009296      35.64240265
C       28.05992317      11.43650532      36.14887238
C       26.68027878      11.05722618      35.60262299
H       31.86345863      14.27581882      34.86795044
H       31.00032616      15.40919590      33.83501434
H       32.28524017      16.00267792      34.93328857
H       30.04706383      16.57823181      35.93687439
H       30.86663246      15.35351372      36.94919968
H       28.84947014      10.75326633      35.79244995
H       28.09163475      11.44993877      37.24866486
H       25.96606636      11.87045956      35.78285980
H       26.31801987      10.15547085      36.11341476
H       26.68109894      10.84588146      34.52715683
C        6.82257986      15.28231049      12.10995865
C        6.16485167      13.90589905      12.23925400
O        5.21365356      13.97690296      13.32944679
C        3.97809911      14.43415356      13.01186848
O        3.39711308      14.25353432      11.94806290
O        3.50047517      15.06412125      14.09272003
C        2.09378195      15.39523792      14.11478329
C        1.78320456      15.73494053      15.57162666
H        6.06868076      16.02337837      11.80632782
H        7.24790812      15.61962700      13.06234932
H        7.59167385      15.24133778      11.32726002
H        6.88194036      13.11488724      12.49991798
H        5.67053509      13.60614586      11.30417728
H        1.88845789      16.24832535      13.44736099
H        1.50081289      14.54419041      13.74953556
H        2.05414128      14.88603020      16.21520233
H        0.70508492      15.92315865      15.68001080
H        2.35723758      16.60543823      15.91683006
C        6.94269228      26.87198067      14.95294952
C        7.15110826      28.07299232      15.89939117
O        6.41346884      29.23870659      15.45177746
C        5.07200718      29.22703362      15.72648621
O        4.46618700      28.23437119      16.10728645
O        4.54220724      30.42895699      15.48951817
C        3.14030290      30.59869576      15.82067490
C        2.74415922      32.00478363      15.34361553
H        5.88012981      26.79456902      14.68205643
H        7.56062126      26.94562721      14.04762554
H        7.21309662      25.94362640      15.46497440
H        8.20639324      28.40055847      15.86199474
H        6.86618662      27.86933708      16.94495773
H        2.55410194      29.81327820      15.32554913
H        3.01175690      30.49730110      16.90829659
H        3.42353725      32.76092529      15.76886654
H        1.71978343      32.24447250      15.67763233
H        2.76889896      32.03808594      14.24856472
C       17.39764404       7.61525917      33.45060349
C       18.37796783       8.74675751      33.15470505
O       19.45478058       8.67833900      34.10235214
C       20.68691254       8.64764309      33.53863144
O       20.91320419       8.52089977      32.33941650
O       21.62582207       8.79696178      34.50504303
C       22.96419907       8.49545860      34.05056763
C       23.91823196       9.03312016      35.12147522
H       17.83803368       6.64260626      33.20750809
H       17.10460663       7.62565279      34.51042175
H       16.50538063       7.75355101      32.82385635
H       17.89386177       9.73218250      33.25927353
H       18.76449203       8.66859436      32.12690735
H       23.06379128       7.41218567      33.88627243
H       23.15074921       8.99193382      33.08502197
H       23.89743805      10.13297558      35.12138367
H       24.93856239       8.69975948      34.88810349
H       23.64789963       8.69045830      36.13179398
C       31.07886505       6.95383787      10.07878208
C       31.86234665       5.81438208       9.42331982
O       31.05794525       4.60849762       9.35783768
C       29.92627716       4.62378693       8.61988926
O       29.34432030       5.60203218       8.17259502
O       29.51629448       3.34957671       8.46897888
C       28.21647453       3.14285636       7.85640955
C       27.69119072       1.84187388       8.44145584
H       30.17273712       7.16486597       9.48851109
H       30.72420502       6.72734547      11.09148788
H       31.70643234       7.84976053      10.11266804
H       32.72818756       5.53103447      10.04072571
H       32.22688293       6.06086969       8.41505337
H       27.56137276       3.99839973       8.09962082
H       28.31880379       3.10550332       6.75530434
H       28.33713150       0.97935057       8.24809647
H       26.69463158       1.61738908       8.03213978
H       27.60395241       1.91839147       9.53077030
C       10.61424446      28.16179276      10.70054626
C       11.24221420      27.80193710      12.05356121
O       11.46518135      28.97909737      12.85879707
C       10.52471161      29.23528290      13.79321289
O        9.39766788      28.75276184      13.79229355
O       10.96930027      30.12627602      14.69878674
C        9.93626595      30.66518021      15.57814503
C       10.42121601      32.02092361      16.11475754
H        9.63307285      28.63605118      10.85148335
H       11.25841999      28.83886528      10.12750244
H       10.43432045      27.25760841      10.10470772
H       12.23145294      27.33639526      11.93316078
H       10.60801697      27.08673096      12.59786034
H        8.99884415      30.73881912      14.99371815
H        9.74049187      29.97360229      16.42086029
H       11.01886654      31.92102242      17.02822113
H        9.55704212      32.64862442      16.39341545
H       11.02546120      32.54266357      15.36159325
C       20.95920181      23.73199844      27.07948303
C       20.30737495      24.65361977      28.12065315
O       21.33117104      25.10573959      29.04095840
C       21.38139343      26.43536949      29.30822372
O       20.65350342      27.29175949      28.83118248
O       22.35384750      26.64724731      30.21604729
C       22.80556297      27.98619652      30.44535255
C       23.69797707      27.91695023      31.70053482
H       21.78631783      24.23381042      26.56050682
H       21.29149437      22.78005219      27.51026726
H       20.23291016      23.47118187      26.29457855
H       19.53119850      24.13121605      28.70631409
H       19.81440926      25.53133583      27.66943550
H       23.36113167      28.32915497      29.55479240
H       21.94925308      28.66228676      30.59747124
H       23.10352898      27.71097946      32.60141754
H       24.26156616      28.84974861      31.84450912
H       24.41471291      27.09134674      31.59627724
C       14.07271099      13.85642242      31.02184486
C       13.50286961      14.84178734      32.06266022
O       14.15379620      16.13473320      31.99880219
C       13.62605000      16.99633026      31.07958221
O       12.88007832      16.68223190      30.17263985
O       14.08774185      18.23584557      31.33268929
C       13.21181393      19.30112267      30.86684418
C       13.99572277      20.58673477      31.05649185
H       14.07706451      14.30030060      30.01455498
H       15.09522629      13.55415344      31.27570152
H       13.44103527      12.96024513      30.96681786
H       13.66701889      14.50635338      33.10072327
H       12.41765976      14.99110794      31.92943573
H       12.93179703      19.09638214      29.81229019
H       12.27987957      19.27648163      31.45133018
H       14.23089027      20.79598236      32.10693741
H       13.37634563      21.42615128      30.68768501
H       14.94269943      20.54056168      30.49906921
C        5.34194613      34.09070587      25.05001259
C        6.81892920      33.69099426      25.24947357
O        7.56901407      33.91301727      24.02779579
C        8.38770199      35.00363159      23.99431801
O        8.48929787      35.86055374      24.85602760
O        9.07278919      34.99127960      22.82924080
C        9.94064331      36.12636566      22.58563232
C       10.63310719      35.83562851      21.23980331
H        5.24950790      35.16759109      24.84438133
H        4.87730217      33.53801346      24.22646713
H        4.76124763      33.85831451      25.94799423
H        6.91776085      32.61931610      25.46904564
H        7.28640556      34.22859192      26.08787537
H        9.34763622      37.05771255      22.54449844
H       10.66961002      36.21843338      23.40531921
H       11.15435028      34.87297821      21.26966286
H       11.37515926      36.61619186      21.02801895
H        9.90529633      35.77921295      20.41834068
C       13.36427879      35.46253967      12.27884102
C       13.79299259      33.98876190      12.38429928
O       12.65966988      33.12487030      12.50463772
C       11.87255383      32.96212769      11.40562248
O       11.90829659      33.58919525      10.36186504
O       11.03903961      31.94585800      11.70430660
C        9.96496868      31.69083786      10.77515507
C        8.74864483      31.28555870      11.60707569
H       12.69695473      35.58270645      11.41209126
H       12.80892849      35.79441071      13.16517830
H       14.26201057      36.08549881      12.15916348
H       14.39161682      33.81365585      13.29108334
H       14.36799431      33.68381119      11.49657440
H        9.77064037      32.60503387      10.18080997
H       10.27483273      30.90885353      10.05729961
H        8.99068260      30.53934669      12.37903595
H        7.95496368      30.88539696      10.95985031
H        8.30573177      32.16146088      12.10573292
C        5.56606674      33.79494476      20.52920341
C        4.48669910      33.05435562      21.35044098
O        3.47319555      32.43661118      20.53036118
C        3.60322905      31.12217331      20.28349495
O        4.57626200      30.45272827      20.63849831
O        2.58878541      30.64433670      19.53893661
C        2.61813331      29.21340942      19.32758713
C        1.22487080      28.85381889      18.80564499
H        6.23008728      33.08200455      20.02075577
H        5.12555552      34.45162201      19.76313782
H        6.17957497      34.37352753      21.23318863
H        3.94343805      33.74652100      22.00650215
H        4.95407677      32.31111526      22.00683022
H        3.41108918      28.94005013      18.60807419
H        2.85325956      28.71578598      20.27451897
H        0.45477077      29.05756569      19.55704308
H        1.18118143      27.78835106      18.56541443
H        0.97038037      29.41626549      17.89805031
C        5.16131401      15.68401432      17.01554680
C        6.52923536      14.96686268      16.98371506
O        7.53225946      15.98422527      17.25962067
C        7.35685730      16.60632324      18.44306946
O        6.77378654      16.15896034      19.42083931
O        7.87998772      17.85331917      18.36989784
C        7.83013773      18.52820969      19.64853287
C        8.52280045      19.87732315      19.49847412
H        5.07396030      16.30572510      17.91432953
H        5.01902819      16.29471588      16.11740494
H        4.34459257      14.95137405      17.05765152
H        6.77654934      14.55848312      15.99453449
H        6.58695889      14.17350960      17.73861504
H        6.78884315      18.63526154      19.98689079
H        8.34241486      17.92002869      20.40413475
H        9.55110073      19.72419930      19.13334846
H        8.56575012      20.40250397      20.46612549
H        7.97988367      20.50422287      18.77167320
C       29.40553284       6.74271107      34.76236343
C       28.16070175       6.84952593      33.87080383
O       28.41888618       6.19299364      32.60710144
C       27.66442299       5.08583832      32.33424377
O       26.83055496       4.61593390      33.08005524
O       27.93619156       4.62439632      31.09845734
C       27.24316978       3.43362284      30.65096474
C       27.74864006       3.11431623      29.23468018
H       29.54916573       5.68592215      35.02151871
H       30.29932213       7.04288530      34.20090485
H       29.31385040       7.34924316      35.67058182
H       27.91656876       7.90304136      33.65520859
H       27.27981567       6.40618658      34.35470581
H       27.44878769       2.62365556      31.35655975
H       26.16398048       3.62706780      30.64680672
H       27.45006371       3.91443276      28.54960632
H       27.32636833       2.17606688      28.85038948
H       28.83793259       3.02688479      29.21247673
C       35.39804840       1.99744499       4.17950201
C       35.12369919       0.64210635       4.84775686
O       35.21348190       0.79319245       6.28541136
C       34.13394928       1.33928847       6.90262842
O       33.07769012       1.59051180       6.33658934
O       34.36146164       1.51708508       8.21215534
C       33.21924591       1.90932894       9.00475597
C       33.73345184       2.34126139      10.37604904
H       34.62665176       2.72458053       4.46528387
H       36.34632874       2.42075586       4.51622391
H       35.41015625       1.87311041       3.09016705
H       35.86955261      -0.11697454       4.57530785
H       34.12572098       0.26879993       4.57941914
H       32.69879913       2.74345732       8.51829433
H       32.50582504       1.07535291       9.07529736
H       34.30258560       1.54401743      10.87122250
H       32.89414597       2.62493324      11.02729893
H       34.39025879       3.21391082      10.27245808
C        3.15767479      22.46409035      21.73320389
C        4.38908720      21.92777061      22.48571205
O        5.21844101      23.06772423      22.77142715
C        5.46884203      23.37196922      24.08380508
O        5.00959826      22.78174973      25.03995895
O        6.30541229      24.43424606      24.15588188
C        6.43190622      24.99676514      25.48929405
C        7.37263870      26.20520973      25.41523361
H        2.64951682      23.14716339      22.41756058
H        3.42128825      23.02269554      20.83032417
H        2.45938849      21.66419220      21.47181702
H        4.98955679      21.22649002      21.88336754
H        4.08610487      21.44467926      23.42868805
H        5.42298031      25.25159073      25.85407829
H        6.82412338      24.23442650      26.17802048
H        8.40524101      25.89551544      25.20328903
H        7.38434553      26.77855301      26.35737228
H        7.05038404      26.87685585      24.60427475
C       32.07811737      26.11421204      34.16635895
C       30.55816650      26.20483398      33.92721939
O       29.94238472      24.95369339      34.31777954
C       29.57535172      24.83054161      35.61146164
O       29.62391090      25.69036102      36.47431183
O       29.10756493      23.57568169      35.80323792
C       28.64764595      23.27549934      37.13819504
C       28.09322929      21.85571671      37.04409409
H       32.29309082      25.98457909      35.23468781
H       32.50733948      25.26396370      33.62130737
H       32.55961609      27.04288292      33.82725143
H       30.32623100      26.31930542      32.85657883
H       30.10792160      27.02710533      34.49988556
H       29.47707176      23.36623955      37.85524368
H       27.87356949      24.00082779      37.42393112
H       27.32954788      21.77557755      36.25992966
H       27.65068817      21.59005356      38.01303482
H       28.87607765      21.12999916      36.79853821
C       21.81325150      27.62502480      14.89873409
C       20.98215866      28.92080879      14.89558315
O       20.47558212      29.13369751      13.54719448
C       19.30476952      28.53151703      13.24974251
O       18.38341522      28.34185791      14.02651596
O       19.28471565      28.24410057      11.92992020
C       18.04407692      27.71120262      11.38674355
C       18.11961174      27.82453346       9.85564995
H       21.17710686      26.75860596      14.66547966
H       22.59473610      27.65897751      14.12910175
H       22.26297569      27.46741295      15.88521957
H       21.57362366      29.81179047      15.16377544
H       20.12552452      28.87840652      15.58800888
H       17.91975975      26.65888405      11.68770695
H       17.19619560      28.26129532      11.82750607
H       18.32626152      28.85667038       9.55402374
H       17.18763924      27.48395348       9.37591553
H       18.90538025      27.18358231       9.44847012
C        5.78293848       8.05286503      16.29085159
C        5.61633921       8.18815041      17.80372810
O        5.58232641       6.82153988      18.33512115
C        6.44374371       6.51104164      19.29957008
O        7.21840668       7.30581760      19.86008644
O        6.27493811       5.23105145      19.67037964
C        7.01154280       4.77490950      20.83460617
C        6.02115345       4.09621906      21.79024506
H        6.57520866       7.33130169      16.07196236
H        4.86381626       7.70314932      15.80359650
H        6.05698872       9.02414703      15.86757183
H        4.68562222       8.67746449      18.11713791
H        6.45008278       8.72899151      18.26474762
H        7.80342817       4.09725809      20.47678566
H        7.50669765       5.60973358      21.34240532
H        5.45689631       4.83018398      22.38325500
H        6.55194902       3.43734765      22.48480606
H        5.29380941       3.50441122      21.22158623
C       24.04078865       4.48999453      21.48288345
C       24.46942902       4.18689966      20.03508377
O       23.68351364       4.91744995      19.06903267
C       24.12647820       6.17755556      18.79186058
O       24.71949768       6.91692257      19.55976868
O       23.70167160       6.49145174      17.53980637
C       24.01685143       7.84759474      17.09274101
C       23.51909065       7.92416191      15.65258121
H       24.32334900       5.51979923      21.74375534
H       22.95145035       4.39374018      21.59610939
H       24.54226494       3.80553055      22.18006897
H       24.32063866       3.13271999      19.75669289
H       25.52813339       4.44235563      19.88479996
H       23.57334709       8.57437038      17.78833961
H       25.09969902       8.01478672      17.15567398
H       23.89692688       7.07972336      15.06181431
H       23.90547943       8.84129906      15.18971920
H       22.42183685       7.95027018      15.57536697
C       31.08550835       8.30629921      30.51090240
C       31.36588097       8.07589436      29.01768303
O       30.26263237       7.41961241      28.34410286
C       29.34810066       8.24277782      27.75832939
O       29.31983757       9.45561123      27.90216827
O       28.49238968       7.51120901      27.01165199
C       27.63067245       8.26195526      26.12438774
C       26.70774269       7.24114847      25.46759415
H       30.37483025       9.14070415      30.65135956
H       30.64434242       7.41782808      30.97770882
H       32.00506210       8.58450699      31.04413033
H       32.23446655       7.41773796      28.83728790
H       31.55323982       9.03848934      28.50405502
H       27.07738686       9.02767754      26.68610191
H       28.24122810       8.79115772      25.37424278
H       27.26677513       6.49586916      24.88819885
H       26.02662086       7.74870491      24.77030182
H       26.10099602       6.72041416      26.21925545
C       13.61420441      10.41808128       6.70079899
C       13.40016651       9.45726204       7.88639688
O       11.98742294       9.51152611       8.22144222
C       11.39023876       8.36126614       8.63153172
O       11.83731079       7.22758627       8.49725246
O       10.17622280       8.67845631       9.12698746
C        9.12521935       7.67037296       9.12592793
C        8.06934547       8.18665028      10.10236835
H       12.98193645      10.12654018       5.84964752
H       13.33327675      11.44131947       6.96841240
H       14.67295551      10.38558865       6.40378428
H       13.98841000       9.75322819       8.76439762
H       13.67798233       8.42984200       7.61358118
H        8.72993279       7.57845640       8.10155678
H        9.53336048       6.69385767       9.43155003
H        8.47904301       8.33992100      11.10741615
H        7.27231932       7.43571949      10.17167473
H        7.62163782       9.12355137       9.74076939
C       16.79693604       5.33072519       9.21780014
C       16.65307808       6.85181665       9.10823059
O       17.45256615       7.51113129      10.11664391
C       18.61452293       8.03826714       9.65919781
O       18.97594261       8.07213306       8.48556995
O       19.30565262       8.55091953      10.71155548
C       20.69395065       8.84323788      10.39186764
C       21.22800827       9.73173428      11.52100086
H       17.82175446       4.99876690       9.01010513
H       16.50366592       4.99191713      10.22061253
H       16.15164757       4.84760427       8.46992493
H       15.61559772       7.17517185       9.27927017
H       16.95997810       7.18480444       8.10590553
H       21.25340271       7.90199900      10.28514385
H       20.73054314       9.34344006       9.41070557
H       20.55845451      10.59554291      11.65882778
H       22.22184372      10.10782719      11.24972343
H       21.28696632       9.19830894      12.48018169
C        9.76264000      22.91608810      17.28653908
C       10.67324162      22.22125435      18.30656815
O       11.22182274      21.02844810      17.68554115
C       12.36503983      21.26927185      16.97986031
O       12.93224812      22.35539436      16.94660950
O       12.76905918      20.16593742      16.30607796
C       14.08711338      20.31089783      15.69004440
C       14.38624096      19.05135536      14.88488674
H       10.35379696      23.31848907      16.44833565
H        9.01399040      22.22817230      16.87262535
H        9.22095871      23.73470116      17.77742195
H       10.11057281      21.91204643      19.20221329
H       11.48533058      22.89052963      18.64218521
H       14.09553623      21.20098114      15.04041290
H       14.83609676      20.49962616      16.47860527
H       14.35835075      18.13533020      15.49935627
H       15.39133549      19.12214088      14.43912601
H       13.67495441      18.91088676      14.05720520
C       33.46635437      11.36519718      26.21892929
C       32.06259918      10.92091560      25.80438995
O       32.12997818      10.09931946      24.61337471
C       31.27261543       9.05064774      24.55846024
O       30.51836014       8.71489334      25.45512199
O       31.35528755       8.46975517      23.34214973
C       30.71729469       7.18566370      23.15258980
C       30.14807701       7.13895369      21.72954178
H       34.06791687      10.51519966      26.56309319
H       33.97921371      11.86308575      25.38627815
H       33.38072586      12.06301785      27.06685448
H       31.41679001      11.78678608      25.58843613
H       31.53067398      10.36255836      26.59586525
H       31.48647499       6.41217375      23.29260445
H       29.95348167       7.05206919      23.93422508
H       29.29950523       7.82607794      21.60299492
H       29.78522873       6.13016272      21.48179054
H       30.91172218       7.40502310      20.98690796
C       14.12799454      33.10353088      19.24661636
C       15.14112663      34.21795654      18.97984505
O       16.36159897      34.02220154      19.70381355
C       17.24513626      33.17146683      19.09030914
O       17.13343620      32.78440094      17.93545914
O       18.29998589      32.96648407      19.91189575
C       19.30144501      32.04494858      19.42032623
C       20.33815193      31.86347580      20.54056740
H       14.52558136      32.17348480      18.82973671
H       13.92304134      32.93198013      20.30852890
H       13.18956757      33.30402374      18.70926666
H       14.79918861      35.23213577      19.24392319
H       15.36709690      34.18506241      17.89436531
H       18.80385017      31.09936523      19.12979698
H       19.76384354      32.46187592      18.50941849
H       20.68688202      32.81966400      20.94478607
H       21.21727180      31.33715248      20.13421822
H       19.94582367      31.28059006      21.38931847
C       21.49684906       9.94010544      17.19189644
C       20.91947937      11.00198841      18.11088181
O       19.58292961      10.60659218      18.52719498
C       19.47726631      10.52081966      19.87403107
O       20.38067436      10.21504688      20.64283562
O       18.20869827      10.79920578      20.27372169
C       17.98306656      10.36463165      21.63878441
C       16.56977081      10.79950142      21.99359703
H       21.52589607       8.96494389      17.70960045
H       20.91549873       9.78452778      16.27299500
H       22.51535416      10.22811508      16.88699722
H       20.82921791      11.97637463      17.61048126
H       21.54131126      11.17180824      19.00134659
H       18.12402916       9.27423286      21.68928146
H       18.74957275      10.78182411      22.30490685
H       16.47283554      11.89156914      22.02035141
H       16.28791428      10.40699863      22.97810745
H       15.85819626      10.41690445      21.24936104
C       30.53525543      10.81490326      21.23288727
C       31.60310745      11.88933372      21.07118988
O       32.70658112      11.74976444      22.01016808
C       33.40516281      10.59098816      21.99535751
O       33.15314102       9.61808586      21.31825638
O       34.47855377      10.71478462      22.83228683
C       35.38186264       9.59444714      22.89018440
C       36.19306946       9.81668472      24.17208672
H       30.82499695       9.88805008      20.72493553
H       30.34854126      10.58081627      22.28775978
H       29.59620285      11.16600990      20.78123474
H       31.20448112      12.89468861      21.28378487
H       31.99151039      11.89173508      20.03540039
H       34.81213379       8.65522194      22.91017532
H       36.00718307       9.56927681      21.98041534
H       36.63030624      10.82757378      24.19003105
H       36.97467422       9.05096340      24.24909401
H       35.54627991       9.71901608      25.05570412
C       23.85161018      25.77805328      12.05913830
C       22.84325600      25.16943741      11.07941532
O       22.79298592      23.73517418      11.30952644
C       21.81217575      23.28779793      12.14008999
O       20.95941353      23.96842575      12.69309616
O       21.87625885      21.92474937      12.19861221
C       20.76057816      21.33701134      12.93773460
C       20.87282753      19.82019615      12.82940102
H       23.55205345      25.53982544      13.09011364
H       24.86229897      25.36927032      11.91943455
H       23.88256454      26.87012863      11.93983650
H       23.10401154      25.27493668      10.00876045
H       21.83485031      25.59116936      11.21044922
H       20.77453423      21.74887085      13.96252155
H       19.82803345      21.68647766      12.45742702
H       20.99434090      19.46422195      11.79607201
H       19.89968681      19.39605904      13.13646126
H       21.64296150      19.36523438      13.46507549
C        3.90203619      16.70581627      30.41797256
C        4.86037827      17.45583534      31.35602570
O        5.01790905      18.82287979      30.88867950
C        4.55313063      19.78883553      31.70524979
O        3.73039484      19.64382362      32.60187912
O        5.07240772      20.98932648      31.36306190
C        4.47958422      22.09891319      32.09871674
C        5.32194710      23.34757614      31.82872963
H        2.91386914      17.18404579      30.43345070
H        4.26504564      16.69165421      29.38254166
H        3.78634191      15.66561985      30.74758911
H        5.86441088      17.00523376      31.36951828
H        4.49628496      17.47932243      32.39212418
H        3.43767214      22.22447395      31.76949501
H        4.43981695      21.88271713      33.17370605
H        6.30209494      23.27313805      32.31805038
H        4.81399632      24.23051834      32.24330139
H        5.46943474      23.49889565      30.75098038
C       18.73757935      15.46525383       6.40291119
C       18.51232910      16.78615570       7.17171478
O       17.48351860      17.56319046       6.53309155
C       16.42272568      17.87971306       7.34578419
O       16.09874535      17.24110794       8.32811165
O       15.77056313      18.96069527       6.86423349
C       14.58159447      19.31553650       7.62494659
C       14.15110874      20.71271133       7.14665985
H       17.91658974      14.76540947       6.61012554
H       18.78228760      15.61143970       5.31221628
H       19.67076302      14.98836803       6.73214960
H       19.42248344      17.41056061       7.16919136
H       18.24704933      16.59469032       8.22474384
H       13.80503464      18.56087685       7.43610144
H       14.79081440      19.29615784       8.70752525
H       14.80475616      21.49126244       7.56333637
H       13.12558937      20.93208504       7.47574568
H       14.16913795      20.75829124       6.04939795
C       17.22470665      14.05644703      19.84361458
C       17.84883499      14.69766045      18.59962463
O       18.97985268      15.49372387      19.01238060
C       20.17747879      15.04360199      18.55028152
O       20.34204865      14.02919579      17.88462639
O       21.16401100      15.88576412      18.92996979
C       22.49702454      15.35715485      18.70895767
C       23.45682907      16.48276138      19.08821487
H       17.95246506      13.38694382      20.31893539
H       16.88339043      14.79003239      20.58758926
H       16.36051559      13.44127178      19.55027771
H       17.14542770      15.36778927      18.07482910
H       18.17745781      13.94350147      17.86283493
H       22.64307785      14.46452808      19.33649635
H       22.60035706      15.04925823      17.65668869
H       23.25688744      17.36610222      18.46428299
H       24.48894882      16.14756966      18.92527580
H       23.35521126      16.78423691      20.13782120
C       33.70614624      15.20378017      26.48063660
C       34.42841721      15.74265766      27.72128487
O       34.84977722      17.11805344      27.48283768
C       34.01131821      18.10350990      27.83472824
O       33.04310989      17.98128128      28.58526993
O       34.32686234      19.24781609      27.20025635
C       33.29083252      20.26445770      27.25900269
C       33.90853882      21.54436493      26.69097137
H       33.06753922      15.98380280      26.03429604
H       34.39733124      14.83581352      25.71025085
H       33.04379272      14.37821770      26.77625084
H       35.35461807      15.18960762      27.93534660
H       33.78455734      15.70117950      28.61037827
H       32.42052460      19.92072868      26.67211533
H       32.93459702      20.39672852      28.29156113
H       34.83604431      21.78435898      27.22411156
H       33.20430374      22.37824249      26.81186104
H       34.14546967      21.41560555      25.62805557
C       10.08048439      14.17633247      13.05859184
C        9.97631264      14.78116989      14.46229267
O        9.28397655      13.77235317      15.25991249
C        9.97610760      13.16565037      16.24160957
O       10.96489429      13.60430908      16.81758308
O        9.38071251      11.97536659      16.49192810
C        9.89052296      11.28102303      17.66747856
C        8.73451328      10.42060280      18.18220139
H       10.67462444      13.25743866      13.08373737
H        9.08454800      13.89210320      12.69456959
H       10.54120541      14.85968685      12.33544064
H        9.36036968      15.69233227      14.50954247
H       10.95802402      15.01147747      14.90907574
H       10.75934315      10.66816044      17.37226295
H       10.25601196      12.01470566      18.40352249
H        7.89691305      11.04714680      18.53237152
H        9.05238438       9.80121326      19.03224373
H        8.33671856       9.76841927      17.39085579
C        5.86405611      17.16645241      26.58253479
C        7.26656914      16.91650200      27.14835548
O        7.51238394      15.50131702      27.30902100
C        8.03269005      14.88762569      26.22183800
O        8.12021255      15.35504341      25.09702110
O        8.43198872      13.64451790      26.58599091
C        8.98912048      12.85071373      25.50091743
C        9.59365845      11.60246468      26.14132881
H        5.76064777      16.73764420      25.58100128
H        5.08572817      16.74318123      27.22318649
H        5.67318869      18.24078941      26.52380753
H        7.37303925      17.34261703      28.15246391
H        8.02626705      17.35686302      26.48160553
H        8.18863487      12.59117413      24.79246330
H        9.74914074      13.43096352      24.95500374
H       10.38969231      11.88136959      26.84390259
H        9.98913574      10.92369080      25.37429810
H        8.82652283      11.07991219      26.72599411
C       17.30825233      22.56031036      13.90534019
C       16.71466255      21.75583649      12.73974800
O       15.46823215      22.27523613      12.19697094
C       15.63533020      23.34776497      11.38482857
O       16.65686035      24.01576233      11.32082653
O       14.50821114      23.57150650      10.65652084
C       14.53589439      24.79074860       9.86936665
C       13.07263565      25.19002533       9.66649246
H       17.88390923      23.41566658      13.52361107
H       16.54027367      22.92235947      14.60737324
H       17.97201729      21.89078331      14.47052097
H       16.43729591      20.73318863      13.04919910
H       17.41592598      21.68367195      11.88361549
H       15.09406757      25.56788063      10.42231464
H       15.05916977      24.62199783       8.91079617
H       12.52728844      24.45596123       9.05826950
H       12.99081707      26.16121864       9.16513348
H       12.57680988      25.26450157      10.64220142
C       31.30654335       9.97334671      17.33604622
C       32.54324341      10.50113678      16.63013268
O       33.14259338       9.60925388      15.66733074
C       32.38874817       8.94974518      14.75323296
O       31.24659729       9.22921753      14.41918087
O       33.14212036       7.95794296      14.21380711
C       32.46884155       7.10704327      13.26695633
C       32.98241806       5.68252182      13.43179417
H       30.58306694       9.51769161      16.64309692
H       31.53813362       9.22582722      18.10070229
H       30.80435944      10.81446457      17.83482170
H       33.35726166      10.68258572      17.35491371
H       32.30107117      11.44194221      16.10447693
H       31.37769127       7.16237783      13.43839741
H       32.65551758       7.48318386      12.24330997
H       34.04874039       5.55955696      13.20839787
H       32.44458008       5.02096844      12.73453617
H       32.79842758       5.32887697      14.45190907
C        9.30186272      32.15460968      20.97363091
C       10.47473907      31.77216339      20.05187035
O       10.87663841      30.38929939      20.15174294
C       10.05560207      29.50428391      19.52533531
O        8.89013863      29.69298553      19.22400665
O       10.78303528      28.41855049      19.12714767
C       10.01946640      27.22353935      18.85850334
C       10.99276733      26.04894638      19.00307274
H        8.42717457      31.51537132      20.77502632
H        9.55099869      32.05376053      22.03915596
H        8.99489880      33.19831085      20.80286026
H       11.39455700      32.32340240      20.31318092
H       10.24976444      31.98029709      18.98510170
H        9.17607307      27.16253090      19.56756973
H        9.56916618      27.28891754      17.84656334
H       11.98178196      26.28562164      18.58345222
H       10.58522511      25.16835213      18.48246002
H       11.12351036      25.77236748      20.05704117
C        6.06426573      24.21183205      17.61640167
C        6.80641031      25.31715965      18.39292145
O        5.84271479      26.20795631      18.99104118
C        5.62734604      25.91729736      20.30459976
O        6.27017355      25.09410095      20.93173027
O        4.61303377      26.65174294      20.79584885
C        4.25606394      26.23770142      22.14945602
C        3.23417735      27.23843575      22.67959595
H        5.46747875      23.62431145      18.32250404
H        5.38081026      24.65102768      16.87647057
H        6.75984955      23.54089546      17.09789467
H        7.39407635      25.92811394      17.68514633
H        7.48125935      24.90025902      19.16175461
H        3.88536954      25.20473289      22.10874176
H        5.16345215      26.20993423      22.77402496
H        3.59203577      28.26947594      22.63041687
H        2.97918868      27.02091217      23.72055435
H        2.29793572      27.22030067      22.11243439
C       36.05829239      31.99563789      34.68711853
C       35.62054443      33.46422195      34.70935440
O       34.18439102      33.49287415      34.76158142
C       33.52463913      34.01521301      35.81782913
O       33.99007797      34.75510788      36.66653824
O       32.25304031      33.59546280      35.75365448
C       31.37838745      33.81922150      36.88603973
C       30.01260185      33.23071289      36.50918579
H       35.83214951      31.50882149      35.63804626
H       35.54428101      31.44967270      33.88986206
H       37.13702011      31.91350937      34.50326157
H       35.95357895      33.97001266      33.79244995
H       36.03224564      34.00451279      35.57105255
H       31.75834656      33.30661011      37.78129578
H       31.32777977      34.89667511      37.11090851
H       29.51833344      33.74916077      35.64981461
H       29.36794853      33.25166702      37.39883423
H       30.12681007      32.17705536      36.21913147
C       20.47268486      11.57597637      30.96255684
C       21.00002289      11.82614136      32.37416840
O       20.26281738      12.87529373      33.06212234
C       19.83874512      12.65519714      34.31608963
O       19.92473602      11.62382507      34.96588898
O       19.22210884      13.77908516      34.79094696
C       18.35623169      13.58809757      35.93616867
C       17.90248299      14.98022556      36.35837936
H       19.38569832      11.40709209      30.92458344
H       20.76401520      12.36596394      30.25646210
H       20.90691376      10.63344097      30.59994888
H       22.05197144      12.14964104      32.31087112
H       20.95233917      10.91048145      32.97102356
H       17.50589180      12.95540047      35.63147354
H       18.87918091      13.05860329      36.74626541
H       18.74222183      15.57885075      36.73583603
H       17.14387703      14.92467213      37.14583969
H       17.46476364      15.48856926      35.48689651
C       24.06558037      14.37600422      28.26398277
C       23.78741264      15.49357128      29.26565933
O       23.08955956      15.03133392      30.45608330
C       23.90305710      14.65053082      31.46220779
O       25.11386108      14.53265572      31.39517784
O       23.16604233      14.41287136      32.58274078
C       23.97134590      13.96430111      33.69908524
C       23.04504585      13.55615234      34.85705566
H       24.80875015      13.67658138      28.66354942
H       23.16444016      13.79950428      28.02105331
H       24.46526146      14.82342052      27.34001350
H       23.12004471      16.26484108      28.84185982
H       24.73337364      15.97068787      29.56102753
H       24.59734726      13.12316608      33.35290909
H       24.66930008      14.76098061      34.00276566
H       22.26063156      14.31405735      35.02770615
H       23.64695168      13.44522953      35.77320480
H       22.53092003      12.60626793      34.66588974
C        5.23768234      33.84286118      10.59310246
C        5.08637571      32.66986847      11.57565308
O        4.21280336      31.67293167      11.03805637
C        4.74114704      30.77928543      10.19729996
O        5.94180202      30.68750572       9.89143944
O        3.78954458      29.95819092       9.69583702
C        4.28370047      28.97486687       8.77418232
C        3.07663941      28.11522293       8.39978123
H        5.78007030      33.52004242       9.69472694
H        4.26765013      34.22567749      10.25575447
H        5.81450748      34.63812637      11.08210945
H        4.63825512      32.97598267      12.53281212
H        6.06805754      32.23357010      11.81952572
H        4.71279335      29.47375870       7.89157724
H        5.08513641      28.39208031       9.24681377
H        2.62732983      27.70798492       9.31279278
H        3.36320734      27.28797913       7.74045277
H        2.31819892      28.72559738       7.89248371
C       20.30795670      18.10898781       3.38955855
C       20.04581833      17.35086632       2.08108926
O       20.30334091      15.93369865       2.32516789
C       19.26434135      15.09436607       2.15438318
O       18.08739853      15.39513588       2.03340149
O       19.73355293      13.81474113       2.12955546
C       18.69855881      12.79849529       2.18928719
C       19.41027641      11.45143986       2.04249096
H       19.58372688      17.83567810       4.17225266
H       21.31719589      17.90579414       3.77904654
H       20.18147469      19.18993950       3.20949030
H       20.74962425      17.64334106       1.28342497
H       19.01156807      17.50226212       1.72520757
H       18.17688179      12.89185619       3.15280199
H       17.96020317      12.95916080       1.39003944
H       19.93992043      11.35695648       1.08395159
H       18.65876579      10.65061474       2.09700394
H       20.12677193      11.31534195       2.86179900
C       19.14600372      31.75604630      16.00513458
C       18.34358215      31.76223183      14.70749378
O       17.08539391      32.48450851      14.82503223
C       17.02877045      33.74752808      15.31260300
O       17.95516014      34.52484131      15.52064514
O       15.71119881      34.08869553      15.41570854
C       15.39004898      35.46604919      15.67566490
C       13.88528538      35.53994370      16.00312614
H       19.20499611      32.74708176      16.46606445
H       18.70150566      31.08763695      16.74526596
H       20.17112350      31.43743706      15.78502464
H       18.00704575      30.75037575      14.41041183
H       18.92152596      32.17089844      13.86107922
H       16.02024651      35.85834885      16.49028397
H       15.61959267      36.05249786      14.76454353
H       13.30876160      34.98553085      15.25307846
H       13.54567337      36.58320236      16.04290581
H       13.64440250      35.06338120      16.96043968
C       35.68312836      31.10218239      14.12296963
C       34.74216080      30.38032341      13.13706970
O       33.36611176      30.77503014      13.29912472
C       33.02365875      32.02192307      12.91609573
O       33.77846146      32.83337784      12.38254356
O       31.71290398      32.19456863      13.12495995
C       31.18325615      33.48282623      12.72980118
C       29.71723557      33.47779465      13.17489719
H       35.52530670      32.18532944      14.06139851
H       35.51281357      30.82257843      15.16908932
H       36.71959686      30.86817360      13.85914612
H       34.73764038      29.29500771      13.29888153
H       35.06001663      30.57070732      12.10159206
H       31.77906609      34.27101135      13.21302986
H       31.27816772      33.59840775      11.63569546
H       29.36147118      32.44246292      13.17419720
H       29.11213684      34.06228256      12.47137547
H       29.60296440      33.88481903      14.18434048
C       12.55086327      22.50913811      37.20063782
C       11.28046322      21.66503716      37.04032898
O       11.51904774      20.53143692      36.17994308
C       11.69125462      19.32611465      36.77966690
O       12.06110001      19.16599464      37.92676544
O       11.42868900      18.33280182      35.88789749
C       11.50033855      16.99627304      36.42727661
C       11.48695469      16.06465340      35.19477844
H       13.28806973      21.96516991      37.80558014
H       13.01001072      22.71378708      36.22726822
H       12.32111835      23.44811440      37.72187424
H       10.47605324      22.23691559      36.54663467
H       10.90845680      21.34158134      38.01891327
H       12.41847324      16.89059258      37.02560806
H       10.65135288      16.82422447      37.10401535
H       10.52760601      16.13199997      34.66454697
H       11.64194870      15.02203083      35.49898529
H       12.27783298      16.37254906      34.49702835
C       11.90577316       8.63550663      19.35044289
C       12.39955807       7.75925922      18.19626045
O       11.76585197       8.10464001      16.93128204
C       12.20853138       9.20996571      16.30542183
O       13.07315063       9.97974110      16.75632095
O       11.57293606       9.31745148      15.15033245
C       11.80877113      10.42452812      14.22926426
C       10.77130127      10.21011066      13.14043713
H       11.97253418       9.69701385      19.08781815
H       10.85334110       8.44040871      19.57994080
H       12.48010635       8.46115303      20.26378632
H       12.13786411       6.69839716      18.31507492
H       13.49448681       7.82598019      18.08453941
H       11.69690228      11.38108063      14.76710129
H       12.83823395      10.38092136      13.83457851
H       10.85100174       9.20655441      12.70165920
H       10.89590836      10.93562412      12.32879543
H        9.75086689      10.30001640      13.53851986
C       29.97863960      25.86844444       5.28800678
C       29.58262253      27.30718994       4.93017006
O       30.68058014      27.95650864       4.28726387
C       30.89440918      27.87096024       2.96112323
O       30.22905540      27.19438934       2.16776657
O       31.92283821      28.65651894       2.62801743
C       32.61371231      28.41477776       1.37307096
C       33.84249878      29.33788872       1.40921748
H       30.26160049      25.27877808       4.40993166
H       30.83670235      25.84573936       5.96649885
H       29.11885262      25.38142776       5.76202011
H       29.34971809      27.91219330       5.82433176
H       28.70644379      27.33067322       4.26113033
H       32.90302277      27.35717392       1.31298053
H       31.94808388      28.66260529       0.53179216
H       33.53064346      30.38156509       1.54352200
H       34.38939285      29.24031639       0.45757103
H       34.52230453      29.08551025       2.23622775
C       17.08482933      27.37776756      28.67449760
C       16.40616035      28.74628639      28.86349869
O       15.14757252      28.83676147      28.13754463
C       14.12535095      28.12973785      28.67738914
O       14.25210476      27.38512230      29.64762306
O       12.98545074      28.33265495      27.99053574
C       11.83545589      27.63163757      28.55492210
C       10.62734985      27.94409370      27.66931725
H       16.51423645      26.58414841      29.16246605
H       17.16527748      27.10695076      27.61326790
H       18.10022545      27.40652084      29.08806229
H       17.01792145      29.55055237      28.42655373
H       16.21068001      28.97243118      29.92480850
H       12.05538750      26.55024719      28.60114288
H       11.70236683      27.96495056      29.59945488
H       10.60208416      29.01384163      27.41828156
H        9.69534302      27.68742180      28.19946671
H       10.58988953      27.36102104      26.73713493
C       24.98533821       2.86663628       6.00258446
C       23.92155075       3.20127511       4.94993639
O       23.15186310       4.35990715       5.35093498
C       23.79204941       5.54808426       5.35359526
O       24.91499901       5.76070356       4.90225220
O       22.98750496       6.46726370       5.90338373
C       23.43555260       7.84577227       5.81586552
C       22.37926674       8.68897247       6.53297472
H       25.71206474       3.67696953       6.10210228
H       24.53620720       2.72563291       6.99310255
H       25.51584244       1.95069492       5.72266817
H       23.16959000       2.40272498       4.88042212
H       24.37887192       3.36196613       3.96351933
H       24.41756058       7.94348240       6.30221128
H       23.53771782       8.12131691       4.75360966
H       21.37568474       8.44598961       6.16402817
H       22.57254410       9.75320625       6.35549784
H       22.37318993       8.52231216       7.61708879
C        7.52018833      19.56485939       9.02407074
C        6.50131893      19.34816170      10.16235352
O        7.19935465      18.91980171      11.34966087
C        7.30871201      19.80336189      12.36463356
O        6.86730051      20.94879341      12.36987877
O        7.98428726      19.22672272      13.36884117
C        8.17713356      20.01144028      14.58059788
C        9.05662918      19.19632530      15.52525616
H        8.24318886      20.32966995       9.32283211
H        8.05934334      18.64355087       8.79418182
H        7.00914049      19.89032173       8.10706043
H        5.79317951      18.54981422       9.89928246
H        5.94318771      20.26758194      10.39120388
H        8.63544750      20.98501015      14.33519077
H        7.19678926      20.23473167      15.02622509
H        8.58372974      18.23693275      15.77509022
H        9.20674896      19.74758720      16.46763229
H       10.05075645      18.99028206      15.10376072
C       20.20857430      36.79117584      12.43867970
C       21.19487953      37.05858612      11.30205059
O       21.16338730      36.07706070      10.23253155
C       20.33302689      36.24152756       9.20379734
O       19.54331970      37.20043564       9.10023499
O       20.44224358      35.25831604       8.32438469
C       19.38548660      34.98812485       7.35662746
C       19.44931602      33.48395920       7.08328104
H       19.16900063      36.98197556      12.13370132
H       20.30081558      35.77616882      12.83630180
H       20.41947174      37.49571228      13.24856281
H       22.22625923      37.05235291      11.69280815
H       20.99895859      38.05020905      10.88021374
H       18.40186119      35.27707291       7.74907255
H       19.56011391      35.55089188       6.42223310
H       20.43227005      33.18273163       6.69882631
H       18.68159485      33.18808365       6.35526276
H       19.26478004      32.95351410       8.02290249
C       22.91007996      16.55953217      24.51538467
C       22.52053070      18.01893044      24.78918076
O       22.64120293      18.74943733      23.54572678
C       21.81370354      18.37736511      22.52372742
O       20.75466728      17.78418350      22.66516876
O       22.31482506      18.79630089      21.34347343
C       21.35954475      19.06135178      20.28221893
C       21.99357414      20.15674019      19.42834854
H       22.18252754      16.07637405      23.84193993
H       23.89326859      16.48114777      24.04086685
H       22.93967819      16.00641823      25.46316910
H       23.18443489      18.51643562      25.51941872
H       21.49172211      18.12632942      25.16529083
H       21.14682961      18.14546585      19.70706367
H       20.40122032      19.38679695      20.71555328
H       22.21102905      21.03422737      20.04808807
H       21.28525352      20.45441818      18.64068794
H       22.91731644      19.82292557      18.93297005
C       14.63406277      25.92879295      26.47591209
C       13.73183727      25.76090050      25.23756790
O       12.66979980      26.74466133      25.22804832
C       13.07823944      28.02917099      25.03372765
O       14.22003269      28.36608505      24.76488304
O       12.02422714      28.86743927      25.16170120
C       12.23459816      30.26307487      24.81955147
C       10.87981415      30.92813683      25.14344978
H       15.04333305      26.94877243      26.49787521
H       14.10620975      25.74378967      27.42390823
H       15.47539139      25.22648811      26.40034294
H       13.20082378      24.79423141      25.19465637
H       14.32421112      25.86052704      24.30685425
H       13.08444500      30.65687561      25.40468025
H       12.49876785      30.34338951      23.74469757
H       10.07940388      30.24052429      24.84891701
H       10.72067833      31.87259293      24.60177231
H       10.73633766      31.14284515      26.21568298
C       28.08979034      16.22106934      24.67452049
C       29.21999550      17.23531914      24.81013107
O       28.69600296      18.54516983      25.27365112
C       28.65221596      18.79464149      26.60550117
O       28.75694466      17.96034431      27.51484680
O       28.51217079      20.12519836      26.79801941
C       27.84653473      20.61736679      28.00637054
C       27.48733902      22.06236458      27.72676849
H       27.28642082      16.43640709      25.38892746
H       27.65035248      16.21142769      23.66722870
H       28.45572853      15.22227478      24.93592262
H       29.72151566      17.43455696      23.85185051
H       29.99283791      16.93406296      25.53490067
H       26.96321106      19.99170113      28.19054794
H       28.51946259      20.55896187      28.86879730
H       28.39553833      22.64213562      27.52984810
H       26.99060249      22.48025131      28.61047745
H       26.79930496      22.13910675      26.87697601
C       28.47341537      13.49906063       7.65611076
C       28.38053894      13.87315178       9.13896370
O       27.85129547      12.73545551       9.89108562
C       28.76682091      11.82142353      10.24678707
O       29.96761703      11.87792206       9.99687099
O       28.16531944      10.78343582      10.87996674
C       29.09594727       9.71470928      11.23700237
C       28.25623512       8.56825352      11.76051140
H       29.19519997      12.68636799       7.51878357
H       27.49727440      13.15188980       7.29164743
H       28.81322289      14.37222004       7.08700705
H       27.66451454      14.68177795       9.33040047
H       29.35862160      14.16446495       9.55108833
H       29.68897820       9.43947411      10.34825802
H       29.80144501      10.06211662      12.00603390
H       27.57628632       8.88953114      12.55692291
H       28.92584038       7.81506920      12.19550896
H       27.65078163       8.07522869      10.98723888
C       12.76792145      20.62153816      20.39337921
C       13.09760952      21.45231819      21.65170479
O       12.41335869      22.72414970      21.62752151
C       11.09232426      22.68482590      21.97127151
O       10.47170448      21.65608215      22.20508003
O       10.59368038      23.92618942      21.95558357
C        9.22148800      24.09407043      22.44872475
C        8.85346317      25.56572342      22.29660606
H       11.68598461      20.43111229      20.34332466
H       13.06905079      21.14089775      19.46937943
H       13.25377846      19.63776207      20.42401123
H       14.17084217      21.70915222      21.67968369
H       12.81772804      20.91341591      22.57405281
H        8.55040932      23.42393684      21.87695312
H        9.18259239      23.77506447      23.50715828
H        9.45915794      26.23762131      22.92150116
H        7.79573917      25.71645164      22.57906342
H        8.95131493      25.88952446      21.24730301
C       16.05666161      25.34452248      14.18029022
C       15.61427879      26.70859718      13.68801022
O       14.17906189      26.90017128      13.67756462
C       13.57431793      26.80035973      14.89582062
O       14.15449333      26.70244408      15.96921158
O       12.23548508      26.90750694      14.73796082
C       11.48423672      26.56529808      15.92453003
C       10.12898922      26.06501770      15.42669868
H       15.81321716      25.18377113      15.23839569
H       15.58244228      24.53640556      13.60615730
H       17.14783859      25.28224373      14.05741310
H       15.87689400      26.82046509      12.61964703
H       16.11092758      27.52037430      14.24562168
H       12.03251648      25.79191017      16.49154472
H       11.40035439      27.45608139      16.58004379
H        9.64239979      26.82914162      14.80156517
H        9.46339798      25.83616257      16.27185631
H       10.22541237      25.14157677      14.83977985
C       29.50203896      18.68689728      11.10896683
C       27.97776222      18.86550903      11.00168705
O       27.57704926      19.63023758       9.85302448
C       27.41336823      18.98343849       8.67041492
O       27.52517509      17.78313637       8.50496769
O       27.03592300      19.86464310       7.70671320
C       26.65338135      19.27951622       6.43525028
C       26.50274277      20.44372559       5.45394373
H       29.89043045      18.06162834      10.29447269
H       30.01646996      19.65163612      11.06143856
H       29.74605751      18.20658684      12.06454563
H       27.57356834      19.42255974      11.86379147
H       27.46826172      17.89197350      10.98139668
H       27.43134689      18.57386589       6.10582542
H       25.69882965      18.74205399       6.55855894
H       25.72819519      21.14132881       5.80935955
H       26.23288727      20.06459808       4.45469856
H       27.45267296      20.98838234       5.36720037
C       16.36630440      18.93282700      11.21914959
C       17.83812141      19.10647774      10.85224915
O       18.04727364      19.13516998       9.42387676
C       17.77536964      20.33155251       8.83444309
O       17.02079582      21.18492508       9.29689884
O       18.38338852      20.36783791       7.62033081
C       18.23803902      21.56858063       6.83463049
C       18.65888596      21.17905807       5.40406990
H       15.76729298      19.83368301      10.98974991
H       15.94120026      18.10590363      10.63701439
H       16.23307228      18.71262360      12.29255581
H       18.45654869      18.25940132      11.19282436
H       18.29710007      20.01950073      11.26903248
H       17.19305420      21.91660309       6.87893581
H       18.88046074      22.35590744       7.26515102
H       19.72204399      20.89143372       5.40401697
H       18.51314735      22.01355553       4.70303392
H       18.09020615      20.31939507       5.02490759
C       18.37985039       2.02401447      18.50921631
C       18.94127464       2.03168511      19.93298149
O       19.93545723       3.05226636      20.18349075
C       19.69805527       4.32505131      19.78905678
O       18.85148621       4.72861910      19.01018333
O       20.63702774       5.10774803      20.39284897
C       20.35538864       6.51709986      20.39988518
C       21.66975212       7.25127411      20.17821121
H       17.72746277       2.88358068      18.32269859
H       19.17119789       2.00359488      17.74696922
H       17.75688362       1.12699139      18.38633156
H       19.47819519       1.09315133      20.12641716
H       18.14796066       2.12868404      20.69061852
H       19.61022186       6.76392317      19.62429047
H       19.88492012       6.79594755      21.35964966
H       22.50461960       6.79569197      20.73438644
H       21.53213120       8.30169392      20.47578049
H       21.94174194       7.24594259      19.10810852
C        8.06368923      12.02542973      29.95090485
C        9.48506832      12.27377701      30.47480011
O       10.37157249      12.69944859      29.40556145
C       10.52163029      14.04427814      29.22377968
O        9.94905853      14.91776848      29.84980774
O       11.37160683      14.22711468      28.18373299
C       11.39666271      15.55104351      27.58860588
C       12.38039398      15.47259331      26.41983223
H        7.64771509      12.94358826      29.51548195
H        8.03249931      11.24669361      29.17799568
H        7.42967224      11.70428371      30.78479004
H        9.92980480      11.35459232      30.87994385
H        9.47763443      13.02030754      31.28506279
H       10.37703609      15.79776287      27.24865532
H       11.67128372      16.28461647      28.35836411
H       13.38918018      15.19790268      26.75282288
H       12.43665886      16.45925331      25.94029617
H       12.07326984      14.73931789      25.66124344
C       28.89942551      19.97334671      33.70613480
C       28.47748184      21.14274025      32.81719589
O       29.57760048      22.03633308      32.60284424
C       30.26185608      21.94251060      31.44024277
O       29.94583321      21.26302719      30.47044945
O       31.34569168      22.75439072      31.48217964
C       32.30839157      22.49718666      30.43386650
C       33.44679642      23.50614929      30.60453796
H       29.63547516      19.32387924      33.21755219
H       29.34486961      20.32986641      34.64068222
H       27.99510956      19.38318825      33.92337799
H       27.68096924      21.74834442      33.29062653
H       28.06122398      20.80340004      31.85246277
H       32.67295074      21.46415901      30.52218819
H       31.82862282      22.60203552      29.44920158
H       33.07656479      24.53972244      30.52726555
H       34.17296600      23.31450653      29.80372620
H       33.96360016      23.40790558      31.57027245
C       11.86687851      33.67181396      26.92361450
C       10.79047966      34.09258270      27.94756126
O        9.50542736      33.47734451      27.62882614
C        9.33911991      32.21319199      28.07515717
O       10.11686134      31.63057518      28.82348633
O        8.20299530      31.70431328      27.55418777
C        7.80397892      30.39345551      28.07149315
C        6.41603374      30.13072014      27.47694206
H       12.08534718      32.60330963      27.00843048
H       11.53862858      33.86754227      25.89639282
H       12.79170322      34.21952057      27.12947273
H       10.58239937      35.17200851      27.90407562
H       11.08414364      33.82392883      28.97121429
H        8.54371834      29.64349556      27.75053406
H        7.81514454      30.43583107      29.17344093
H        5.73431873      30.95420456      27.72750664
H        5.99887562      29.19731140      27.87108231
H        6.43064499      30.03757858      26.38911819
C       21.96690941      28.47440720      20.69787025
C       20.59503746      28.56887817      20.00565529
O       19.88811493      27.29096985      20.01447487
C       18.91999817      27.17849541      20.97115517
O       18.64579773      28.00601196      21.80656624
O       18.25903130      25.97230911      20.83271790
C       17.37904739      25.75287056      21.96796608
C       16.81692886      24.33707619      21.80195808
H       21.87068367      28.27773666      21.77133751
H       22.57424355      27.68095398      20.24588394
H       22.49675369      29.42483521      20.56393242
H       20.70496941      28.81177330      18.93168831
H       19.94379807      29.31494904      20.48157692
H       17.94987679      25.88759804      22.90747833
H       16.59183693      26.53170776      21.98668098
H       16.13440514      24.25300026      20.94035912
H       16.23858261      24.05602646      22.70032120
H       17.62752151      23.61480713      21.63620186
C       11.06201935      16.95121002      21.18383217
C       10.50708103      17.30266953      22.58431053
O        9.18500805      17.86549187      22.53963470
C        8.13915062      17.00760651      22.44503403
O        8.20973206      15.83629704      22.10580063
O        6.99595118      17.69532204      22.69334602
C        5.74892902      16.98781204      22.55566788
C        4.67828417      18.08642387      22.57835579
H       10.50531483      16.12702179      20.71707726
H       10.99358845      17.81806564      20.51208878
H       12.11087132      16.63775826      21.28029442
H       11.10756207      18.09599686      23.05682945
H       10.50123596      16.41970444      23.23926926
H        5.75719833      16.41022301      21.62157249
H        5.63335037      16.29697990      23.40394783
H        4.91834497      18.83654213      23.33994675
H        3.67906594      17.68279266      22.79450417
H        4.63398027      18.58409691      21.60129547
C       33.87393188      12.23687744       9.61623955
C       33.11959839      11.37738705      10.63553524
O       33.81328964      10.11438370      10.79664803
C       34.85269165      10.18514919      11.64960194
O       35.19389343      11.17434025      12.28054905
O       35.47245407       8.98979759      11.73119640
C       36.44826126       8.96512985      12.80599308
C       36.82677841       7.50517845      13.04801846
H       34.86793900      12.47985268      10.01810741
H       33.99399185      11.71741867       8.65730000
H       33.28439713      13.15228271       9.46272087
H       32.09843063      11.12269688      10.31695366
H       33.05189896      11.89626598      11.60406017
H       37.32513428       9.58524132      12.54971600
H       35.98678970       9.40705395      13.70448589
H       35.93585968       6.93591213      13.34399986
H       37.55141830       7.46280766      13.87664986
H       37.26753235       7.02122974      12.16556549
C        7.62343407      21.12733078      23.88949013
C        8.07579231      20.34457207      25.12676430
O        9.41259193      19.78971863      25.03894615
C       10.46781445      20.61795998      25.09137917
O       10.45049381      21.83057594      25.21346474
O       11.61045361      19.87271881      24.98218727
C       12.80216217      20.49943352      25.49286270
C       14.01852131      19.75361633      24.93155098
H        8.14328384      22.09016228      23.82618141
H        7.70080137      20.56946754      22.94750214
H        6.56168318      21.35266304      24.06749535
H        7.42595053      19.46855736      25.25147057
H        8.00669765      20.96283531      26.04205132
H       12.79408646      21.57562447      25.24088287
H       12.77719498      20.42140007      26.59253311
H       14.04159546      18.71022606      25.28047943
H       14.92252350      20.27712631      25.26966858
H       14.01019096      19.72008896      23.83146858
C       28.35444069       4.21542692       1.61509013
C       28.35111427       5.73154593       1.44960487
O       29.26522446       6.39251423       2.35932994
C       30.58379173       6.40016317       2.22297025
O       31.23926544       5.74656630       1.37988997
O       31.10697556       7.21531725       3.14454126
C       32.50675583       6.95738554       3.45711803
C       32.87896729       7.87039614       4.61947584
H       29.31198692       3.74042702       1.34332585
H       28.16996956       3.95761991       2.66106892
H       27.54413986       3.76310182       1.02078640
H       27.40505028       6.17032623       1.80805838
H       28.52028656       6.02047253       0.39940983
H       32.59705734       5.89441347       3.70898628
H       33.08364868       7.15327835       2.53800344
H       32.44769287       8.87159824       4.50728703
H       33.97002792       7.94552374       4.71367979
H       32.52212906       7.45822811       5.56579113
C       34.29944229      21.83863449      18.02066612
C       32.98619843      21.64884949      17.25002670
O       32.04229355      20.89876556      18.07000732
C       31.12644958      21.58307838      18.77293777
O       30.98517990      22.79615211      18.81172180
O       30.31462288      20.70656013      19.41568756
C       29.40363121      21.29607391      20.38700867
C       28.35500717      20.22469330      20.66110992
H       34.15397644      22.43574524      18.92637825
H       34.73944092      20.88009262      18.31490135
H       35.01600647      22.36612320      17.38074493
H       33.11552429      21.05760574      16.33130074
H       32.55051804      22.62490845      16.99593735
H       29.96707726      21.57437325      21.29949951
H       28.93481636      22.21351242      19.98892212
H       27.94240189      19.86043930      19.70866013
H       27.52697563      20.63936424      21.25148392
H       28.79609299      19.36572838      21.19394493
C       20.77065468      25.42042160      36.16391754
C       20.40840912      25.45518112      34.67540359
O       21.55463982      25.53904343      33.77982712
C       22.37551880      24.47723579      33.63908386
O       22.40768051      23.49669075      34.36105728
O       23.19900703      24.66208458      32.58051682
C       23.92996788      23.51721001      32.08774185
C       25.11229897      24.03442001      31.25657654
H       21.33895683      24.51972008      36.40933609
H       21.32509422      26.29309845      36.52394104
H       19.82713509      25.36565781      36.72369385
H       19.80710983      26.34531403      34.43247223
H       19.80959702      24.58337784      34.37952042
H       24.24479294      22.87866211      32.92753601
H       23.25634193      22.92611885      31.44362640
H       24.73267555      24.65965271      30.43552017
H       25.66493607      23.19034958      30.82085991
H       25.80004883      24.63262939      31.86507797
C       37.10064697      21.20052147       6.17893696
C       35.63751984      21.54044342       6.53663969
O       34.83207321      20.92882919       5.51819897
C       33.72460938      20.21830177       5.86082363
O       33.05046082      20.41081429       6.86161232
O       33.53209305      19.28886986       4.89044571
C       32.57500839      18.22176933       5.07163048
C       31.55560303      18.30560493       3.93120623
H       37.23090363      20.11146545       6.11861277
H       37.35600662      21.59741211       5.18886757
H       37.79638672      21.60841560       6.92447329
H       35.46592712      22.62871933       6.54326725
H       35.36420822      21.14921379       7.52502728
H       33.13499832      17.27420616       5.05307913
H       32.09198761      18.31234360       6.05296087
H       31.06667709      19.28739166       3.96751189
H       30.78927612      17.53506470       4.06003237
H       32.02085495      18.18332863       2.94770050
C       28.22287941      12.39782715      18.70910454
C       28.01083565      10.88251686      18.66292381
O       27.30388641      10.36818695      19.83243561
C       25.95036507      10.39543533      19.78748131
O       25.27730179      10.98109913      18.94671440
O       25.45642281       9.63945580      20.80135727
C       24.02284431       9.65730286      20.87000275
C       23.59720612       9.38939285      22.31075478
H       27.26896858      12.91192818      18.51515961
H       28.60760117      12.79011154      19.65647316
H       28.89772415      12.64613342      17.88054085
H       28.96061897      10.32933140      18.66642952
H       27.48326874      10.59877205      17.74088287
H       23.62392044      10.62753105      20.53735161
H       23.62881660       8.91332436      20.15172005
H       23.92436790       8.39145756      22.64638710
H       22.49411201       9.48873806      22.36180115
H       24.00971985      10.13855457      23.00339127
C        4.64391088      19.65014648      18.20094872
C        4.86871910      20.85671234      17.27394485
O        4.76042318      20.47090530      15.89095020
C        3.57959580      20.69036293      15.27415180
O        2.67673135      21.39910698      15.69476795
O        3.56799483      20.01548576      14.11272240
C        2.36477280      20.07861710      13.31698608
C        2.77288699      19.92061615      11.84836006
H        3.59192634      19.32770920      18.18655777
H        5.27769041      18.80758286      17.89281273
H        4.90018511      19.93253326      19.23298073
H        5.88953447      21.24856186      17.42418861
H        4.15905714      21.67225838      17.50311852
H        1.69310510      19.26270676      13.61544704
H        1.85866189      21.03518867      13.51267719
H        3.50720739      20.68909264      11.58360291
H        1.88321471      20.01764488      11.21025562
H        3.20773053      18.93384171      11.66474056
C        7.58654022       6.50790977      32.02940369
C        8.17749786       7.24068737      33.25112534
O        7.99417019       8.64628601      33.05427551
C        7.26428366       9.40954781      33.90996933
O        6.87939787       9.08824730      35.01998520
O        7.03650904      10.58545399      33.30028152
C        5.85769606      11.33100796      33.68315887
C        6.06928205      12.78473377      33.25822067
H        6.50388098       6.67978716      31.97896004
H        8.01656818       6.90332031      31.10346985
H        7.77497625       5.43141747      32.07991028
H        9.25731182       7.04555893      33.33787537
H        7.69445753       6.93754721      34.18636703
H        4.99484682      10.89359856      33.16651535
H        5.68554401      11.22257805      34.75961685
H        6.97634792      13.23361015      33.67596436
H        5.20317841      13.39649773      33.55059814
H        6.10536432      12.85486507      32.16324234
C       16.96413422       4.41313219      15.48207664
C       17.83353043       5.31279707      16.35761833
O       18.30132484       6.41298628      15.53081322
C       18.06663322       7.67221498      15.96215439
O       17.26960564       8.00523186      16.84789276
O       18.77414703       8.52618408      15.21210766
C       18.28942490       9.89923382      15.17673683
C       19.17493248      10.64102745      14.17778111
H       16.03388977       4.92360067      15.20218277
H       17.49571800       4.13132763      14.56348038
H       16.72317505       3.50167108      16.04196739
H       18.70914078       4.75422859      16.71921921
H       17.31741524       5.70326805      17.24715042
H       17.24373627       9.89226341      14.82286358
H       18.31562805      10.32646751      16.18927765
H       20.24453354      10.53291988      14.40894222
H       18.89559746      11.70359325      14.22777748
H       18.99520683      10.26069546      13.15880108
C       32.18115997      36.56092453      16.59119415
C       33.30907822      35.70248795      15.99039173
O       33.64797211      34.69186401      16.96534538
C       33.54533005      33.41507721      16.51584435
O       33.25916672      33.06624603      15.38522339
O       33.83170700      32.59158325      17.55551529
C       33.39934540      31.22179794      17.42362213
C       34.44253540      30.37279701      18.16241837
H       31.28952217      35.95215225      16.76375389
H       32.49047089      36.99345779      17.55178452
H       31.91572380      37.36676407      15.89953613
H       34.22393417      36.29037094      15.80414295
H       32.99936295      35.23545074      15.04376316
H       32.38093185      31.14276314      17.84746933
H       33.33125305      30.94092941      16.36106110
H       35.43872452      30.48236656      17.72426796
H       34.18253326      29.31075287      18.10539818
H       34.52346802      30.64551353      19.22181129
C       13.35437298      35.78088379      33.19172668
C       14.58936310      35.40613937      32.36684799
O       15.43151569      34.54148102      33.20145416
C       15.37554836      33.24024582      32.87810135
O       14.76621819      32.78452301      31.90161896
O       16.25158310      32.53934479      33.60984802
C       16.13335037      31.08482933      33.43038177
C       17.29466820      30.45403099      34.19370270
H       12.76121712      34.87264633      33.35749817
H       13.64284229      36.18632507      34.17127228
H       12.72690105      36.50040436      32.65026093
H       15.22109032      36.27173615      32.11579895
H       14.30588055      34.88690948      31.43848801
H       15.14344883      30.78409576      33.80166245
H       16.17619705      30.81340981      32.36272430
H       18.26374435      30.71719933      33.74136353
H       17.17749977      29.36549759      34.10180283
H       17.30195808      30.73244095      35.26012039
C       31.89482117      28.67941284      20.40214539
C       30.97682381      28.05998421      19.34759712
O       29.67181206      28.58725929      19.66189575
C       28.71456718      28.49494934      18.70946121
O       28.90539742      28.30137253      17.51489830
O       27.52133369      28.75387001      19.29273224
C       26.36754990      28.87936401      18.42473984
C       25.26864815      27.99859047      19.00720978
H       31.89083290      29.77161026      20.32171249
H       31.55286026      28.40874100      21.40823174
H       32.92312241      28.32255554      20.27211571
H       30.94238663      26.96254730      19.38878059
H       31.26098824      28.34259605      18.32157707
H       26.06016350      29.93805122      18.44101334
H       26.62437630      28.59443092      17.38987732
H       25.44855499      26.93922234      18.78572083
H       24.28331184      28.26147842      18.58678818
H       25.22850800      28.11661530      20.09563255
C       28.23114014      24.50333405      22.73513412
C       27.63296509      25.42627716      21.66305161
O       28.51159477      25.54308891      20.53036880
C       28.27201080      24.87956429      19.37095261
O       27.36756516      24.06745529      19.20495033
O       29.14284706      25.29217911      18.43837929
C       29.17668724      24.60745239      17.16701126
C       30.22203445      25.34384346      16.32238579
H       28.22545624      23.46843529      22.37119865
H       29.26070786      24.78664398      22.99412918
H       27.61983871      24.55838966      23.65049362
H       27.48137665      26.44005966      22.06612015
H       26.65347862      25.05798721      21.32308960
H       29.45774269      23.55228806      17.31137657
H       28.17967033      24.64154053      16.70454788
H       29.91629791      26.39025688      16.19131088
H       30.33337021      24.85491943      15.34267807
H       31.19541931      25.33011436      16.82390594
C       11.79995537       2.98497987      13.85878277
C       10.68595123       2.27031279      14.65330315
O        9.61331940       3.16104817      15.03481197
C        8.67088890       3.32487273      14.06715775
O        8.81212330       3.06584954      12.87956333
O        7.57016706       3.85335708      14.62499237
C        6.43633080       3.97174263      13.72205734
C        5.54721880       5.06271362      14.31199646
H       11.35930538       3.46645260      12.97404575
H       12.28225422       3.75499415      14.47601700
H       12.55059624       2.24709249      13.53759098
H       11.07081318       1.86739075      15.60047245
H       10.28244686       1.44028056      14.05979443
H        6.79812288       4.24918032      12.72170830
H        5.92263317       3.00135612      13.65058231
H        5.34898186       4.91384315      15.37993050
H        4.58645487       5.06495571      13.77911282
H        6.03024340       6.03386545      14.17592716
C       19.51360512      28.40180588       2.48384333
C       20.61631775      28.44699287       1.41439199
O       21.88295746      28.06711006       2.00195146
C       22.19637108      26.75034142       1.94713509
O       21.59857368      25.92496681       1.27694345
O       23.25450706      26.50326538       2.73345280
C       23.58085632      25.09823608       2.94109082
C       24.77780151      25.09903336       3.89956689
H       19.29308510      27.36198235       2.74461389
H       19.80900574      28.92317390       3.40403533
H       18.58385468      28.85835648       2.11082006
H       20.76299477      29.48120117       1.06845284
H       20.39808846      27.80338860       0.54772896
H       22.71071243      24.58709145       3.37893796
H       23.81478691      24.60474586       1.98488593
H       25.60293198      25.68560791       3.47882056
H       25.11176491      24.05974388       4.03711319
H       24.51170158      25.52277756       4.87557077
C       20.96814919      20.30754471      37.35204697
C       19.55631447      20.28411484      36.72707748
O       19.41272545      21.37106323      35.79871368
C       19.71951485      21.07031441      34.49859619
O       19.80214882      19.93354034      34.05497360
O       19.83867455      22.19988251      33.78155899
C       20.39877129      22.05859184      32.44736481
C       19.83437538      23.21120071      31.60928726
H       21.71156693      20.56341553      36.58226013
H       21.06582642      21.03413773      38.17205429
H       21.21165085      19.31156540      37.74378586
H       18.74693871      20.37166405      37.46954346
H       19.39001083      19.32766724      36.20298767
H       21.49801254      22.07842827      32.52800751
H       20.11080742      21.08652496      32.01822281
H       18.78031731      23.37602043      31.88019562
H       19.88344574      22.93442726      30.54403114
H       20.37927628      24.15625381      31.75049210
C        1.91830850       6.47943497      12.03740597
C        1.22644496       5.26759863      11.39086056
O        1.85371208       4.87257576      10.14661980
C        2.99273515       4.16664076      10.27663040
O        3.52308607       3.85931945      11.33630657
O        3.47107530       3.85929775       9.05356598
C        4.69911528       3.09469104       9.04212189
C        5.19329357       3.06782556       7.58855009
H        3.00240469       6.33642864      12.01740074
H        1.67267048       7.41249323      11.51274109
H        1.60366559       6.56073141      13.08378315
H        0.17613013       5.46995783      11.14172840
H        1.23458958       4.43686342      12.10763645
H        5.42649317       3.58128738       9.70711327
H        4.52241468       2.07826805       9.42268181
H        4.51778030       2.52772880       6.91902494
H        6.18022680       2.58720589       7.55075359
H        5.28066206       4.09240103       7.21412706
C       27.39396858       1.30476141      18.19208527
C       27.85662842       2.75299978      18.30889511
O       27.91484070       3.17897058      19.69351387
C       29.00175285       2.80463696      20.38663292
O       29.97487259       2.22196674      19.91818047
O       28.87672424       3.18033695      21.67652512
C       29.94542503       2.78447080      22.56286621
C       29.54585838       3.29043174      23.95889664
H       28.13512230       0.61078107      18.60002136
H       26.42372704       1.17956114      18.68566895
H       27.23878288       1.07479584      17.13050079
H       27.13440895       3.43307829      17.83299255
H       28.82821083       2.88581181      17.80964661
H       30.07620430       1.69047642      22.54117393
H       30.89142799       3.24510288      22.24124527
H       29.40887642       4.37960052      23.94486427
H       30.31244469       3.05169654      24.70794487
H       28.58740616       2.85025096      24.27157211
