3527
Lattice="38.0 0.0 0.0 0.0 38.0 0.0 0.0 0.0 38.0" Properties=species:S:1:pos:R:3 pbc="T T T"
Na      13.61477184      22.28845978      10.07866669
Na       4.83147478      19.47164345       9.48052025
Na       7.10164833      28.18294907       6.25888968
Na      19.11515427      35.07209396      30.37616158
Na      32.51671982      32.41474915       7.50468588
Na      26.42649651       3.78956103      24.61165810
Na       6.38657665       4.78073978       8.35429955
Na      36.35881042      27.36380577      31.32314301
Na      -1.27574027      36.44683838      25.94326019
Na      18.07474136       2.48761034      13.83691502
Na      15.32010460      20.95794678       0.64245939
Na      26.47775459       2.38916683       0.37696117
Na      13.30086136      20.61381531      23.57778740
Na      33.45477676      14.69595623      20.38250732
Na      17.99314690      17.25361633      34.94166946
Na      15.43903351      19.48146057      16.72533226
Na      30.82188416       8.86604881      23.57506561
Na       5.97872734      31.51879120      12.39073277
Na      22.38688850       5.86661434      16.77633667
Na      31.65168953      31.50605965      18.51478767
P       10.57276249      15.67770958      10.43442917
F       10.14074230      15.14945698       8.96152687
F       10.99928951      16.20781136      11.93460560
F       11.78298664      14.57684326      10.47788334
F        9.36059093      16.81216049      10.40113544
F        9.55246162      14.59772682      11.14977264
F       11.60818100      16.77524376       9.76677418
P       22.37958527      34.30952072      29.06318474
F       22.66817284      32.75946045      28.66592789
F       22.01659584      35.84523392      29.50434685
F       23.96103859      34.57936478      29.37099075
F       20.72182274      34.04082108      28.81213951
F       22.17980957      33.84794998      30.63345718
F       22.54625893      34.75162888      27.51503372
P       29.23572350      10.81709194      25.88654709
F       27.80059052      10.35018826      25.27862549
F       30.71094513      11.20600414      26.43074989
F       28.78108788      12.38070011      25.92774963
F       29.74726486       9.23662090      25.77987862
F       29.79004097      11.03437519      24.30971146
F       28.71228218      10.58912277      27.40830231
P       22.65071106      31.44014740      18.93606567
F       24.01353645      31.39204216      18.00905418
F       21.29817963      31.45961571      19.86224556
F       21.79743195      31.97526932      17.64462090
F       23.53196907      30.90131950      20.21212959
F       22.97858238      32.97837067      19.36218452
F       22.33605576      29.88455391      18.50107193
P        9.08966064      16.80534744      17.24103355
F       10.07016659      15.59894943      16.77957535
F        8.12082005      18.05026436      17.70860863
F       10.33890247      17.84223747      17.06744766
F        7.84890413      15.73905468      17.43585777
F        9.52027035      16.57143402      18.82567215
F        8.63498497      17.03072548      15.67588234
P       23.15332031       2.88137126      31.90174866
F       24.64543533       2.26649666      32.08496857
F       21.66295242       3.52323699      31.72996140
F       23.75432014       4.37361431      32.32140350
F       22.59671402       1.39722073      31.50684929
F       22.84971046       2.58566570      33.48381042
F       23.46583366       3.18375564      30.31403923
P       10.31273556      23.34026909      24.62268448
F        9.80683899      24.88418388      24.85921860
F       10.82036018      21.74625778      24.41833687
F       11.72053337      23.68636322      25.37255478
F        8.86221123      22.94383240      23.87269974
F       10.98061371      23.73847198      23.16131401
F        9.67173195      22.92520714      26.08372116
P       12.58729172      25.79477501      19.15661621
F       12.04423809      24.37501907      19.80938530
F       13.17354488      27.19456482      18.51523399
F       13.33125114      26.15660477      20.57238960
F       11.84810829      25.41097832      17.72826958
F       11.24738979      26.56146431      19.67309570
F       13.95519352      25.02144814      18.64605904
P       27.59279823      20.00832748      33.23668289
F       28.82598495      19.34777641      32.39716339
F       26.38634300      20.68167305      34.09635544
F       26.54284096      18.91017342      32.59336472
F       28.63602448      21.11294937      33.85893250
F       27.27807808      21.02993202      31.97607613
F       27.92446136      19.00559807      34.49218369
P        1.69114709      18.30156136      29.64972115
F        0.70420581      19.48254776      30.25359535
F        2.66409540      17.13599014      29.05947685
F        0.71693289      18.17351532      28.32109070
F        2.63958406      18.42948341      30.95944786
F        0.77218574      17.15727234      30.40217590
F        2.59242439      19.45123482      28.87245750
P       12.98792076      18.42133904      32.26229858
F       13.55779076      19.47123528      31.12321854
F       12.44446659      17.37158775      33.42093277
F       11.73288822      18.03414154      31.30793762
F       14.25813103      18.80932617      33.24878311
F       12.11560726      19.62444496      32.96657562
F       13.88183689      17.22840118      31.61469841
P       11.74825954      16.70686722      23.42094994
F       11.41749001      18.32589531      23.43458176
F       12.11375141      15.08350182      23.38846016
F       10.42847633      16.42012215      24.34753036
F       13.12291527      17.01277733      22.56035233
F       12.62407494      16.86647606      24.79585838
F       10.86070061      16.53096008      22.02088547
P       29.26685143      18.31137657      11.03975868
F       27.68975258      18.17385483      10.52761650
F       30.80665016      18.43947029      11.55633640
F       29.37947464      16.66953850      11.16871262
F       29.17307281      19.95549011      10.94142818
F       28.75521278      18.38507271      12.58997536
F       29.76313019      18.21904755       9.49302006
P       24.61105537      13.62761116      30.92109489
F       24.70883560      12.41073608      29.83582497
F       24.51129532      14.83386612      32.02899933
F       26.21611595      13.84212780      30.79343414
F       22.95611763      13.39168358      31.02599525
F       24.83643913      12.56035423      32.15127563
F       24.36338806      14.70127106      29.72169113
P       25.61530304      12.64115238      22.13534355
F       24.57348633      13.19825935      23.26584816
F       26.65205765      12.09582424      20.96680260
F       24.43239784      12.70271397      21.01177788
F       26.80185699      12.56877708      23.23153114
F       25.19563484      11.06762695      22.45715332
F       26.04148483      14.18323040      21.76547432
P       27.95394135       3.01441550      19.63936806
F       28.23030090       4.45277452      18.86688995
F       27.70491791       1.60321093      20.39747620
F       26.31894684       3.23160982      19.44332314
F       29.56899452       2.82313037      19.83658791
F       27.89043045       3.80536151      21.06860161
F       28.03941345       2.22918153      18.20683670
P        2.88578129       2.19143105      32.93363953
F        2.13213086       0.85074091      33.51803589
F        3.63211918       3.52089405      32.37246323
F        2.09261489       3.11320996      34.02714920
F        3.68687534       1.27415645      31.84841728
F        1.66984212       2.40692949      31.87535286
F        4.09313297       1.96654534      34.00722885
P       19.26398087      25.43243217      20.86071777
F       20.76054764      24.92700005      20.44832611
F       17.76411057      25.90795708      21.28918839
F       19.26852226      24.33861923      22.08980942
F       19.25092697      26.48741913      19.62104225
F       18.62120056      24.27357292      19.87169838
F       19.92562294      26.53803825      21.84726715
P       32.21751404      32.17022324      22.59552765
F       32.31542587      30.92901039      23.67236328
F       32.15266418      33.41077042      21.51513290
F       32.83473587      31.21212006      21.40871429
F       31.60434723      33.13598251      23.75825310
F       33.71899414      32.61297989      23.00694275
F       30.72210503      31.71760941      22.15817261
P       10.90639591      16.17755890       4.86213350
F       11.08581543      14.58375359       4.64793491
F       10.76939297      17.81756401       5.06592560
F       12.07603359      16.15787888       6.00094986
F        9.76682949      16.22432899       3.67473984
F        9.75577831      15.96316051       5.99791145
F       12.05152225      16.44223404       3.70285344
C       10.78044319      30.12377548       6.69501400
O       11.59005547      31.04342842       5.95439863
C       11.31424332      31.11146736       4.54886627
C       11.86253166      29.91534233       3.76155162
O       11.51604080      30.22041893       2.40619636
C       11.98894501      29.33547211       1.40295506
C       11.22330570      28.01592445       1.38014627
O        9.85486126      28.36088181       1.09030640
C        9.00548649      27.22038460       1.17916656
C        8.38658810      27.18105888       2.58310103
O        7.73452187      25.89557648       2.65072322
C        7.21622658      25.59395027       3.94356489
C        5.73775578      26.00631714       4.01921606
O        5.40732765      26.07196426       5.43234253
C        3.99765515      26.14831543       5.68348932
H       10.76734447      30.42055321       7.75104427
H        9.73861027      30.13655281       6.32611179
H       11.17610931      29.09991837       6.62458801
H       10.22863770      31.21440887       4.37200785
H       11.80497456      32.02614594       4.18956566
H       11.40802288      28.97721672       4.12107182
H       12.95820904      29.85066795       3.88907385
H       11.84219265      29.82602119       0.42871106
H       13.05807018      29.10863876       1.53864753
H       11.30410290      27.52520370       2.36085033
H       11.63669205      27.34561348       0.60235584
H        8.22238350      27.29237938       0.40938023
H        9.54304695      26.28078651       0.96526021
H        7.66265154      28.00405121       2.73191404
H        9.16789818      27.28240013       3.35917568
H        7.77632427      26.11080742       4.74634409
H        7.29129171      24.50317192       4.10186338
H        5.10349751      25.25644493       3.52611685
H        5.55375862      26.98449898       3.54521513
H        3.80190682      25.72327805       6.67771292
H        3.44050384      25.56286240       4.93568802
H        3.63541675      27.18828773       5.65010214
C       34.11268616       2.70563173      21.14982986
O       33.58901596       3.68715763      20.27204895
C       33.10443878       4.89891720      20.90448380
C       31.58546829       4.93857622      20.80301666
O       31.23331451       6.27862406      21.18838692
C       29.83889389       6.54270267      21.32782936
C       29.29231262       6.06713724      22.68021584
O       30.19410324       6.46216297      23.72249794
C       30.03545189       5.78768682      24.98708725
C       31.33361816       5.01575089      25.26225281
O       31.12702560       4.30287933      26.49237251
C       32.25391388       3.53875351      26.93014526
C       33.15140915       4.41561127      27.80558586
O       34.29265976       3.65892601      28.21753120
C       35.04737854       4.40609026      29.14640045
H       34.58036804       1.90821648      20.55357933
H       34.87509918       3.11565304      21.82855225
H       33.31566620       2.24955702      21.76276588
H       33.43796539       4.99836302      21.94929123
H       33.50566101       5.75319624      20.33684540
H       31.12150002       4.19448853      21.47103882
H       31.24203110       4.73397017      19.77142715
H       29.71082115       7.63210297      21.21094894
H       29.24952888       6.06718683      20.52162552
H       29.16879654       4.97505331      22.64090347
H       28.28155136       6.48337460      22.84602547
H       29.84010315       6.52885437      25.78145027
H       29.15929031       5.11623621      24.97248077
H       32.16557693       5.73574209      25.34313393
H       31.55367851       4.32227612      24.42933846
H       32.80291367       3.11371279      26.06866646
H       31.85171890       2.70481253      27.53065872
H       32.57430267       4.76444483      28.68024063
H       33.47335434       5.30792046      27.23814583
H       35.93164825       3.81827283      29.42663956
H       34.46361923       4.63078737      30.06123543
H       35.37185287       5.37059689      28.71659470
C       15.94146156      16.76203918      22.08456421
O       16.16185951      18.09131432      22.54724312
C       16.60962868      18.20927811      23.92193031
C       15.45454121      18.13130569      24.93508911
O       16.05318451      18.44812584      26.20295143
C       15.24057007      18.63906670      27.36345482
C       14.27991199      17.47370338      27.62494659
O       15.02149868      16.25799942      27.75982475
C       14.19162083      15.08772278      27.73833275
C       14.42605782      14.40887833      26.39422607
O       13.58422375      13.24574184      26.42065811
C       13.65795803      12.47457123      25.22767258
C       14.78417301      11.47440338      25.43797684
O       14.83911228      10.62449455      24.26327896
C       15.74697685       9.56211758      24.51680374
H       15.30707932      16.79934883      21.18430138
H       16.89046478      16.24474907      21.82397079
H       15.40723896      16.14563179      22.82859230
H       17.35542679      17.42346382      24.14282990
H       17.10800171      19.19079208      24.00263214
H       15.00775242      17.12274742      24.91794014
H       14.63955021      18.84634781      24.69284058
H       15.93195057      18.81108665      28.21238136
H       14.61731434      19.55194855      27.24800491
H       13.57377052      17.37684441      26.78278732
H       13.67336655      17.69452286      28.52962685
H       14.48352146      14.43299103      28.58179855
H       13.11779594      15.32943916      27.86777306
H       15.49418068      14.15072250      26.26890945
H       14.12570572      15.06615734      25.55406189
H       13.79935932      13.09038639      24.31312180
H       12.69555187      11.93676472      25.11543465
H       14.56189823      10.88473129      26.34609413
H       15.75272465      11.99216843      25.58491516
H       15.72199345       8.89335632      23.63743782
H       15.43243313       8.93969822      25.37181473
H       16.77079964       9.94393539      24.71030998
C       10.31517506      28.70355606      33.62947845
O        9.68201733      27.64585876      32.90164566
C        8.81464958      28.05088997      31.84073067
C        7.54614735      28.74393654      32.39276123
O        6.64377117      28.72798157      31.27581215
C        5.37092924      29.32092667      31.46951294
C        5.41206264      30.85453224      31.34988594
O        6.18344402      31.13975334      30.18203545
C        6.41417599      32.53740311      30.01354408
C        7.83425713      32.86617661      30.50424194
O        7.92579222      34.27475739      30.31041145
C        9.23127174      34.79788589      30.53992081
C       10.09425545      34.60644913      29.29171181
O       11.32627487      35.27573776      29.58315468
C       12.26178265      35.02678299      28.52882957
H       10.55571175      28.34919930      34.64288712
H       11.25051498      29.01392746      33.13323593
H        9.66479778      29.58335495      33.72722626
H        9.30989647      28.69022560      31.09001160
H        8.51462746      27.12857246      31.31697655
H        7.74684954      29.78021431      32.71417236
H        7.13104391      28.17892265      33.24437714
H        4.70329380      28.90353012      30.70035362
H        4.93939543      29.06553268      32.45915222
H        5.85613585      31.35527420      32.23533630
H        4.37705755      31.23276329      31.23461723
H        6.32169342      32.77285767      28.94012260
H        5.65065336      33.13169098      30.54132843
H        8.55575848      32.28327179      29.90401840
H        7.95605755      32.60746002      31.57279968
H        9.70781136      34.33007050      31.41695786
H        9.12209892      35.87063599      30.77065277
H        9.58538055      35.05469131      28.41790390
H       10.26509666      33.54293060      29.06415367
H       13.19331169      35.54591751      28.78275490
H       11.87841415      35.38252258      27.55932808
H       12.46970844      33.94947815      28.42982292
C       30.02808380      26.55983162      25.49097443
O       30.76570511      26.45779991      24.28248596
C       31.86700630      25.53476906      24.37453461
C       33.11014557      26.32367516      24.76438713
O       34.06051636      25.33405113      25.17265511
C       35.31945038      25.89080811      25.47252083
C       35.29869461      26.81064224      26.71699524
O       34.70389175      26.09138489      27.81362152
C       34.90873337      26.70414543      29.08243561
C       33.55585480      26.95153999      29.79079628
O       33.86511993      27.23550034      31.17952156
C       32.79656601      27.78457642      31.97067642
C       32.05236435      26.66482544      32.71570587
O       30.76102638      27.21908569      33.01746368
C       29.86064148      26.28458786      33.60158157
H       29.21445847      27.28248596      25.33165741
H       29.56532097      25.59606552      25.77403259
H       30.59895897      26.93350792      26.35629463
H       31.66263580      24.76555634      25.14056969
H       31.97919083      25.00442505      23.41208649
H       32.84125137      27.00958633      25.58638191
H       33.47198868      26.91406250      23.90898895
H       36.01092529      25.04389191      25.63028336
H       35.70447159      26.48781204      24.62484169
H       34.73889542      27.74145889      26.52167130
H       36.34790421      27.06951141      26.92245293
H       35.53417206      26.02757835      29.70724297
H       35.42059708      27.68418121      28.99116135
H       32.90776825      26.06537628      29.70877075
H       33.04401016      27.80982971      29.32577705
H       32.07068253      28.29956055      31.31609917
H       33.20621872      28.52994156      32.67129517
H       32.59395981      26.38233185      33.63339615
H       31.95437431      25.78985596      32.05332565
H       28.83712006      26.65595627      33.45416641
H       30.04450035      26.16872215      34.68355560
H       29.92716980      25.30284691      33.10797501
C       12.10488796       1.10736752      25.08777046
O       11.00507736       0.39895597      25.65911102
C        9.90196133       1.23523593      26.02431297
C       10.13332939       1.82205153      27.42702103
O        8.96982765       2.57982779      27.76326752
C        8.85526562       2.96069264      29.11749077
C        9.71644115       4.17601204      29.49337769
O        9.41610336       5.20805645      28.54333496
C       10.35523224       6.29590559      28.55345917
C       11.31318188       6.16312027      27.36070633
O       12.08937931       7.36799479      27.44220543
C       12.94899940       7.53477049      26.31264305
C       12.23757076       8.20515251      25.13924026
O       13.25509453       8.19845390      24.11931038
C       12.83351707       8.71398830      22.85536766
H       12.94233227       0.39427575      25.03217316
H       11.87692165       1.45236349      24.06481934
H       12.42877960       1.96643806      25.69200897
H        9.71789837       2.03275943      25.28887939
H        8.99898624       0.60280144      26.03288078
H       11.03798676       2.45564508      27.42349815
H       10.28448677       0.99385494      28.13998985
H        7.80057335       3.20010853      29.29887581
H        9.13265419       2.14407706      29.80706215
H       10.78927135       3.91763401      29.47088242
H        9.45157909       4.49960089      30.51957130
H        9.76477814       7.22032547      28.42746925
H       10.87927246       6.38589334      29.52022552
H       10.72944736       6.09368181      26.42339134
H       11.94733620       5.26171923      27.41867065
H       13.35366917       6.57301140      25.95546722
H       13.78923225       8.17060566      26.63268661
H       11.91386127       9.22675896      25.41572762
H       11.34374332       7.64834738      24.79981613
H       13.70695305       8.73355770      22.18522263
H       12.41129589       9.72977352      22.95750427
H       12.07326698       8.05914307      22.39454460
C        7.39850187      29.79537010      15.05370331
O        7.49604273      29.49655914      16.45598221
C        6.67599678      28.40167046      16.86849403
C        5.30565739      28.95996857      17.29651642
O        4.54823971      27.83571053      17.75054741
C        3.41877699      28.16870499      18.54021263
C        2.25913930      28.74551201      17.70195007
O        2.21803665      28.05753326      16.45866776
C        1.37095046      28.62673569      15.46062660
C        2.24042225      28.99804115      14.26480770
O        1.30562150      29.42226791      13.26450443
C        1.90303004      29.79302025      12.02245522
C        2.04189229      28.59706497      11.08029556
O        2.69464231      29.13688850       9.91432190
C        2.98189378      28.16810417       8.91089725
H        8.10945320      30.59836197      14.83447552
H        7.65221357      28.91554832      14.43981934
H        6.36665678      30.09620857      14.79581928
H        6.56806183      27.64989281      16.06102943
H        7.17602444      27.90565109      17.71842957
H        4.80248213      29.45017815      16.44531631
H        5.39799881      29.71561432      18.09572601
H        3.10320997      27.23964500      19.03852654
H        3.66751838      28.90565681      19.32500076
H        2.40567851      29.82783318      17.53299713
H        1.30967462      28.63104630      18.26148224
H        0.62829494      27.87937355      15.14173508
H        0.80989647      29.49387169      15.84260654
H        2.83651042      28.12529755      13.94353199
H        2.93184495      29.81007385      14.55891132
H        2.89387512      30.25599098      12.18195820
H        1.25311148      30.55368805      11.56109428
H        1.05300295      28.19712639      10.80932713
H        2.64309502      27.78640366      11.52220154
H        3.55485773      28.66021729       8.11437130
H        2.04850435      27.76312637       8.48384190
H        3.54797673      27.31804848       9.32129002
C       14.43815136      14.65010738      15.27321720
O       15.84141254      14.57398224      14.98993492
C       16.48266792      15.80425358      14.62163925
C       16.02417564      16.25917435      13.23140335
O       16.87319565      17.38257599      12.94514561
C       16.84703827      17.71106148      11.54719162
C       15.42748356      17.96683502      11.02558041
O       14.89615440      18.98196030      11.89884186
C       13.49024105      19.23273659      11.75105190
C       12.68640327      18.62716866      12.91555214
O       11.44462013      19.32751846      12.90638733
C       10.53495884      19.00984383      13.97875404
C       10.67716503      20.03828239      15.10149193
O        9.37910557      20.25007248      15.68072987
C        9.49274826      20.99234200      16.88645935
H       14.03431988      13.62907982      15.21899223
H       14.22189236      15.05177879      16.27258873
H       13.87908268      15.26191998      14.54571915
H       16.31710243      16.57769966      15.39853859
H       17.56236267      15.57942009      14.58452892
H       14.96139050      16.55949974      13.25004387
H       16.13698769      15.45868492      12.47823620
H       17.44862938      18.62812233      11.44274712
H       17.29686546      16.90049362      10.94186401
H       14.79241467      17.06378555      11.02028084
H       15.46773720      18.33379555       9.98315144
H       13.34812927      20.32940292      11.76618481
H       13.09239197      18.86474609      10.78300381
H       13.22581863      18.74897194      13.87485981
H       12.54660511      17.54976845      12.72348785
H       10.65651798      17.97211266      14.34312820
H        9.51947212      19.05173874      13.54441452
H       11.03514099      20.99852753      14.68594646
H       11.38849640      19.69293022      15.88042927
H        8.47942066      21.17672157      17.27412796
H        9.98781967      21.96589470      16.72774315
H       10.02434254      20.43141747      17.66733932
C       22.44341660      29.06048775      15.53622532
O       21.41963768      29.55839920      14.65336895
C       20.66037178      28.56086349      13.94745159
C       21.41874313      28.18368912      12.67420769
O       20.53606033      27.36834145      11.88327694
C       21.08942223      26.87537575      10.68096447
C       21.92513847      25.61040306      10.89813614
O       21.04605865      24.67741966      11.55966282
C       21.77239609      23.49521446      11.94479656
C       22.21974945      23.64536476      13.41622257
O       22.90568542      22.43440056      13.77510834
C       23.49154282      22.46669769      15.08016396
C       22.69348335      21.61700439      16.07029724
O       23.29838753      21.82456589      17.38357353
C       22.53333282      21.19929504      18.42871094
H       22.88491631      29.92712021      16.04587936
H       22.01905060      28.40048409      16.31356621
H       23.24633789      28.52968788      14.99357224
H       20.45201111      27.67217445      14.57133579
H       19.67352676      29.00133324      13.70796967
H       22.34482002      27.64820099      12.95028973
H       21.66303062      29.10718727      12.11949158
H       20.23124504      26.63525772      10.02593994
H       21.71138382      27.62869072      10.15682316
H       22.83167458      25.82599068      11.49223518
H       22.26137924      25.20187569       9.91967297
H       21.07240868      22.64587212      11.83515453
H       22.63095856      23.28695297      11.26613045
H       21.33640862      23.82079506      14.05919361
H       22.89303207      24.52012825      13.52857113
H       23.52871513      23.50541687      15.47709179
H       24.52261734      22.06650162      15.00792789
H       22.70318794      20.54944229      15.78674030
H       21.64510155      21.95738792      16.09313583
H       23.11413574      21.14613152      19.35846710
H       22.23768616      20.17346764      18.14969635
H       21.60470772      21.76554489      18.63184738
C       13.32181549      27.20476723      35.01210022
O       12.16641140      26.37466431      35.03270721
C       12.42699909      25.00660133      34.70486832
C       12.57984734      24.77653503      33.19695282
O       12.77574921      23.36164093      33.12106705
C       12.91172791      22.80737114      31.81814575
C       14.33313274      22.88516808      31.26042366
O       15.25697708      22.38053131      32.24221420
C       16.59996414      22.69157028      31.85189438
C       16.98688889      24.09162712      32.34335709
O       18.38578606      24.20201492      32.04123688
C       19.06331253      25.28506279      32.69527817
C       19.50647163      24.88945198      34.10672760
O       20.08622169      26.06562996      34.72036743
C       20.54996490      25.85452652      36.05369568
H       12.96460629      28.22913742      35.19052505
H       14.03703213      26.92888069      35.80300903
H       13.83052254      27.18060875      34.03348541
H       13.31333637      24.61157227      35.23794556
H       11.55411816      24.44435692      35.06837082
H       13.43938828      25.34059143      32.79772949
H       11.66386604      25.08750534      32.65781021
H       12.58921719      21.75355721      31.88294029
H       12.21256256      23.29360008      31.10644150
H       14.55563259      23.92117882      30.95989418
H       14.37623310      22.27084923      30.33847427
H       17.27894211      21.95169830      32.30340576
H       16.74158096      22.59911537      30.75773811
H       16.75688362      24.19775009      33.42398453
H       16.40927887      24.86114883      31.79822922
H       18.43834496      26.19561768      32.72583771
H       19.94444084      25.49698067      32.05989075
H       20.25491524      24.08075905      34.04698563
H       18.64432907      24.54349518      34.70006180
H       20.86385155      26.81643867      36.47166824
H       21.39371300      25.14626503      36.07499313
H       19.75346565      25.45335388      36.69799423
C       27.72898293      19.04077911      16.39305305
O       28.85423851      19.66584969      15.76718903
C       29.77598763      20.26876068      16.70274353
C       29.38117599      21.71032906      17.00828743
O       30.38688469      22.16478920      17.93114471
C       30.56948090      23.56317902      18.08741188
C       29.44615936      24.23530960      18.90783691
O       29.46656609      23.71514702      20.25045967
C       28.25977325      23.91964722      20.99240685
C       27.30318642      22.78710938      20.59790039
O       26.12624359      22.94065285      21.41893768
C       25.27396011      21.81350327      21.23955917
C       25.70872116      20.69138718      22.20329285
O       24.52506065      19.87998009      22.43028259
C       24.86353493      18.85158539      23.36561775
H       27.28005409      18.34520340      15.66873455
H       28.00972176      18.47168732      17.29561234
H       26.93080521      19.75013924      16.66161919
H       29.81871796      19.68256378      17.63845444
H       30.77192688      20.23578835      16.23180389
H       28.37206459      21.73904800      17.46118355
H       29.35692787      22.29156303      16.06744385
H       31.53666496      23.71095085      18.59743118
H       30.59576416      24.04973602      17.09016228
H       28.47068977      24.06605339      18.42667007
H       29.60908699      25.32799530      18.93521881
H       28.49107933      23.86146927      22.07100105
H       27.79942703      24.90392113      20.79412651
H       27.80750847      21.82822037      20.78806114
H       27.01721191      22.81743050      19.52565384
H       25.22526360      21.47263908      20.18427086
H       24.25220871      22.13674164      21.49603081
H       26.07842636      21.10465813      23.16191483
H       26.50618935      20.05464172      21.77266121
H       23.97909546      18.20396614      23.46764374
H       25.13045883      19.26276970      24.35717010
H       25.71748161      18.23527908      23.01870155
C       20.34545708       8.55741692      14.93109608
O       20.06974220       7.14300394      14.90210438
C       19.62775040       6.63655043      13.63055801
C       18.09455681       6.68300009      13.53697681
O       17.77782059       5.98655033      12.32995129
C       16.39536667       5.74182796      12.09300327
C       15.54941750       7.00641108      11.90160179
O       16.13121796       7.77376270      10.84687424
C       15.61376953       9.10001659      10.74685764
C       16.41156197      10.08094597      11.62108803
O       15.77466679      11.34320927      11.40584278
C       16.48430634      12.45087337      11.95675278
C       17.48673058      12.96370316      10.93088913
O       18.20506287      14.01109600      11.61848450
C       19.15309715      14.61103916      10.72176170
H       20.88127708       8.76744366      15.86910915
H       20.96357346       8.85153866      14.06998539
H       19.41255951       9.14348698      14.93689251
H       20.06745338       7.19163704      12.78505421
H       19.95527267       5.58868742      13.55711842
H       17.73969650       7.72583485      13.50436115
H       17.63152122       6.20177317      14.41967964
H       16.34697342       5.09124517      11.20698738
H       15.93331623       5.19254875      12.93367481
H       15.47144222       7.57895279      12.84657192
H       14.51689720       6.70733833      11.63255882
H       15.69425964       9.40433025       9.68774509
H       14.54004669       9.15350342      10.99563122
H       17.46554375      10.08510303      11.29559708
H       16.35750389       9.80489349      12.69240475
H       16.98658752      12.21398258      12.90910244
H       15.74812222      13.23600006      12.19756985
H       16.95221901      13.36346626      10.04826641
H       18.17843437      12.17217922      10.59024715
H       19.70012665      15.36836433      11.30217648
H       18.63491821      15.08723545       9.86766624
H       19.85290718      13.86351013      10.31088066
C       28.18221283      27.81622696      13.33161163
O       28.83179665      26.83823395      12.51924419
C       30.02334023      27.35595703      11.89916706
C       29.65411377      27.87540436      10.51042747
O       30.81755447      28.61087990      10.10156822
C       30.70426559      29.11360741       8.77425194
C       29.78617096      30.34329224       8.73072052
O       30.40248299      31.30185699       9.60692978
C       29.64550400      32.48212051       9.89834309
C       28.76160812      32.32728195      11.14508533
O       28.28913116      33.64442444      11.41259670
C       27.39389610      33.83570099      12.50381279
C       28.11925888      34.32294846      13.75836086
O       27.12209320      34.39347839      14.78380299
C       27.59958839      34.90900040      16.00204086
H       27.22217178      27.38830185      13.66390705
H       28.76984215      28.07917786      14.22286797
H       27.96868706      28.74815941      12.77830410
H       30.43188286      28.16490555      12.52013874
H       30.74698639      26.53297615      11.82331181
H       28.75804329      28.51416397      10.59347248
H       29.41346931      27.06546783       9.79634380
H       31.71879387      29.39256477       8.44799328
H       30.30950165      28.35112190       8.07875824
H       28.74452019      30.12195587       9.02257061
H       29.75984001      30.70927811       7.68727922
H       30.36954308      33.29195023      10.08396149
H       29.02530479      32.76393127       9.03056717
H       29.34844017      31.92280006      11.98787117
H       27.93971634      31.62567139      10.92506504
H       26.81884766      32.92697144      12.73499012
H       26.65796089      34.60062408      12.20194149
H       28.56952477      35.31482697      13.58057308
H       28.91438293      33.60912704      14.03704453
H       26.82618904      34.75447845      16.76436806
H       27.80956841      35.98918152      15.93569279
H       28.50813675      34.39454651      16.35635567
C       37.17141724      17.61085320      11.67516518
O       36.82485580      16.24360275      11.92747784
C       35.91638184      16.07287979      13.03291035
C       36.53400040      16.54771233      14.35966206
O       35.57281113      16.24494171      15.37405014
C       35.97962570      16.55726624      16.69127083
C       35.97868729      18.06345367      16.99924088
O       34.64966583      18.55321693      16.75184059
C       34.52708054      19.97235680      16.72125816
C       34.23993683      20.42793083      15.28398800
O       34.08631897      21.84073448      15.45363712
C       33.79343414      22.55378342      14.25138378
C       32.30879593      22.48149490      13.87971020
O       32.16474533      23.45800591      12.83230114
C       30.86113167      23.44309235      12.25744438
H       37.78958893      17.60810661      10.76092529
H       36.26161957      18.20823288      11.48892879
H       37.74769592      18.06038857      12.50042915
H       34.96890259      16.60901260      12.84229374
H       35.68515015      14.99697590      13.06824303
H       36.71924210      17.63414383      14.32782269
H       37.48585892      16.01599121      14.53564930
H       35.27472305      16.05903053      17.37840271
H       36.98390579      16.16212082      16.92719269
H       36.70518875      18.57769203      16.34883690
H       36.26887512      18.21538544      18.05282211
H       33.68144608      20.27050400      17.36860085
H       35.42641449      20.47143555      17.11920357
H       33.32980728      19.94775391      14.88428783
H       35.07736206      20.17082596      14.61093712
H       34.39684296      22.19417000      13.39733696
H       34.06340408      23.60520935      14.43697548
H       31.66702080      22.73098946      14.74430752
H       32.01054382      21.48442459      13.51754379
H       30.85170174      24.11830902      11.39284229
H       30.09638405      23.77201653      12.97986889
H       30.57572937      22.43552589      11.91310310
C       12.77665138      12.67439461      35.90615082
O       13.20853901      11.51299095      36.59420776
C       14.61850929      11.32167625      36.69348145
C       15.07569218      10.51721764      35.46547699
O       16.50007439      10.40295410      35.54523849
C       17.04877090       9.37165642      34.72593689
C       17.31563187       9.88635731      33.30867386
O       18.48676682      10.71553326      33.43617630
C       18.74962044      11.49055195      32.25918961
C       17.80330849      12.70362663      32.21477890
O       18.18768883      13.41579437      31.03301430
C       17.22440529      14.38394451      30.57475471
C       17.62737083      15.72394943      31.18654823
O       16.85385323      16.72543526      30.53801346
C       17.05126190      18.00714874      31.11650467
H       11.67764950      12.60565758      35.88289261
H       13.09198284      13.58556366      36.44271851
H       13.13788033      12.72139072      34.86672974
H       15.15542698      12.28046513      36.75334549
H       14.81441593      10.75834751      37.62296677
H       14.75868511      11.05158520      34.55168915
H       14.57723808       9.53492355      35.45612335
H       17.99908447       9.05238724      35.18398285
H       16.35920715       8.51297188      34.66225433
H       16.43157578      10.43313980      32.93947983
H       17.49560928       9.05441475      32.59952927
H       19.80025482      11.82631207      32.31501770
H       18.63905144      10.89415264      31.33309937
H       17.90943527      13.32516575      33.12561035
H       16.74188423      12.39377975      32.13878250
H       16.19005203      14.10712147      30.84992981
H       17.24438667      14.41159916      29.47047043
H       18.70851898      15.88561821      30.99739456
H       17.45591736      15.72188950      32.28268051
H       16.46566010      18.72746468      30.52607918
H       18.11354446      18.31122971      31.10907173
H       16.64772987      18.06631088      32.14691925
C       24.70061493       5.44552422      27.23342133
O       25.49242783       6.19475269      26.29292488
C       24.71497917       7.08795547      25.45166969
C       24.33646965       6.33373117      24.17093277
O       23.13721848       6.97535992      23.69597054
C       22.52578926       6.35326910      22.58104515
C       22.05706215       4.91327333      22.80322647
O       21.33134270       4.89787340      24.04920769
C       20.39525986       3.83073568      24.17512321
C       20.58294678       3.30020952      25.60605240
O       19.70848465       2.17122412      25.75562477
C       20.01859474       1.38982713      26.92466164
C       19.30928421       1.94023013      28.17455292
O       19.51131439       0.91563863      29.17159081
C       18.74443245       1.13376641      30.35545731
H       25.38166428       4.90212965      27.90245247
H       24.05794907       6.10408163      27.84274101
H       24.04145241       4.72615910      26.71036339
H       23.79338837       7.42172623      25.96863747
H       25.31206894       7.99550962      25.26174545
H       24.13442993       5.27603388      24.40643883
H       25.12333107       6.37407541      23.38810921
H       21.63237762       6.95873928      22.36258888
H       23.18985176       6.35112190      21.69126892
H       22.89800262       4.19559717      22.82095909
H       21.41388321       4.63777113      21.94308662
H       19.35886383       4.19699955      24.01280975
H       20.54497337       3.03320861      23.42094040
H       20.38087463       4.08370066      26.36059952
H       21.64106369       3.00485444      25.71507072
H       21.10494232       1.34549499      27.10346985
H       19.66998100       0.36678097      26.71529770
H       18.23304558       2.08765554      27.97856522
H       19.73058128       2.89127612      28.53837013
H       18.94482231       0.29039955      31.03608704
H       17.66474533       1.15703642      30.13203239
H       19.00926208       2.07070518      30.86971092
C       11.51376629      31.36912537      13.86137199
O       11.50257492      32.52801514      13.04313755
C       11.36541748      32.26547623      11.63767052
C       12.73099995      31.99494171      10.99307346
O       12.45174980      31.79149055       9.59781361
C       13.57478333      31.51098824       8.78633308
C       14.11289310      30.08741379       8.98477459
O       13.03594017      29.18498230       8.66434574
C       13.40614796      27.82835770       8.90630150
C       13.23152924      27.48381615      10.39903450
O       13.23647785      26.04034996      10.45489216
C       12.90601158      25.52373505      11.74175072
C       11.49299908      24.93554497      11.66851139
O       11.32927227      24.23733711      12.92239571
C       10.00479507      23.70810699      13.00513077
H       11.67728043      31.68733406      14.90676689
H       10.54487991      30.83469391      13.79275703
H       12.32035732      30.67016411      13.56996155
H       10.68393898      31.42393684      11.43619347
H       10.89518166      33.15570831      11.18881321
H       13.19715881      31.11138344      11.45661926
H       13.38387775      32.87013626      11.15658855
H       13.25424004      31.60762215       7.73812532
H       14.39121914      32.22343063       8.99081802
H       14.48428249      29.95507240      10.01688480
H       14.95236015      29.90647888       8.28436756
H       12.72677708      27.20109749       8.29967976
H       14.43855095      27.61062050       8.56716156
H       12.26636982      27.87405396      10.78470612
H       14.04626465      27.88510704      11.03810501
H       12.97936153      26.26777267      12.55873489
H       13.62346172      24.71242905      11.98520088
H       11.37298775      24.24710464      10.80952549
H       10.71506882      25.71092033      11.55187988
H        9.89970493      23.17837715      13.96316528
H        9.78924751      22.98974037      12.19258404
H        9.24220657      24.51172829      12.95914841
C       11.52532387      31.59460831      19.59012794
O       10.41645622      30.71850777      19.81502533
C       10.62349319      29.40858078      19.23535156
C       10.51947403      29.41553879      17.70837784
O       10.53218555      28.04191589      17.31570053
C       10.28195763      27.73951912      15.95897007
C       11.34794331      28.23144722      14.98833752
O       12.54276562      27.47980118      15.18670750
C       13.64418983      28.02563667      14.47783661
C       14.34306049      29.10798645      15.30716419
O       15.48954487      29.41714287      14.48887920
C       16.31468010      30.44736290      15.05988216
C       17.25673485      29.88383293      16.11542130
O       17.93908501      31.04064369      16.63465118
C       19.02242851      30.68746758      17.50208664
H       11.42488861      32.44391251      20.28167343
H       12.48743343      31.09307480      19.78646469
H       11.53485012      31.98924065      18.55566597
H       11.58083057      28.96863937      19.56122208
H        9.81321049      28.78890991      19.64901352
H       11.36903381      29.98657227      17.28207016
H        9.57549572      29.91251945      17.40698433
H       10.19015121      26.63938713      15.89210415
H        9.30883312      28.15190125      15.64778137
H       11.49708462      29.30660439      15.16543484
H       10.97665787      28.10154533      13.94422722
H       14.35505104      27.19629478      14.28376102
H       13.34373951      28.42031288      13.48109722
H       14.59582901      28.71967316      16.31219101
H       13.69458675      29.99499702      15.44645214
H       15.68625164      31.24685860      15.49172020
H       16.90015411      30.88732719      14.23133087
H       17.95047188      29.15823174      15.65083981
H       16.69805527      29.37554359      16.91870499
H       19.32313156      31.56505775      18.09049988
H       19.90184593      30.33866882      16.93176460
H       18.71867561      29.87928581      18.18866539
C       17.78279686      21.64606285      26.30145645
O       16.68993187      22.49535179      26.68384171
C       15.56573009      22.41350555      25.79841805
C       15.62980938      23.57630730      24.81236267
O       14.48052406      23.42654800      23.98025513
C       14.37012482      24.50351524      23.03883743
C       15.34227562      24.32169914      21.86937714
O       14.83827591      23.23684502      21.08251762
C       15.62640572      22.94289207      19.93918610
C       16.79439163      22.04216385      20.34199905
O       17.43401146      21.68906021      19.09041786
C       18.57708549      20.85700035      19.23014259
C       18.11525154      19.41542435      19.44571114
O       19.27887344      18.56052399      19.33402634
C       18.86126709      17.19949913      19.32111359
H       18.59862137      21.77949333      27.02556992
H       17.45399475      20.58798790      26.29213905
H       18.14725685      21.90109444      25.28823090
H       15.51868725      21.43642807      25.27117538
H       14.63503742      22.48893356      26.38904190
H       16.56615639      23.51503372      24.22699356
H       15.62240887      24.53389549      25.37323570
H       13.32737827      24.49360657      22.66390419
H       14.50867271      25.47621536      23.55515480
H       16.36142731      24.10117149      22.23481941
H       15.37896633      25.23686981      21.24860954
H       14.97863102      22.41394043      19.21193886
H       15.97824764      23.84959030      19.40882301
H       16.39374924      21.15391350      20.86906815
H       17.49899483      22.58422661      21.00165749
H       19.23699379      21.22335434      20.04440880
H       19.13909912      20.88616371      18.27592278
H       17.39276886      19.14614296      18.64684296
H       17.57883453      19.28340912      20.40659332
H       19.73394966      16.55602074      19.14174652
H       18.11682701      17.01842117      18.51490593
H       18.36354637      16.91222191      20.26674080
C       25.75057602      24.67638588      13.43056011
O       26.92974281      24.81190491      14.22313404
C       26.79313087      24.69797707      15.66341877
C       26.62121773      26.09343529      16.26149368
O       26.73408127      25.93757057      17.68472481
C       26.78679085      27.14784622      18.43171692
C       25.36654472      27.65138817      18.77955055
O       24.72607994      26.60935402      19.53300476
C       23.29646301      26.66735840      19.37196541
C       22.88488388      25.87426758      18.11918640
O       21.57882118      26.38863373      17.79609871
C       20.94107437      25.75022316      16.70122147
C       20.22079468      24.45291519      17.07640457
O       19.76173782      23.90272713      15.80276775
C       18.98439789      22.71383095      15.89114666
H       26.03507233      24.67761040      12.36847210
H       25.23575211      23.71757698      13.62021160
H       25.02904701      25.50149918      13.59270287
H       25.94671631      24.03883553      15.92498112
H       27.72210503      24.23813057      16.03682899
H       25.64224434      26.51723862      15.97187901
H       27.42120934      26.74320221      15.86905861
H       27.36105156      26.95142174      19.35548782
H       27.30738449      27.94091225      17.86001778
H       24.80510712      27.85853004      17.85146904
H       25.40104103      28.59017372      19.36257362
H       22.82614899      26.26140213      20.28227615
H       22.95649910      27.71408272      19.26840973
H       22.88368416      24.78215218      18.27778625
H       23.56649780      26.10245705      17.27366447
H       21.59304810      25.60958862      15.81282520
H       20.13963699      26.44524765      16.37998581
H       19.36162376      24.68001747      17.73341560
H       20.86070633      23.73229790      17.61232567
H       18.72480202      22.39292336      14.86639595
H       18.04856110      22.88424301      16.45533371
H       19.53114510      21.89615440      16.40570259
C        8.45079422      35.28051758      13.18765354
O        9.20727825      34.89207840      14.33479404
C        8.95637989      33.55680084      14.79347610
C        8.08511448      33.66109467      16.05671501
O        7.78542042      32.32794189      16.49790955
C        7.37072563      32.30653763      17.86584282
C        5.94474125      32.85178757      18.07415199
O        5.08309555      32.21756744      17.12185478
C        3.88527107      32.92819595      16.79149055
C        4.03334570      33.55663681      15.40646458
O        2.74319363      34.10266113      15.11044121
C        2.69405293      34.83693314      13.89454842
C        2.31724381      33.96241760      12.69792938
O        2.00686216      34.90269089      11.65072823
C        1.80558264      34.28519821      10.39223099
H        8.78116322      36.29292297      12.92448044
H        8.62417126      34.59232712      12.34287834
H        7.36962891      35.29213333      13.39662170
H        8.51687908      32.93062210      13.99893665
H        9.91771030      33.10498428      15.07582283
H        7.15361452      34.22130203      15.87411880
H        8.65200806      34.19295120      16.83152771
H        7.43663931      31.25398636      18.17180252
H        8.04778481      32.89997864      18.50864792
H        5.91586447      33.94871521      17.94448090
H        5.61393642      32.62017822      19.10295105
H        3.05748129      32.20444870      16.74905586
H        3.62920642      33.68379974      17.55558777
H        4.33764029      32.79389191      14.66743565
H        4.80683517      34.34572220      15.43363476
H        3.65733314      35.33531189      13.68607235
H        1.93430102      35.62656784      14.02084923
H        1.45255780      33.32218552      12.93397331
H        3.15171361      33.31132889      12.38179398
H        1.56350005      35.07030106       9.66263962
H        0.96558452      33.57546616      10.42851257
H        2.69818211      33.73736954      10.04451561
C       34.48516083      18.42383385      20.18404198
O       35.87467957      18.20111465      20.50087929
C       36.20726776      16.91899490      21.05650902
C       35.74746323      16.86966133      22.52762794
O       35.83853912      15.49690247      22.92786598
C       35.66835022      15.33493328      24.33440399
C       34.21028519      15.55443382      24.79815865
O       33.32064438      14.88339806      23.90043640
C       31.93433762      14.99690533      24.28310394
C       31.16471672      15.47740078      23.05968094
O       29.76081276      15.32354832      23.32736397
C       28.94964409      15.69183350      22.19096184
C       28.92136574      14.69515419      21.02797318
O       28.12196350      15.37847519      20.03411674
C       27.75333405      14.53889370      18.95777893
H       34.41010284      19.44198990      19.77078056
H       34.14286041      17.72215843      19.40140915
H       33.79036331      18.34156990      21.03729248
H       35.76706696      16.10502815      20.44408226
H       37.30069733      16.79348183      20.99129486
H       34.71025848      17.23278046      22.63532066
H       36.39533615      17.51394463      23.15135384
H       36.00683975      14.31455994      24.55893898
H       36.29177856      16.05161667      24.90387917
H       33.95590210      16.63072586      24.82285118
H       34.07793427      15.16705894      25.82915115
H       31.55052376      14.00533676      24.58015823
H       31.78322601      15.66410255      25.15382004
H       31.45236397      14.86625385      22.18201065
H       31.41724205      16.53215981      22.83497429
H       29.26199722      16.66686249      21.78719330
H       27.92355347      15.81111050      22.58781433
H       28.47611237      13.73111534      21.31371307
H       29.92127800      14.48956203      20.59345627
H       27.20850182      15.14596653      18.22239113
H       27.10043335      13.71829605      19.29518509
H       28.63383865      14.09089375      18.46053696
C       30.87171173      17.95046806      19.46391106
O       29.51108932      18.36797905      19.62881279
C       29.32302856      19.57674599      20.39886856
C       29.41980171      19.31532288      21.91294098
O       29.40971947      20.60189247      22.54051208
C       28.97415352      20.68491173      23.89371681
C       30.14429855      20.79546738      24.88833809
O       31.11713982      21.67685699      24.33136749
C       32.49135590      21.41415405      24.67191505
C       33.29337311      21.20292473      23.37697792
O       34.65611649      21.20441437      23.83237076
C       35.66397476      20.99246216      22.84127426
C       35.72641373      22.15171051      21.85379982
O       36.80695343      21.83374786      20.94944954
C       36.92449570      22.85742760      19.96396828
H       30.85392952      17.04063797      18.84632111
H       31.47897148      18.72793961      18.96604156
H       31.33930588      17.68620300      20.42686272
H       29.99612617      20.38958740      20.08054352
H       28.28763580      19.88252068      20.16074944
H       30.34162712      18.76481438      22.16813278
H       28.54555130      18.71600533      22.22587395
H       28.29914474      21.55989647      23.98047638
H       28.35568047      19.80252266      24.16054535
H       30.58517647      19.80047989      25.09164238
H       29.75248337      21.15406990      25.86197472
H       32.88420486      22.27258301      25.25024986
H       32.57950592      20.53269005      25.33081818
H       33.05982971      21.99812889      22.64955711
H       33.01285553      20.24006462      22.90690613
H       35.48295212      20.05904579      22.27778435
H       36.62021255      20.88662148      23.38283730
H       35.88902664      23.11172485      22.37515640
H       34.77824020      22.22682381      21.28746986
H       37.82089615      22.65924835      19.36270142
H       37.01256180      23.84676361      20.44137383
H       36.04231262      22.86256409      19.30092812
C        9.53516483       6.99905300      19.31197929
O        9.23193169       6.79704666      20.69825363
C        8.50426388       7.85093451      21.37534904
C        9.47713661       8.87564850      21.95348358
O        8.67758465       9.96740150      22.41873550
C        9.37081909      10.91372204      23.23036003
C       10.14602375      11.94600677      22.41733551
O        9.18649101      12.64941692      21.61697578
C        9.74573708      13.25434017      20.43092155
C        9.30197525      12.46315575      19.19473076
O       10.19495392      12.85234642      18.13749886
C        9.99559307      12.17859268      16.89048195
C        8.78027153      12.70134640      16.12700272
O        8.94917965      12.14452744      14.80461407
C        7.86044359      12.33477020      13.93276596
H       10.02668476       6.07528257      18.96337509
H        8.60584736       7.08825684      18.72372818
H       10.18569374       7.86797523      19.14019585
H        7.79028320       8.32425308      20.68777275
H        7.91835737       7.37464380      22.17731285
H       10.17937851       9.18477917      21.15575790
H       10.04725075       8.42982006      22.78756523
H        8.62596035      11.43143845      23.85279655
H       10.08518696      10.41312027      23.90940475
H       10.89601326      11.45721531      21.76503181
H       10.66014671      12.63290596      23.12095451
H        9.40847206      14.31100750      20.40249062
H       10.85115623      13.29684734      20.47940063
H        8.24178028      12.67999649      18.94907951
H        9.38627338      11.37873650      19.40368080
H        9.88630295      11.07957649      17.01720428
H       10.89968681      12.34171772      16.27496147
H        8.76257801      13.80308533      16.10379028
H        7.83803844      12.37015915      16.58992195
H        8.14310551      11.97227859      12.93571281
H        7.55885601      13.39029312      13.86934662
H        6.98541927      11.74475956      14.25263786
C       11.72918510      27.43854523      23.37581825
O       11.49621391      28.70936966      22.74945068
C       11.88124275      29.83865547      23.57380486
C       10.86163139      30.03609467      24.70332909
O       11.26987171      31.19778633      25.45839310
C       10.50210190      31.48732758      26.61565781
C       10.87207222      30.62347794      27.83593941
O       12.16346741      31.04745483      28.31495285
C       12.70493793      30.18324089      29.31386185
C       13.43884659      29.02419662      28.61323929
O       13.95251083      28.24539566      29.70158195
C       14.28023911      26.89967155      29.35240555
C       15.78924370      26.79450226      29.12118912
O       16.03115654      25.38369751      28.92310905
C       17.41869164      25.15703201      28.68006516
H       11.43787098      26.67182159      22.64253426
H       12.79591656      27.29544258      23.61874962
H       11.09502792      27.25283623      24.26107025
H       12.89765835      29.70770836      23.98093224
H       11.87460899      30.70939636      22.89656830
H       10.82069969      29.12446976      25.32448578
H        9.85679245      30.19921303      24.27072144
H       10.69108677      32.54441452      26.87614822
H        9.41664600      31.37343979      26.41473961
H       10.86594296      29.56193733      27.54450035
H       10.10731030      30.75586700      28.62933731
H       13.40725231      30.76463127      29.93544197
H       11.90826321      29.79007149      29.97879410
H       14.24952793      29.40036392      27.96150208
H       12.74314022      28.44292831      27.98313713
H       13.73147392      26.55048943      28.45782661
H       13.97941208      26.26062393      30.20504379
H       16.34898186      27.18714714      29.98836327
H       16.07382774      27.36427498      28.21708870
H       17.55445862      24.08573532      28.49014473
H       18.02710915      25.45122147      29.54886627
H       17.76134109      25.71913338      27.79166985
C       36.61024094      11.43046665      16.19020271
O       36.33131027      12.59730721      16.97262955
C       35.51430893      12.42535400      18.14958000
C       34.04539871      12.36560917      17.69510269
O       33.30517197      12.19381905      18.91922760
C       31.89623833      12.04960728      18.71297646
C       31.53398895      10.72458076      18.02497482
O       32.05586243       9.66999245      18.85287285
C       31.88530731       8.36602688      18.27448463
C       33.19393158       7.93640661      17.59667778
O       32.94035721       6.58712006      17.15250015
C       34.02095032       5.91544342      16.49184227
C       35.10111618       5.49514532      17.49574471
O       35.99810791       4.63487577      16.76089287
C       37.09373474       4.18428040      17.51786423
H       37.34296799      11.71650791      15.42340851
H       37.03133011      10.62982941      16.81851006
H       35.71298981      11.04101658      15.68420696
H       35.77460861      11.50759315      18.69985008
H       35.67768097      13.30054665      18.80322838
H       33.90335846      11.53345680      16.98939133
H       33.75096130      13.30469513      17.19646835
H       31.42726135      12.10182381      19.70843315
H       31.49741936      12.88596725      18.10486031
H       31.91422081      10.64340973      16.98943138
H       30.43126678      10.65352631      17.96047974
H       31.64392662       7.68080616      19.10267830
H       31.04585838       8.32806969      17.55871201
H       34.01160812       8.00018501      18.33152199
H       33.40969086       8.58022499      16.72598648
H       34.45866776       6.51826715      15.68058777
H       33.58016205       5.01163960      16.02807808
H       34.63872528       4.97187090      18.34719276
H       35.64503860       6.37110615      17.89334297
H       37.84466553       3.74910879      16.83913422
H       36.79917145       3.40519929      18.24330330
H       37.57177353       4.99466848      18.09925842
C       36.39861679      22.96915627      29.94351768
O       37.07207870      22.53864288      28.76558304
C       36.31129074      21.95823479      27.70312691
C       35.99399567      20.49240875      27.98506927
O       35.42778778      20.04439926      26.73867035
C       34.91702271      18.73058510      26.71972656
C       33.69250107      18.57231140      27.65787888
O       32.90922165      19.75808716      27.50155067
C       31.75875854      19.80689049      28.35714912
C       31.68756485      21.21041489      28.95262909
O       30.40111923      21.28166771      29.58611298
C       30.17229080      22.44990921      30.37506294
C       29.77928543      23.64284515      29.51906776
O       29.69294739      24.69556046      30.49766159
C       29.39706230      25.97573090      29.94415474
H       37.15524292      23.41403008      30.60679245
H       35.62823486      23.72029877      29.70617485
H       35.91072083      22.14357567      30.48379135
H       35.38904190      22.52893639      27.47888184
H       36.92134476      22.00685120      26.78505898
H       35.27472687      20.41695213      28.81585121
H       36.90439987      19.92947960      28.23062134
H       34.57983398      18.57399750      25.67702293
H       35.69464111      17.98329544      26.96397591
H       33.99372864      18.44594765      28.71346283
H       33.11498260      17.67669487      27.34580040
H       30.84487915      19.59765625      27.77035904
H       31.79220390      19.04582977      29.16001320
H       31.79702568      21.94897461      28.14068794
H       32.49448013      21.36494255      29.69346809
H       31.05350113      22.70950508      30.98503494
H       29.35118675      22.22089958      31.06956863
H       28.81315422      23.47559357      29.00261688
H       30.53265762      23.87230682      28.74068069
H       29.65206146      26.73649788      30.69653511
H       28.32227516      26.06514168      29.71324539
H       29.96353340      26.14759636      29.00772858
C       17.06643867      15.01922894       6.80506706
O       17.70492554      14.66117477       5.58786917
C       19.10375786      14.93860626       5.53198624
C       19.33110046      16.19107628       4.67358446
O       20.73749733      16.40973854       4.80107164
C       21.26564407      17.43030930       3.96233344
C       21.06220818      18.81117249       4.61539030
O       21.78307724      18.87303352       5.85741138
C       21.49321938      20.02695847       6.66721249
C       20.25545120      19.81748009       7.55419779
O       20.33516121      20.87286377       8.53887749
C       19.45607185      20.81637764       9.66382217
C       20.12454796      20.04179764      10.79463100
O       19.28614235      20.24075127      11.97056484
C       19.82013130      19.52274704      13.08841896
H       16.12324524      14.46177578       6.87800169
H       17.66835594      14.76269245       7.69103193
H       16.80805969      16.08788300       6.85296869
H       19.52684975      15.09888363       6.54009676
H       19.62944603      14.07827473       5.08873034
H       18.71700859      17.01572037       5.07464743
H       19.01790237      16.01789665       3.62611866
H       22.33906746      17.21401787       3.81465888
H       20.78379059      17.42065620       2.96699977
H       19.98384666      18.97866821       4.76376677
H       21.44271469      19.57754517       3.91441417
H       22.35766983      20.20364380       7.32721233
H       21.34963417      20.92902374       6.04353142
H       20.29160690      18.81570816       8.01555920
H       19.31380653      19.89295578       6.97693729
H       18.48106575      20.36893463       9.39047813
H       19.24406815      21.84619713       9.99812031
H       21.14735413      20.40789413      10.98298836
H       20.18217659      18.97378349      10.52613640
H       19.08249283      19.53375244      13.90180588
H       20.77572060      19.96131325      13.42776680
H       19.98105431      18.46420479      12.81558418
C       35.07826233       9.88369274      32.36513901
O       35.29542160      10.35849571      33.68990326
C       34.49692917      11.43116665      34.21068192
C       35.38362122      12.66981411      34.33478165
O       34.62299728      13.58074760      35.13281631
C       35.30837250      14.69913101      35.65091705
C       35.57123947      15.73429585      34.53620148
O       34.29856110      16.17531013      34.06683350
C       34.23188400      16.56944466      32.69163895
C       34.10618210      15.36799717      31.74272346
O       33.99904251      15.95174026      30.43065453
C       33.74486542      14.99839783      29.39112091
C       32.25588989      15.03025913      29.04796600
O       32.16548920      14.21529102      27.85043716
C       30.81605530      14.04319572      27.44550514
H       35.33768463       8.81526470      32.34283447
H       34.02039719       9.98562241      32.08529282
H       35.67778778      10.43721294      31.62403679
H       33.61785507      11.64000320      33.57391357
H       34.11450958      11.17012024      35.21237183
H       35.55138779      13.04681301      33.31141281
H       36.34994125      12.42866421      34.79998398
H       34.67205811      15.13337994      36.44112778
H       36.27494431      14.41787052      36.10358047
H       36.16453171      15.28548241      33.72272873
H       36.15481949      16.56808853      34.97827148
H       33.30410004      17.16379738      32.59501648
H       35.08822250      17.20989990      32.41378021
H       33.20594406      14.78956223      32.00930023
H       34.99585724      14.71749115      31.79872704
H       34.02001953      13.96048737      29.65815163
H       34.31205368      15.27749920      28.48633385
H       31.90129089      16.05963135      28.83684731
H       31.61145401      14.63059998      29.85695267
H       30.78832817      13.46836185      26.51080132
H       30.31277084      15.01193333      27.26163101
H       30.21709061      13.47536087      28.18601227
C       22.04414177      11.23874855      23.40891266
O       21.11472893      10.92837238      24.45335960
C       20.89466667       9.51023006      24.48584175
C       19.72893715       9.25603008      23.52125168
O       19.57590103       7.83237886      23.39573669
C       18.38462257       7.46181917      22.73970222
C       18.53386307       7.48072052      21.22267342
O       19.47891808       6.44944096      20.87603760
C       20.12291527       6.56992054      19.60982895
C       20.93362999       7.86810017      19.51764107
O       21.96703148       7.55605125      18.55710411
C       22.89883614       8.63603687      18.37134933
C       24.30202866       8.12986279      18.69357872
O       25.13693810       9.21560478      18.26043510
C       26.53888893       8.95536900      18.42044640
H       22.03282166      12.32978153      23.29525948
H       23.05758858      10.87417793      23.64990616
H       21.75007057      10.80466843      22.43069267
H       21.78951836       8.92609692      24.20961189
H       20.62888718       9.22415829      25.51767349
H       19.91316605       9.72266293      22.53383827
H       18.81118584       9.72766113      23.92319107
H       18.08867645       6.45388412      23.08296776
H       17.53546333       8.11372280      23.01549530
H       18.85691261       8.49062347      20.91916656
H       17.56396675       7.27435493      20.72882080
H       20.81580162       5.71611357      19.52901840
H       19.40882111       6.45849323      18.77470779
H       21.35617447       8.13139725      20.50391960
H       20.31220055       8.70924091      19.15839767
H       22.62223053       9.51204300      18.97765732
H       22.85555267       8.96518993      17.31754112
H       24.54713821       7.21348906      18.12371254
H       24.41654778       7.91436815      19.76769638
H       27.06431770       9.83718491      18.03434944
H       26.82649040       8.07184505      17.83164597
H       26.80932236       8.77963829      19.46910095
C        6.17159605       4.60828257      35.84247208
O        5.42004108       5.76229668      35.51836014
C        6.17553520       6.83004713      34.93437958
C        6.79060602       7.70900917      36.04368591
O        7.52982187       8.73244476      35.34648132
C        8.09212780       9.74479198      36.17137527
C        9.33398342       9.25043392      36.94128418
O       10.21835613       8.65828133      35.97707748
C       11.27953911       7.87672997      36.50294495
C       10.94439983       6.39130831      36.27750778
O       12.09394073       5.70965147      36.78871155
C       11.98624897       4.29803658      36.81229401
C       12.65103722       3.68543911      35.57201385
O       12.45636463       2.27637672      35.71108627
C       12.78418064       1.52225709      34.56446075
H        5.43836832       3.80543756      35.98241043
H        6.85920858       4.31141376      35.03911972
H        6.72048235       4.73326206      36.78715134
H        6.92907906       6.45988274      34.21939087
H        5.47117329       7.43025637      34.33552170
H        7.46385717       7.11761761      36.68657303
H        5.99903917       8.14993382      36.68028641
H        8.38452244      10.55969715      35.48625183
H        7.36144447      10.14584351      36.89738083
H        9.03898716       8.52698421      37.71867371
H        9.80633640      10.11933899      37.44039154
H       12.19771385       8.10371304      35.93103409
H       11.48600388       8.10274792      37.56628036
H       10.77428246       6.20461655      35.20129013
H       10.02128124       6.11851263      36.81654739
H       10.92413902       3.98734403      36.84072113
H       12.45825768       3.93239069      37.74351501
H       13.72606754       3.93564653      35.55113983
H       12.18503952       4.05457306      34.64102936
H       12.58924961       0.46279237      34.78676224
H       13.84383392       1.65527046      34.28987122
H       12.16805935       1.80987167      33.69250107
C       30.53873062       0.90029383      25.33077049
O       30.52005959       1.39391220      23.98676491
C       29.25446701       1.96078789      23.60995293
C       28.13341904       0.92104793      23.53235054
O       26.97625351       1.71500444      23.25865555
C       25.88274765       1.10100424      22.58760452
C       24.86038208       0.62998217      23.62434006
O       24.55283165       1.77898288      24.42888451
C       24.14472961       1.48275697      25.77665138
C       25.35696983       1.11611283      26.64086723
O       24.84178162       1.13359261      27.97241592
C       25.85303307       1.00988984      28.97908401
C       26.47912216       2.36165977      29.27573776
O       27.25838470       2.19075561      30.46375847
C       27.50249863       3.43105459      31.09352493
H       31.57869911       0.68115318      25.60976028
H       30.11915779       1.63569498      26.04636574
H       29.95289421      -0.02780575      25.43597603
H       28.99342346       2.77102637      24.31868553
H       29.36058998       2.40497041      22.61115837
H       28.02167320       0.38699144      24.48492432
H       28.33178329       0.21038742      22.71479034
H       25.42755127       1.86864519      21.93839264
H       26.21801376       0.27784261      21.93032074
H       25.28539276      -0.17975983      24.23394203
H       23.95022964       0.25784743      23.12845802
H       23.68077850       2.39443588      26.18463898
H       23.37858582       0.68896347      25.78032303
H       26.15111351       1.86494970      26.48235512
H       25.74480820       0.12054865      26.37007332
H       26.59465408       0.24121939      28.70578575
H       25.35965538       0.65038699      29.89047432
H       25.67723846       3.10995531      29.42414284
H       27.09987068       2.71734667      28.42867088
H       28.10680962       3.25595212      31.99518776
H       26.55840492       3.91190720      31.41952133
H       28.03299141       4.13181829      30.41899490
C       36.75495148      10.74495220      27.88857269
O       35.77668381      11.72989655      27.58207512
C       34.53908539      11.34318829      26.94375801
C       34.66321945      11.61414146      25.44297791
O       33.32878113      11.50424671      24.91349792
C       33.20560837      11.57751560      23.50363731
C       33.74031448      10.34368038      22.75261116
O       33.30201340       9.19093704      23.50000954
C       33.75224304       7.94139671      22.96324158
C       34.91419601       7.42824364      23.82357788
O       35.10698700       6.06374025      23.42922592
C       36.31418610       5.48048639      23.89691162
C       35.95753860       4.24540281      24.72904015
O       37.18832016       3.76573920      25.28644943
C       36.98753357       2.64089274      26.14048576
H       37.71544647      11.26490211      28.03265572
H       36.50085449      10.20425320      28.81750679
H       36.87214661      10.01052094      27.07666016
H       34.23897552      10.29849434      27.13363838
H       33.74554443      11.98505878      27.36330414
H       35.34227753      10.89809608      24.95369148
H       35.03345871      12.64205933      25.31920624
H       32.12617493      11.70511913      23.30591393
H       33.71047592      12.46970463      23.10072899
H       34.83802032      10.37017822      22.67288971
H       33.33843613      10.31634998      21.72193909
H       32.90929413       7.22807884      23.01199150
H       34.03160858       7.99927330      21.89320755
H       34.64253616       7.50387192      24.89588547
H       35.82818985       8.02683926      23.65369797
H       36.90353012       6.17305899      24.52139473
H       36.94475555       5.17552471      23.03715134
H       35.46711349       3.48028374      24.10372162
H       35.23818588       4.51194715      25.52529716
H       37.79791260       2.58130836      26.88238907
H       36.99790192       1.69499743      25.54547501
H       36.02439499       2.70341873      26.67476845
C       24.07519913      22.05183792      36.15594864
O       24.80878830      23.13909340      35.62128830
C       24.34564209      23.67960548      34.37189102
C       24.67126656      22.81805229      33.14789581
O       24.01360130      23.51061249      32.06246185
C       24.20890617      22.93223763      30.77646637
C       23.05299187      21.98552895      30.41761017
O       21.84608459      22.76260757      30.60928917
C       20.67639732      21.95091820      30.73007011
C       20.68597794      21.37390900      32.16205597
O       19.44899178      20.63869667      32.30977631
C       19.41539192      19.97793770      33.57465363
C       18.48243332      20.76111221      34.51213837
O       18.51219177      20.11557770      35.81241989
C       17.68048477      20.80499649      36.75218582
H       24.54538536      21.78190994      37.11487198
H       23.02451897      22.33257866      36.34686279
H       24.07440186      21.16832924      35.49859238
H       23.26425743      23.91912270      34.42992020
H       24.88915443      24.63583755      34.28497314
H       24.30033302      21.78834534      33.24562836
H       25.75966644      22.78276253      32.97629547
H       24.21075630      23.75524902      30.04302025
H       25.16299438      22.37971306      30.68790627
H       23.08654976      21.10880852      31.08020020
H       23.11573029      21.61927223      29.37464714
H       19.79486465      22.59980392      30.60806847
H       20.59515953      21.17357063      29.94924355
H       20.76101112      22.18699265      32.90736008
H       21.53207588      20.68030930      32.29441833
H       20.41130638      19.86842537      34.04038239
H       19.00851631      18.96589088      33.38228989
H       17.44581795      20.75186920      34.12950897
H       18.79982758      21.81339073      34.60520172
H       17.64503670      20.19473648      37.67457199
H       16.64822578      20.89657402      36.34594727
H       18.05253410      21.81336403      37.00452423
C       17.44757652      13.89499760      23.73138046
O       18.16716385      12.76281452      23.24207878
C       17.94125175      12.41171455      21.86016464
C       16.83403778      11.34875202      21.80626488
O       16.84655571      10.78247929      20.47678947
C       15.76793194       9.92784214      20.14289093
C       14.45404911      10.68721771      19.90727043
O       14.77799606      11.76887703      19.03043556
C       13.68409634      12.62374306      18.68430519
C       13.99371147      14.03176117      19.18521500
O       12.86249924      14.80081081      18.76764679
C       12.71052361      16.05779266      19.43199158
C       13.37643528      17.17440987      18.64896584
O       13.19396210      18.31675911      19.50183868
C       14.02629089      19.41324997      19.20370293
H       17.61537933      13.98527145      24.81582451
H       17.79000473      14.82246399      23.23479080
H       16.35647202      13.78568459      23.57393456
H       17.67893600      13.28115082      21.22651672
H       18.88828468      11.98463058      21.46997643
H       15.85797691      11.79836941      22.06203651
H       17.05339050      10.58149052      22.56817818
H       16.03806114       9.39813900      19.21196938
H       15.58873653       9.16880798      20.93502617
H       13.98861599      11.04249763      20.84510612
H       13.70474052      10.02096462      19.42733383
H       13.53019428      12.59479332      17.58603287
H       12.71631050      12.30475998      19.10804176
H       14.94207764      14.39877129      18.73598480
H       14.10106277      14.03611469      20.29125595
H       13.11222935      16.05449867      20.45709610
H       11.63251114      16.25975037      19.52763939
H       12.90888214      17.30939674      17.64951706
H       14.45504951      16.94228554      18.50456047
H       13.98814583      20.13809776      20.02833557
H       13.68629169      19.94358635      18.27857018
H       15.08532429      19.09014702      19.09987640
C       27.19319916      15.16818810       9.08525944
O       27.83496094      14.79161453       7.86216831
C       28.14522552      15.90775204       7.00607014
C       26.91864395      16.27078247       6.14983273
O       27.40447426      17.35793114       5.35954189
C       26.45119286      18.03350830       4.54504251
C       25.51035309      18.91732979       5.39926529
O       26.34488487      19.65281868       6.29361629
C       25.71237755      20.59702110       7.17470407
C       25.75968361      20.15783882       8.63852310
O       24.98847389      21.15981293       9.34031105
C       24.88241768      20.92089653      10.74718189
C       26.14388657      21.39436531      11.45549011
O       25.94111252      21.03321838      12.84013081
C       27.11513519      21.28758240      13.62198830
H       26.89148903      14.24733162       9.61185646
H       27.85048103      15.76428318       9.73616505
H       26.27230835      15.76156902       8.93925762
H       28.47440147      16.77864265       7.60238981
H       28.98694038      15.58444595       6.36608267
H       26.07202721      16.56258202       6.79320192
H       26.59247398      15.43248463       5.50709391
H       27.03361130      18.67536545       3.86187267
H       25.87162018      17.33210182       3.91815901
H       24.76321220      18.31897545       5.94782162
H       24.95039558      19.58583450       4.71199131
H       26.24092484      21.56227875       7.07641268
H       24.66025925      20.76584625       6.87620211
H       26.80430412      20.10125351       8.99629307
H       25.31139946      19.15651894       8.75137138
H       24.68519592      19.85342789      10.94130039
H       23.99737167      21.46252251      11.11902523
H       26.27737808      22.48602295      11.34980488
H       27.02268028      20.86464310      11.05572796
H       26.88624954      21.03918266      14.66750431
H       27.41781044      22.34589767      13.55196381
H       27.94907570      20.64858818      13.29326153
C       13.47425461       1.11400008      17.00649643
O       14.33150291       1.98979461      16.26248932
C       13.69011784       3.14255238      15.67283154
C       13.12400246       2.76399589      14.29536438
O       12.55242825       3.98098111      13.79946041
C       12.09303379       3.92750645      12.45947361
C       10.77611160       3.16342783      12.26010513
O        9.77822876       3.86036992      13.02860069
C        8.54433346       3.16016054      13.15214729
C        8.53152370       2.44898057      14.52047634
O        7.16244221       2.07849383      14.75606728
C        6.95242119       1.42661905      16.01422882
C        6.55609751       2.44840240      17.09657097
O        6.15020752       1.65897942      18.22227859
C        5.60018730       2.37370348      19.30805588
H       14.09516335       0.52751303      17.69341469
H       12.72797775       1.66938245      17.59609032
H       12.92015457       0.42487445      16.35132790
H       12.90102863       3.53857565      16.34085274
H       14.47197342       3.90839362      15.55702400
H       12.35897446       1.97784758      14.38728428
H       13.93111515       2.39529729      13.63390636
H       11.92188644       4.96348000      12.13411140
H       12.83802319       3.44551539      11.79517746
H       10.88251972       2.11823750      12.58081245
H       10.51005554       3.17277527      11.18844795
H        7.71652079       3.88506985      13.10031223
H        8.39011955       2.45484734      12.31691456
H        8.90769386       3.12039876      15.31063652
H        9.17699909       1.55874789      14.47597408
H        7.83325148       0.84544200      16.32838249
H        6.13244057       0.70352203      15.88610458
H        5.73295212       3.09541750      16.75491333
H        7.38957262       3.10782218      17.38287544
H        5.70514059       1.77860987      20.22574425
H        4.52537441       2.56901264      19.15836143
H        6.10403538       3.33749580      19.46719933
C       37.10830307       9.42697716      37.44702911
O       37.58312988       8.21529865      36.87040710
C       36.64961624       7.46581697      36.09643555
C       35.58110428       6.81628561      36.99376678
O       34.92766953       5.90657806      36.10976410
C       33.97882843       5.05336046      36.71281052
C       32.70520020       5.79465055      37.20246506
O       32.39622498       6.79334736      36.24092102
C       31.28400612       7.61968088      36.58782578
C       31.62410736       9.04738998      36.13407135
O       30.46740913       9.82800579      36.43445587
C       30.72557831      11.18817997      36.77305984
C       30.86021996      12.03130627      35.51204681
O       31.17876816      13.32525539      36.05072403
C       31.36465836      14.27311039      34.98890305
H       37.99171829       9.95456696      37.83245850
H       36.61214447      10.04506683      36.68303299
H       36.40597916       9.26367283      38.28006744
H       36.15419769       8.08054447      35.32853317
H       37.22080231       6.67838717      35.58594513
H       34.87152863       7.56884909      37.38307190
H       36.05413437       6.29623461      37.84101868
H       33.70316696       4.33329105      35.92691803
H       34.42154694       4.48507929      37.55635834
H       32.84534454       6.24520493      38.20698929
H       31.87507057       5.06438065      37.26908112
H       30.37335587       7.26998711      36.07618332
H       31.04894829       7.62320662      37.66892624
H       31.84769440       9.02504349      35.04871750
H       32.51726532       9.40608501      36.66807556
H       31.63036156      11.31725502      37.39154053
H       29.87768555      11.54419899      37.37730408
H       29.92172623      12.03926945      34.92718124
H       31.65188980      11.64909935      34.83954620
H       31.61917305      15.23397446      35.45110703
H       30.45671463      14.39028645      34.37831116
H       32.19549561      13.97650909      34.32814789
C       21.30642891      15.96759224      32.58873367
O       21.72235870      17.29636765      32.25261307
C       21.50856590      17.65462685      30.84832573
C       22.51842880      16.96828651      29.92959785
O       22.26594925      17.52872467      28.62000465
C       23.19268799      17.13602257      27.59747887
C       22.99171448      15.69640827      27.07773972
O       21.66665459      15.62996101      26.53151703
C       21.17681313      14.31749344      26.30515480
C       20.71318626      13.67095184      27.61988449
O       20.03535652      12.47477245      27.17662430
C       19.56362534      11.66043568      28.25670242
C       18.05741310      11.49907017      28.01788139
O       17.63260269      10.53925800      29.02811241
C       16.22198868      10.47355175      29.18953514
H       21.85938454      15.63863468      33.47849655
H       20.22010612      15.94483280      32.81084061
H       21.48225784      15.22788143      31.79138947
H       20.46531677      17.44869995      30.53883553
H       21.63432884      18.74961662      30.81309319
H       22.36742783      15.87760067      29.90805435
H       23.54584503      17.18413734      30.27455139
H       23.03089714      17.82643700      26.74601936
H       24.23351860      17.25106049      27.95960617
H       23.14197350      14.97087860      27.89517784
H       23.74300385      15.45201874      26.29899788
H       20.30171776      14.39511299      25.63427734
H       21.87551880      13.66047382      25.75246811
H       20.01984596      14.34320259      28.17045212
H       21.56141090      13.44555283      28.29960823
H       19.74986267      12.09780312      29.25699043
H       20.05851364      10.67066956      28.21400452
H       17.81447029      11.13147354      26.99795723
H       17.51256752      12.45646095      28.13879013
H       15.98084736       9.88521099      30.08771706
H       15.72662830       9.98395157      28.33083916
H       15.77035236      11.48324203      29.27107430
C        1.11592281      16.59916306       4.91628933
O        1.04461932      17.22844124       6.20160437
C        1.81733227      16.61216736       7.23035812
C        1.08400810      15.36668205       7.78334379
O        2.00208879      14.85190010       8.74483204
C        1.49379265      13.91577911       9.67853928
C        1.46140039      12.49647427       9.09860611
O        2.70005989      12.17805862       8.45104885
C        2.65909600      11.03627300       7.59635592
C        2.64637685      11.44746208       6.13208580
O        2.58298087      10.21597862       5.40083456
C        2.63596749      10.34516335       3.98577261
C        4.09039259      10.49276829       3.51974416
O        4.00397253      10.70373821       2.09704781
C        5.30782366      10.90652466       1.56677401
H        0.30716681      17.01790619       4.30412102
H        2.09349656      16.76473045       4.44348240
H        0.93719733      15.51550007       4.97366619
H        2.81749868      16.32147026       6.86178112
H        1.95191979      17.33666229       8.05345249
H        0.86154634      14.64739418       6.97560692
H        0.12596132      15.65656471       8.25237274
H        2.13620806      13.97987366      10.57602978
H        0.46557304      14.18444061       9.99200916
H        0.61660355      12.38924217       8.39680099
H        1.27582872      11.82103729       9.95441818
H        3.55204439      10.42396927       7.79994583
H        1.76743150      10.41946030       7.79802132
H        3.54794288      12.03605080       5.91499138
H        1.75958610      12.06901073       5.91254997
H        2.04031372      11.20327663       3.63262463
H        2.20254278       9.43216324       3.55211353
H        4.65673351       9.57847404       3.76535630
H        4.56210756      11.36300564       4.00929308
H        5.21466637      11.24311638       0.52488112
H        5.87606716       9.96416473       1.57586420
H        5.86041307      11.65686321       2.16021228
C       20.86645126      29.67558289       7.41479826
O       21.09894180      30.98897934       7.91955280
C       22.43788528      31.28221321       8.34030056
C       22.75926590      30.63015747       9.69094372
O       24.11825180      30.96795273      10.00667477
C       24.50761986      30.76169586      11.35290051
C       24.77277756      29.27939415      11.66118526
O       25.70394516      28.75995255      10.69455910
C       25.82884789      27.33164978      10.77812195
C       25.51271820      26.74333382       9.40737152
O       25.65876961      25.32300568       9.58364868
C       25.19131470      24.55507469       8.46447372
C       26.08884239      24.65629959       7.22757387
O       25.40843773      23.86669350       6.22509623
C       25.94530296      23.99570084       4.91518402
H       19.84135818      29.67032814       7.00531816
H       21.54851723      29.41148186       6.58881950
H       20.90001678      28.89663124       8.19868088
H       23.16940689      30.97274780       7.57993650
H       22.49428940      32.37454987       8.44790363
H       22.63069344      29.53955078       9.60284996
H       22.06180954      30.98514938      10.47333050
H       25.43097305      31.34398651      11.51558399
H       23.73748016      31.13916206      12.06057835
H       23.82275772      28.72289467      11.60245037
H       25.14274406      29.20339966      12.70324039
H       26.85656929      27.07126617      11.07847786
H       25.13587189      26.92907524      11.53848934
H       26.19199753      27.12943459       8.62797070
H       24.47397232      26.98516655       9.10393524
H       24.16395569      24.87062263       8.20115376
H       25.11440277      23.50851250       8.80457211
H       27.08984375      24.24109650       7.43555069
H       26.15736008      25.70291710       6.89365053
H       25.32664871      23.38723946       4.24090147
H       26.98219299      23.63256264       4.85796833
H       25.89858627      25.04314613       4.58524704
C       24.26655960      17.58973312      17.69560623
O       24.49041939      18.14682388      18.99701118
C       24.37670326      17.21184540      20.09121704
C       22.87915611      16.93308640      20.34074020
O       22.86070824      15.96236801      21.40385437
C       21.53162003      15.58154583      21.75540924
C       20.93545723      14.62411404      20.71586418
O       21.63333511      13.38290215      20.76056290
C       21.54597092      12.64401531      19.53647041
C       22.63742065      13.01115704      18.53432083
O       22.44835663      12.04976940      17.46665192
C       23.13898277      12.33757019      16.23884010
C       24.48261833      11.60718060      16.18668556
O       24.87649155      11.68430328      14.78401756
C       25.90502739      10.77888203      14.37689114
H       24.38284874      18.40918922      16.97145844
H       24.98780251      16.78786469      17.46154785
H       23.25606918      17.16374016      17.57804108
H       24.92737961      16.27757263      19.88475418
H       24.82525444      17.69512749      20.97342682
H       22.40608215      16.54886627      19.41525841
H       22.31365967      17.84427834      20.62763023
H       21.55993652      15.12707138      22.76396751
H       20.87299156      16.47314262      21.83802032
H       21.00659370      15.06123829      19.70556259
H       19.85457230      14.46800709      20.92218399
H       21.63905334      11.57489777      19.80598259
H       20.54792213      12.72651958      19.05778503
H       23.63484192      12.92694855      18.99026299
H       22.48100471      14.03957176      18.15702438
H       23.21583176      13.42363167      16.05879402
H       22.51103210      11.93840313      15.42194748
H       24.35710335      10.55482960      16.48166466
H       25.23670959      12.06822777      16.85005188
H       26.02270508      10.87391376      13.28604126
H       25.61633682       9.73745537      14.60612297
H       26.85536766      11.00407505      14.88015842
C        7.99042606      24.11680222       7.91871452
O        7.28562069      23.01634598       8.53036404
C        6.01144409      23.38038063       9.09273338
C        6.24599743      24.07648849      10.42628860
O        4.97347212      24.29102325      11.03896809
C        5.00362873      24.59332275      12.42608833
C        5.74800062      25.88649178      12.76383686
O        5.10327864      26.90827370      11.97766781
C        5.76257658      28.16017723      12.10878563
C        6.45141220      28.51828957      10.78658962
O        6.95925617      29.85490036      11.02195644
C        7.64850187      30.38290977       9.86512756
C        6.63476658      30.87859726       8.81919956
O        7.41867495      31.64568901       7.87868929
C        6.73122835      32.09309769       6.70458555
H        8.89475155      23.68735504       7.45354700
H        7.34566784      24.57891273       7.14714146
H        8.27509975      24.87671852       8.65930367
H        5.42234230      23.99774933       8.39251900
H        5.44658422      22.44255066       9.23768806
H        6.75725937      25.03887939      10.25539112
H        6.89038372      23.43177986      11.05228806
H        3.95757794      24.68553734      12.74122238
H        5.45471001      23.78277969      13.02548981
H        6.81907749      25.80197906      12.48974037
H        5.67823792      26.09390450      13.84806347
H        4.99581575      28.93030930      12.32068157
H        6.47987604      28.18394661      12.93984509
H        5.71929121      28.49202728       9.96389294
H        7.27449274      27.83088684      10.53409672
H        8.32280827      29.62763023       9.43022633
H        8.26750660      31.21965218      10.22001266
H        5.85424232      31.48812675       9.31227684
H        6.12583494      30.05077171       8.29710102
H        7.49203682      32.33607101       5.95110989
H        6.11374474      32.98749542       6.89332342
H        6.09081078      31.29741669       6.28698301
C        1.61712646      20.52157593       5.56151962
O        2.28221798      21.77866745       5.68023872
C        3.50549245      21.84968185       4.92896843
C        4.65109253      21.24955177       5.74941587
O        5.86353350      21.54800034       5.04068565
C        7.05698967      21.25173569       5.75606680
C        7.19488907      19.76236916       6.10216045
O        6.73700666      19.02459526       4.98714447
C        6.96957779      17.61632919       5.07502317
C        5.68334913      16.95215607       4.61992216
O        5.97417402      15.56108189       4.41068506
C        4.81567335      14.76339626       4.19921589
C        4.49553871      14.60874176       2.70481348
O        3.17994714      14.03532505       2.71127033
C        2.64112473      13.72912502       1.44033086
H        0.72310358      20.56091690       6.19503975
H        1.30608356      20.33658028       4.51797438
H        2.21499991      19.66147423       5.89577532
H        3.42405200      21.35471725       3.94558930
H        3.69798231      22.92014694       4.76857567
H        4.50712204      20.15925598       5.83586073
H        4.66264582      21.70389557       6.76083374
H        7.87739468      21.54039764       5.07211781
H        7.13841343      21.85064125       6.67987633
H        6.61052799      19.52219582       7.01695824
H        8.25656223      19.55471420       6.34515333
H        7.81571102      17.32802010       4.42999363
H        7.24022102      17.29920578       6.09807205
H        5.31586504      17.41686440       3.68644452
H        4.89688396      17.09930038       5.38550091
H        3.92955494      15.18388081       4.71843863
H        4.99830723      13.77603054       4.65580273
H        5.21911716      13.95698833       2.18564510
H        4.48357773      15.58839035       2.20533156
H        1.57624364      13.51394176       1.60090184
H        3.12171340      12.84319592       0.99859941
H        2.73924518      14.58962154       0.75691986
C       25.29997826      15.55256557      35.70872116
O       24.52597618      16.72064209      35.99089432
C       23.62704086      16.61188126      37.10561752
C       22.26188850      16.26213455      36.50765228
O       21.38840294      16.01879120      37.62189102
C       20.06628990      15.69450855      37.24626923
C       19.89583015      14.43691826      36.36085510
O       20.61090851      13.35045624      36.94712830
C       20.30747604      12.05252552      36.41018295
C       21.61577988      11.47091007      35.87399292
O       21.28115463      10.19173241      35.32681656
C       22.41971207       9.45703411      34.89928818
C       23.02938652       8.73092651      36.10486984
O       24.12032318       7.94378424      35.58275986
C       24.99084473       7.47467470      36.59964752
H       26.04453850      15.81172466      34.94523621
H       25.82244682      15.19137669      36.61075211
H       24.69628334      14.73092651      35.28592300
H       23.94067955      15.84248734      37.82972717
H       23.59775543      17.58524704      37.62165070
H       22.36085129      15.37557220      35.86201096
H       21.90482140      17.09181213      35.86911011
H       19.47507286      15.58237171      38.17412567
H       19.62185287      16.54049873      36.67263412
H       20.22601891      14.60064793      35.30983734
H       18.81062698      14.22142506      36.30632401
H       19.87679482      11.42947292      37.21818542
H       19.56503677      12.07675266      35.59644699
H       22.38047409      11.40844631      36.66724396
H       21.99707794      12.13703060      35.07513428
H       23.19603729      10.09643650      34.43798065
H       22.10613632       8.72900009      34.13259506
H       22.27313232       8.08721828      36.57928467
H       23.40675354       9.45336246      36.85006332
H       25.87678719       7.03114367      36.11776352
H       24.49987221       6.70645380      37.22418594
H       25.31337929       8.29319668      37.27546692
C       23.73579597      11.98578739       8.21247101
O       23.68810081      12.68584061       6.96048069
C       24.20959854      14.02476120       7.10265779
C       23.35781670      14.87437534       8.05647278
O       23.88849258      16.21652603       7.94821405
C       23.10562134      17.22034073       8.57947159
C       23.25712395      17.28817558      10.10800552
O       24.64547539      17.44844818      10.42427349
C       24.98115349      17.40165138      11.82782555
C       25.69975853      16.08455276      12.11281204
O       25.72538376      15.98399067      13.54298306
C       26.19257736      14.71344185      13.99221134
C       27.71503448      14.60595989      13.84401417
O       28.06511879      13.33242702      14.42179489
C       29.46365547      13.08561611      14.38740253
H       23.30781746      10.99308205       8.03420353
H       24.76189232      11.83449554       8.58029747
H       23.13305664      12.43551540       9.01474094
H       25.25768089      14.01405334       7.44800901
H       24.17164230      14.46356106       6.09345293
H       23.43403625      14.51723671       9.09761143
H       22.29307556      14.86502457       7.75629234
H       23.40909576      18.17206764       8.11240864
H       22.03287697      17.07610321       8.32758808
H       22.83885765      16.37511253      10.57551289
H       22.66635323      18.14525223      10.48835373
H       25.63755226      18.25476837      12.06673717
H       24.07666016      17.52902794      12.45238209
H       26.71404457      16.11466408      11.67568302
H       25.14927101      15.25132942      11.63917065
H       25.68419456      13.88913345      13.45574856
H       25.89509773      14.61987972      15.05616856
H       28.20767784      15.43625355      14.38828087
H       28.02066040      14.63492012      12.77912617
H       29.63138008      12.07202435      14.77714348
H       30.02424049      13.81025600      14.99944305
H       29.85022354      13.13711262      13.35365295
C        9.82029629      10.97555351      27.61565781
O       11.03768921      11.58334255      28.06702995
C       11.96637440      10.71047974      28.74955177
C       11.81129265      10.92126656      30.25865364
O       12.57233334       9.87207413      30.87778091
C       12.49542904       9.86174774      32.29799652
C       11.10553932       9.47514153      32.82924652
O       10.85643291       8.13646507      32.34878540
C        9.50461960       7.71503735      32.57406235
C        8.69620609       8.12048435      31.33629990
O        7.34806490       7.75756836      31.64399719
C        6.45374966       7.84294271      30.53331375
C        6.35979843       6.50182962      29.80298424
O        5.38467836       6.70993710      28.76057625
C        5.34728384       5.64420795      27.82987213
H        9.18707275      11.77519321      27.20354462
H        9.99807453      10.23140621      26.82293129
H        9.25623798      10.47614193      28.42035866
H       11.78154373       9.65761280      28.48116875
H       12.98834801      10.96924973      28.42194939
H       10.74243164      10.86576653      30.51793480
H       12.18200493      11.91178226      30.58778572
H       13.24766445       9.13047695      32.63765717
H       12.73313904      10.84923935      32.73957443
H       10.32643223      10.15709305      32.45476913
H       11.07518291       9.52489758      33.92786026
H        9.49622917       6.62181091      32.68001175
H        9.08761978       8.14480686      33.50289154
H        9.05638409       7.57467699      30.45087624
H        8.76259518       9.20567894      31.13985252
H        6.73764277       8.62741280      29.81011963
H        5.46097517       8.11570549      30.93862915
H        6.04806852       5.69222307      30.48249626
H        7.33060694       6.22191381      29.36362648
H        4.60035229       5.87071276      27.05832481
H        5.07274771       4.69344568      28.30473137
H        6.32093048       5.50326347      27.33631706
C       25.48009300       3.83866072      35.94151688
O       26.60041618       2.92676115      36.12630463
C       27.89953232       3.57144809      36.10865402
C       28.35638237       3.66472459      34.64286804
O       29.59500885       4.36983871      34.76576996
C       30.34975624       4.44504356      33.55482864
C       29.80260468       5.54169416      32.64127731
O       30.17086411       6.78810883      33.24794006
C       29.41196060       7.92020035      32.81318283
C       27.97086906       7.98751497      33.36577606
O       27.53221321       9.28007793      32.94396973
C       26.31382179       9.77185345      33.53738785
C       26.62582016      10.36500168      34.92183685
O       25.47094536      11.16168499      35.29015350
C       25.51188278      11.71701622      36.58945084
H       24.60320663       3.25976253      36.25933075
H       25.57898521       4.68602562      36.63453293
H       25.31776428       4.19807529      34.91128159
H       27.85877419       4.55488348      36.60626602
H       28.60478401       2.94014215      36.68277359
H       27.58843231       4.19190073      34.04830551
H       28.49566460       2.65611172      34.20694733
H       31.38640404       4.67718744      33.85197449
H       30.30911636       3.49012876      33.00374603
H       28.70901489       5.45175219      32.53522873
H       30.23004341       5.41928720      31.62142181
H       29.95223236       8.81456089      33.16207123
H       29.37495232       7.95463133      31.70424652
H       27.94137573       7.87040377      34.46607208
H       27.32141685       7.20668554      32.91761780
H       25.52886772       8.99401093      33.60245132
H       25.94046593      10.55479717      32.85345840
H       27.51919746      11.00842857      34.87792206
H       26.78126144       9.57496357      35.67824173
H       24.63442993      12.37315083      36.69743729
H       26.42342567      12.31612492      36.74396896
H       25.43653107      10.94153404      37.37786484
C       33.35853577      35.39596558      25.79749107
O       34.39601517      35.14636612      26.78478622
C       34.52274704      33.75744247      27.17644501
C       33.55274200      33.45964432      28.34277916
O       33.81361008      32.08885574      28.65131569
C       33.23873901      31.61069298      29.85576820
C       31.78440475      31.17059708      29.62257576
O       31.77250671      30.24930191      28.52504158
C       30.46514702      29.86617088      28.08752823
C       30.04549026      30.65211105      26.85395432
O       28.78112793      30.06955910      26.51773834
C       28.11148834      30.74330711      25.45576477
C       28.44360924      30.11690903      24.10465813
O       27.57938766      30.83522224      23.20891190
C       27.65891838      30.32069778      21.88967323
H       33.01700592      36.42863083      25.93817329
H       33.76233292      35.26022720      24.78101730
H       32.50194931      34.71211243      25.91296768
H       34.33628082      33.09267044      26.31679535
H       35.55366516      33.61646271      27.52949333
H       32.50327682      33.61168671      28.02812386
H       33.74494553      34.12514877      29.20611763
H       33.86191940      30.75132179      30.17256737
H       33.25649643      32.37335205      30.66456795
H       31.15805054      32.04924774      29.38560486
H       31.37658691      30.71748543      30.54447937
H       30.46800232      28.79111862      27.85923004
H       29.70576668      29.99748039      28.88383102
H       30.76029778      30.54792976      26.02025414
H       29.92864227      31.72433662      27.09676170
H       28.34675789      31.82462692      25.45490265
H       27.02924156      30.65725327      25.65972900
H       28.21261597      29.03837013      24.08834076
H       29.50478363      30.27370644      23.84130669
H       26.98222923      30.90225029      21.25975800
H       27.32707214      29.27419090      21.84340477
H       28.68058586      30.39810944      21.49328804
C       25.15726662      27.39995003      37.33626938
O       26.54009438      27.73475647      37.22784424
C       26.87284279      29.03040695      36.69927597
C       26.91027832      28.99760246      35.15689850
O       27.70126343      30.15526772      34.86100388
C       27.99659538      30.33253670      33.47330856
C       26.84793282      30.99510384      32.71063614
O       26.49608421      32.17545319      33.45377731
C       25.23135948      32.76558685      33.16822433
C       24.07112312      31.92175674      33.70528412
O       22.94267464      32.79726028      33.64760208
C       21.68744469      32.16701508      33.87185669
C       20.86855698      33.04339600      34.81332397
O       19.81537437      32.17256546      35.25624847
C       19.00809288      32.77422714      36.25184631
H       25.03008842      26.32967377      37.11194611
H       24.77248192      27.57675362      38.35690308
H       24.53202438      27.96950150      36.63151932
H       26.18606186      29.80333519      37.08861160
H       27.87637138      29.26973152      37.08061981
H       25.90142059      29.05648041      34.71566772
H       27.38423920      28.07118034      34.78733826
H       28.91396523      30.94598389      33.41359329
H       28.20112610      29.36801529      32.97518158
H       25.99195671      30.32060432      32.55287552
H       27.21426392      31.27117729      31.70495796
H       25.22543907      33.74260712      33.67681885
H       25.07970428      32.94176102      32.08288193
H       24.27237511      31.59225845      34.74453735
H       23.91783905      31.03425789      33.06351089
H       21.78919029      31.16166496      34.31697083
H       21.15833282      32.00411224      32.91233826
H       20.42638588      33.92044830      34.30200958
H       21.45406151      33.40273666      35.67617416
H       18.33261299      32.02165985      36.67892456
H       18.40050697      33.58970642      35.82654190
H       19.61940002      33.19163895      37.06700897
C        4.65358543      18.19737434      33.50714493
O        5.04595089      17.02140808      32.81877518
C        6.40158510      16.92887306      32.35270691
C        6.57347679      17.58267212      30.98488235
O        8.00209045      17.49525261      30.80437469
C        8.45101070      18.00642586      29.53857613
C        8.28727818      19.52656174      29.47462082
O        9.17444706      20.06304169      30.46963310
C        9.16940689      21.49090385      30.53550529
C        8.05947971      21.98984337      31.46719742
O        8.31163120      23.40705681      31.56313515
C        7.36127663      24.13764763      32.33487320
C        7.96004820      24.35232925      33.72061539
O        6.96261215      25.01146317      34.50703430
C        7.34043169      25.17296028      35.85631943
H        3.62893963      18.01576996      33.86341476
H        5.29536581      18.40674782      34.38076401
H        4.62294292      19.07686806      32.84789658
H        7.09315062      17.35365105      33.09761810
H        6.62132645      15.85119915      32.26159286
H        6.18970871      18.61651802      31.00570107
H        6.01774168      17.04037285      30.19814301
H        9.50933075      17.71581268      29.42276573
H        7.91745281      17.51506805      28.70188141
H        7.23530674      19.82297897      29.62743187
H        8.57473564      19.85395432      28.45803452
H       10.15288353      21.80021095      30.93004990
H        9.04907417      21.92938423      29.52407074
H        8.11176109      21.50205040      32.45775986
H        7.06058359      21.81203079      31.02555466
H        6.40986156      23.58947754      32.42213058
H        7.14227533      25.09679413      31.83377266
H        8.88311005      24.95901680      33.65742874
H        8.20804596      23.36485481      34.14485168
H        6.55917549      25.73493958      36.38574600
H        8.29018021      25.72217178      35.96240997
H        7.44018745      24.20672226      36.38029480
C       19.45576859      25.17407990      25.18141556
O       20.41081429      24.94444084      26.21009827
C       20.87908745      26.13112068      26.84758568
C       21.99624825      26.80775833      26.02684784
O       22.22941780      27.98096466      26.83230972
C       23.23870850      28.85585785      26.32272339
C       22.79950523      29.57633972      25.02994728
O       21.53045464      30.17501450      25.30978394
C       20.87155342      30.67275047      24.13295364
C       19.90187645      29.65281105      23.51818848
O       19.38520050      30.34904671      22.37254143
C       18.49822998      29.62440109      21.51228714
C       17.07538033      29.65878296      22.06961823
O       16.23762131      29.18681335      20.96535301
C       14.88827705      28.99857712      21.35870743
H       19.16135979      24.19453812      24.77184296
H       18.52795410      25.63828850      25.57476616
H       19.83119965      25.78962708      24.34773445
H       20.05427361      26.85059166      26.99269676
H       21.26290131      25.86662483      27.85365105
H       21.61432266      27.04372597      25.01323509
H       22.89096069      26.16241646      25.93023109
H       23.46972656      29.57006264      27.13263130
H       24.15537453      28.28006363      26.08669090
H       22.73187256      28.87562180      24.17631531
H       23.55379677      30.34557724      24.78108978
H       20.31223679      31.58058548      24.42583656
H       21.60557747      30.99421120      23.36949539
H       19.10408401      29.39846611      24.24062347
H       20.41377831      28.71934700      23.22408104
H       18.83669281      28.59596634      21.29993248
H       18.48139954      30.16699982      20.55063629
H       16.76510048      30.69068527      22.33060646
H       16.92279625      29.00641251      22.94981384
H       14.34619522      28.51993942      20.53244019
H       14.38793564      29.95695305      21.58523178
H       14.79447651      28.33920097      22.24282074
C        6.35186625      22.59372139       1.41635001
O        6.56692696      21.25153732       0.98019725
C        7.23428059      20.42738724       1.94813967
C        8.74607372      20.72045517       1.91264558
O        9.42013741      19.68750763       2.64563751
C       10.67332745      19.29165649       2.08935761
C       11.72035217      20.39371872       2.18525767
O       12.02800369      20.65176010       3.56422949
C       12.69565487      21.89578247       3.75805163
C       11.74310017      23.08484268       3.61844420
O       12.46864796      24.15754318       4.23476315
C       11.75639725      25.39514732       4.31145430
C       10.86716461      25.43539047       5.55508661
O       10.30123997      26.76140022       5.59467983
C        9.47635174      27.07918739       6.70552731
H        5.72418404      23.06528091       0.64727217
H        5.82141972      22.62945557       2.38241935
H        7.27330017      23.18247604       1.50821853
H        6.81134462      20.56263351       2.95718265
H        7.04161787      19.38812256       1.64015031
H        8.95134926      21.71409798       2.35494018
H        9.03371525      20.72080612       0.84553760
H       11.00240993      18.41021919       2.65636730
H       10.55241394      18.97839546       1.03168130
H       11.38486481      21.30138016       1.65413880
H       12.62379169      19.99485016       1.66906166
H       13.10016632      21.89928627       4.78237772
H       13.56289101      21.99628448       3.06831479
H       10.77946949      22.87511253       4.11990404
H       11.50764561      23.31795120       2.56086707
H       11.12551975      25.53389740       3.41398764
H       12.49584579      26.20780945       4.36660433
H       11.43730164      25.26880264       6.47943640
H       10.05366993      24.69754601       5.48233223
H        9.00742340      28.01566887       6.36346674
H        9.99426746      27.35898972       7.63348627
H        8.73609066      26.28419304       6.90660763
C        6.54923868       9.97355938      18.59626007
O        5.93610668      10.30433273      17.34552574
C        5.39275646      11.63670158      17.25426292
C        3.86909866      11.58533764      17.35068512
O        3.51941514      12.97354984      17.41111374
C        2.17786980      13.32712269      17.70082474
C        1.85539448      13.26022243      19.21397972
O        2.83368230      14.04712772      19.88094330
C        2.97435951      13.97591209      21.30498886
C        4.26478767      13.20552063      21.62580872
O        4.39295387      13.30481529      23.04491615
C        5.58523178      12.74006271      23.60149193
C        6.58742332      13.86550808      23.84164429
O        7.55773544      13.33870888      24.75901604
C        8.61180592      14.28035831      24.93858337
H        6.97140265       8.95898533      18.49658775
H        7.35360289      10.68369675      18.85221100
H        5.83149147       9.96047020      19.43904877
H        5.77520990      12.31023788      18.04130173
H        5.66820383      12.06719112      16.27465248
H        3.55417728      11.04881668      18.25951958
H        3.42319250      11.09336853      16.46603584
H        2.05363917      14.37764549      17.38608170
H        1.45248520      12.72571087      17.12347794
H        1.86997807      12.21393490      19.56773567
H        0.83498883      13.66469288      19.37221146
H        3.05155087      15.00668335      21.69590950
H        2.09284687      13.51856613      21.78468704
H        5.10481644      13.64867401      21.06344795
H        4.16921902      12.15632725      21.29389572
H        6.01017761      11.95080948      22.95526123
H        5.33230639      12.28699207      24.57653427
H        6.07255983      14.73871613      24.28925514
H        7.04812670      14.16745663      22.88065147
H        9.36326504      13.86552429      25.62430573
H        8.23233891      15.22391701      25.37025261
H        9.07758808      14.53334808      23.96657944
C       34.60721207       2.29236174      13.10785007
O       35.85239410       2.85741425      12.75224876
C       36.23958588       4.01957893      13.48730755
C       35.85053635       5.27688503      12.71065426
O       36.34453201       6.34484386      13.52842426
C       36.33374405       7.60639095      12.88620090
C       34.92095184       8.16668034      12.64211941
O       34.31512833       8.42459393      13.93003082
C       32.98104095       8.91745377      13.80036831
C       32.02363205       7.73317194      13.63937092
O       30.71720695       8.32383442      13.56132793
C       29.66524887       7.35326862      13.51506233
C       29.40900803       6.86062145      14.93975735
O       28.28806686       5.94711399      14.85851860
C       27.95033264       5.47422743      16.15703011
H       34.57986069       1.27246809      12.69913387
H       34.49686050       2.22985482      14.20510387
H       33.74325943       2.83606791      12.69733143
H       35.80617523       4.05196285      14.49841785
H       37.33115387       3.99711585      13.61048889
H       34.75344849       5.33129215      12.58012581
H       36.31001663       5.26225519      11.70578575
H       36.89284515       8.29028034      13.54145241
H       36.83440781       7.55089378      11.90035534
H       34.31099701       7.49221039      12.01987267
H       35.01330566       9.11968422      12.09940624
H       32.72168350       9.49341488      14.70525932
H       32.86203766       9.58414459      12.92833900
H       32.11767578       7.05482244      14.50469875
H       32.22514725       7.16804790      12.71351528
H       29.89809990       6.51826191      12.82920265
H       28.75909424       7.84684658      13.12601948
H       29.16404724       7.68963957      15.63125420
H       30.29094315       6.34273958      15.34847450
H       26.98903656       4.94984150      16.08256531
H       27.81648445       6.28209543      16.89101791
H       28.69625473       4.76685953      16.55486679
C       18.75551987      34.41630173       6.93377781
O       19.73774910      34.80603409       5.97872686
C       19.33172417      35.80713654       5.03894043
C       18.85611725      35.13780975       3.74238181
O       18.58002663      36.23287201       2.86714983
C       18.13956833      35.84574509       1.57499349
C       16.68950272      35.33588791       1.55152237
O       15.89274120      36.40975189       2.07368493
C       14.53889751      36.09201431       2.37342286
C       14.43724251      35.66042709       3.84987330
O       13.03449345      35.62849045       4.12382507
C       12.71844101      35.23066711       5.45580816
C       12.38752556      36.46179199       6.31521940
O       12.12939072      35.95882797       7.62855291
C       11.80542469      36.95882416       8.57649899
H       19.27189445      33.95990372       7.78805828
H       18.17211151      35.29197693       7.27141571
H       18.05716324      33.67329407       6.52336073
H       18.55098915      36.45824814       5.47022057
H       20.21066666      36.43440247       4.82630682
H       17.95553970      34.53177261       3.92577958
H       19.64991379      34.48944092       3.32993746
H       18.18528366      36.74663544       0.94714266
H       18.79576874      35.07163239       1.13791728
H       16.57713890      34.42435837       2.15231609
H       16.41176033      35.08990479       0.50902206
H       13.94722271      37.00914764       2.23696256
H       14.12656689      35.33198929       1.68830919
H       14.96484280      36.38089752       4.49851227
H       14.89164925      34.66767883       3.97474885
H       13.53948402      34.65395737       5.91062641
H       11.84356880      34.56525803       5.42214108
H       11.49861622      36.96319580       5.89311552
H       13.22492695      37.17667389       6.33807039
H       11.79733372      36.49354172       9.57439518
H       10.80347252      37.37645721       8.39388561
H       12.54510403      37.77739334       8.57110882
C        3.53766894      23.65437508      31.69666290
O        2.32302785      23.80703163      30.97414017
C        2.39874840      24.05963326      29.55942154
C        2.14535999      25.55008698      29.32954025
O        1.86707103      25.66860771      27.93385506
C        1.21866488      26.87650108      27.55960846
C        2.15800285      28.08978844      27.66847038
O        3.33184457      27.66655350      26.98493958
C        4.44593859      28.56636620      27.06439590
C        5.63248634      27.68973732      27.46804237
O        6.79420519      28.51172638      27.39095497
C        7.86405849      28.12667465      28.26368904
C        8.84526539      27.20543861      27.53266716
O        9.87277603      26.95633316      28.52668381
C       10.63097191      25.76230049      28.30674744
H        3.31571841      23.09160042      32.61426926
H        4.27377272      23.05984497      31.13898849
H        4.00301313      24.61557770      31.95874214
H        3.35283875      23.72806931      29.11687851
H        1.59556174      23.49042702      29.06947327
H        3.00838375      26.17153358      29.63117027
H        1.27586818      25.87853432      29.94111252
H        0.89560252      26.74307632      26.51189804
H        0.30757484      27.04994392      28.16277695
H        2.36959338      28.38965416      28.71676064
H        1.67812681      28.95510292      27.16659546
H        4.60517550      29.03319740      26.07583809
H        4.26879215      29.37319946      27.79649734
H        5.69577980      26.81465721      26.78860855
H        5.45218658      27.31210709      28.49390221
H        7.46692467      27.62115669      29.15923309
H        8.35963440      29.05290413      28.60280418
H        9.26503468      27.67710686      26.62692070
H        8.35587120      26.27137947      27.20292473
H       11.16738319      25.52873421      29.23675919
H       11.33606529      25.87623978      27.45887375
H        9.97926712      24.90567589      28.05238342
C        2.17592573      13.77336025      33.04997635
O        3.13918948      13.45653725      34.04449844
C        4.48915672      13.79095459      33.71254730
C        5.08704424      12.69359398      32.80768585
O        6.35869455      13.21745491      32.43058395
C        7.19551182      12.30432701      31.72713089
C        6.77999353      12.13689423      30.25597954
O        6.93580389      13.42142296      29.64318657
C        6.47682619      13.52114868      28.28369522
C        5.14841318      14.28860760      28.24338722
O        4.81779051      14.30327034      26.84913445
C        3.52624273      14.80694962      26.49833870
C        3.66418242      16.27723694      26.14687157
O        2.40723658      16.62940979      25.54785156
C        2.33744907      18.03831100      25.42092705
H        1.19620371      13.55328369      33.49141312
H        2.22654533      14.83379364      32.77235413
H        2.26655245      13.15844631      32.14550400
H        4.53858614      14.76288414      33.20310974
H        5.04885244      13.86818981      34.66238022
H        4.43135405      12.53813744      31.93087196
H        5.16676569      11.74480438      33.36859512
H        8.22026730      12.71369362      31.78045845
H        7.17936373      11.31321049      32.21720123
H        5.73317289      11.80437183      30.17565155
H        7.41947842      11.37683582      29.76612091
H        7.21890640      14.08262730      27.68904495
H        6.36732912      12.54189873      27.78552818
H        5.27621412      15.30373573      28.65719604
H        4.37231302      13.77811337      28.84241676
H        2.77505755      14.67649746      27.29480362
H        3.18260098      14.24203014      25.61569786
H        4.48584318      16.41340828      25.41992569
H        3.88222790      16.89916039      27.03567123
H        1.39457202      18.28207207      24.91164398
H        3.18506169      18.42668533      24.83294296
H        2.32425189      18.53836250      26.40478325
C       29.63400459      12.21447468       2.30371261
O       30.93562317      12.74076176       2.07561493
C       32.04225922      12.12199211       2.74685931
C       31.87968254      12.38191986       4.25201750
O       33.11681747      12.10172367       4.91746473
C       33.09531784      12.37486172       6.30498409
C       32.21655655      11.41122055       7.13136911
O       32.66177368      10.07486248       6.83811474
C       31.80254364       9.03132725       7.28576469
C       30.87225342       8.61856461       6.12961054
O       30.25187492       7.40662766       6.59871292
C       29.11585236       7.00505543       5.84309721
C       29.38084030       5.79497480       4.94527483
O       28.15921402       5.68242264       4.20807457
C       28.12358093       4.59545851       3.30825162
H       28.94389725      12.86309052       1.74590492
H       29.52543449      11.19434357       1.90623891
H       29.32142258      12.22970009       3.36049485
H       32.11670685      11.05376911       2.47956467
H       32.94358063      12.62909603       2.36542130
H       31.05618858      11.75960732       4.63824463
H       31.58629990      13.43721771       4.40544891
H       34.13964844      12.31895542       6.66197157
H       32.72279358      13.39715767       6.52515030
H       31.15105438      11.53791523       6.87778282
H       32.31440735      11.65766335       8.20259666
H       32.41862488       8.16832924       7.58272123
H       31.22279358       9.33830166       8.17668819
H       31.41823959       8.44498730       5.18636179
H       30.10363388       9.38742733       5.94035149
H       28.74988747       7.82056856       5.19772816
H       28.30270576       6.75369263       6.54819775
H       29.57297516       4.87851715       5.52199650
H       30.23397064       5.95711994       4.26074553
H       27.15006256       4.64208794       2.79329991
H       28.21501350       3.62428737       3.83055115
H       28.92130089       4.65394354       2.54168558
C       30.12884140      20.88552475       6.35885429
O       30.05885315      19.51592827       6.72175312
C       31.03283501      18.66328621       6.09937859
C       30.60999298      18.23425865       4.68220901
O       31.56583214      17.21833992       4.32021141
C       31.31695366      16.53078651       3.09428644
C       31.87949562      17.23538017       1.85420179
O       33.26020050      17.49592018       2.13733816
C       33.83647156      18.54273224       1.36258185
C       33.46756744      19.90530396       1.97694516
O       34.32159042      20.81855202       1.28067482
C       34.34114838      22.15290451       1.78432739
C       35.62084198      22.35282898       2.59355474
O       35.67413330      23.74106598       2.92943907
C       36.76169205      24.02118683       3.79005456
H       29.27296448      21.37008667       6.85119963
H       31.06269073      21.33484077       6.72728109
H       30.01338768      21.03976440       5.27327013
H       32.04276276      19.11186409       6.13158607
H       31.06801224      17.76835823       6.74003458
H       30.62657928      19.08728600       3.97732782
H       29.58772850      17.82756424       4.72617388
H       31.78986549      15.54024220       3.19579434
H       30.23604012      16.35221100       2.95080566
H       31.31660271      18.15928841       1.64041924
H       31.78118515      16.56093597       0.98089451
H       34.92984390      18.41923714       1.43444788
H       33.57014847      18.46493721       0.29253072
H       33.65691376      19.90335274       3.06713510
H       32.40196228      20.14451599       1.80743349
H       33.45268250      22.38310432       2.39543104
H       34.33456039      22.85072708       0.92914587
H       36.49202347      22.04844093       1.98497999
H       35.60908127      21.73651123       3.50710392
H       36.71692657      25.08486748       4.05748320
H       37.73644638      23.79413033       3.32565689
H       36.69802856      23.44325256       4.72549200
C       19.54850960      28.61859512      28.92369461
O       19.30241585      28.77631950      30.32886887
C       20.44673347      29.31345749      31.02470016
C       20.81363297      28.38850403      32.17181396
O       21.96000862      28.99899101      32.77955627
C       22.51721573      28.27798653      33.87336349
C       23.47870827      27.19747353      33.35097504
O       24.47003937      27.86499977      32.55441284
C       25.35520554      26.99552155      31.82060051
C       24.91592026      26.90530205      30.36090088
O       25.91591835      26.10023308      29.70520210
C       25.56997490      25.60425568      28.40944672
C       26.08041000      26.53625870      27.30928230
O       25.56018257      25.92433548      26.09941101
C       26.04822731      26.53215599      24.89679146
H       18.62468338      28.21693802      28.47801399
H       19.81650543      29.56486130      28.43321037
H       20.35778236      27.89821815      28.75685120
H       21.28707886      29.39754677      30.32526207
H       20.22360611      30.32495117      31.40363312
H       21.04070663      27.39196396      31.76528549
H       19.99386024      28.28649712      32.90429688
H       23.04117584      29.02737045      34.49568939
H       21.70017052      27.81690979      34.46004105
H       22.94462395      26.45014954      32.73875427
H       23.94030762      26.67400551      34.20757675
H       26.37143135      27.42530632      31.89039230
H       25.34722900      25.97197723      32.24260712
H       24.83282661      27.91389275      29.92050743
H       23.91652298      26.43486595      30.29269409
H       24.47901535      25.46770477      28.28198814
H       26.03907967      24.61149025      28.26416779
H       27.18321991      26.57856750      27.30704880
H       25.68325233      27.55860710      27.45554733
H       25.50713921      26.09278488      24.04640579
H       27.12574005      26.34065056      24.76586151
H       25.88555908      27.62437820      24.90128326
C       19.11806488      35.96651840      15.25480843
O       17.87451553      35.90735245      14.56571770
C       16.70639801      36.06632996      15.38352966
C       16.08608627      34.68802261      15.59783363
O       14.87488461      34.92843628      16.33416557
C       14.13434982      33.75400543      16.60385895
C       14.78449631      32.95005417      17.73752975
O       14.82260799      33.75383377      18.91262436
C       15.64829826      33.18456268      19.92401314
C       17.03983116      33.82888412      19.85192490
O       17.76057243      33.18516159      20.90019226
C       19.12376785      33.55423737      21.10738945
C       19.23342514      34.80653381      21.98088455
O       20.62826538      34.87278366      22.30480194
C       20.92451668      35.94728088      23.18251610
H       19.90707016      36.05817413      14.49319935
H       19.16913986      36.83800125      15.92640781
H       19.30003738      35.05010605      15.84070396
H       16.91925430      36.58641815      16.33596611
H       15.97408867      36.68576431      14.84274960
H       16.77855492      34.04083252      16.15794373
H       15.88980389      34.20365906      14.62055492
H       13.11494446      34.07706070      16.89436913
H       14.01584911      33.11793518      15.69749546
H       15.79293919      32.61308670      17.43776321
H       14.15978718      32.04684448      17.88726044
H       15.18824387      33.36608505      20.91317177
H       15.72586060      32.08836746      19.80269814
H       16.93822670      34.92078400      19.98155975
H       17.48982239      33.61623383      18.86151314
H       19.65422821      33.67594910      20.14354515
H       19.59135818      32.70252609      21.62647629
H       18.61534882      34.71230698      22.89606857
H       18.90409470      35.71698761      21.44183350
H       21.99032211      35.91838074      23.43707848
H       20.34188080      35.88386154      24.11299133
H       20.68941879      36.91751099      22.71422005
C       21.47638512      10.65944958      11.46078110
O       22.49038696      11.61047745      11.14490891
C       22.98393059      12.41666603      12.25028038
C       22.09219360      13.63980579      12.44512844
O       22.72789001      14.41391563      13.47720528
C       22.26396561      15.74908924      13.63892460
C       20.97740936      15.86362553      14.46959114
O       21.25189590      15.35352135      15.79480267
C       20.05050278      15.09585857      16.53480148
C       19.44340897      13.77361107      16.06045151
O       18.37725830      13.55290318      17.00797081
C       17.60991287      12.39432526      16.67512512
C       18.28688431      11.18924046      17.32977676
O       17.52896690      10.03229141      16.88918114
C       17.99020576       8.86488342      17.55608177
H       21.27421951      10.05633450      10.56396103
H       21.78819847       9.97516155      12.26525688
H       20.52209282      11.12467957      11.75844002
H       23.03761864      11.82848454      13.18124008
H       24.00593185      12.73193836      11.97671700
H       21.06489944      13.35136127      12.73053455
H       22.03946686      14.19816017      11.49251366
H       23.08917999      16.30957603      14.11237049
H       22.03182220      16.18717957      12.64300823
H       20.16396141      15.30387688      13.97747231
H       20.65002060      16.91773605      14.54644394
H       20.30452728      15.02915096      17.60548973
H       19.31174660      15.91602325      16.44076157
H       20.19484138      12.96324730      16.07742119
H       19.02878189      13.81632233      15.03070545
H       17.49752808      12.26878071      15.58001995
H       16.59018326      12.54175377      17.07535553
H       18.25988770      11.28339386      18.43468475
H       19.34393311      11.07714653      17.02122307
H       17.26711464       8.06156921      17.35824203
H       18.06027222       9.02187920      18.64774132
H       18.98225212       8.54985714      17.18884087
C        9.05940628      25.17812920      21.15141296
O        8.18670845      25.60116768      20.06889725
C        6.80037022      25.25582695      20.17989731
C        6.64739275      23.74720192      19.95558548
O        5.24096060      23.55528450      19.68469810
C        4.87524223      22.21295738      19.40373421
C        4.90587568      21.34680939      20.67584991
O        4.12461996      22.02347374      21.66034508
C        4.17582273      21.37739754      22.94504547
C        5.35545588      21.94012070      23.76702881
O        5.21210003      21.33300400      25.05344582
C        6.23162746      21.71806335      25.98960686
C        5.78127623      22.90931511      26.82353592
O        6.78863525      23.02662659      27.85515785
C        6.60982370      24.18552589      28.66043091
H       10.00640583      24.82983017      20.72584915
H        9.25349045      26.00706673      21.84841537
H        8.61992359      24.33737373      21.71896362
H        6.32864237      25.59267616      21.12457275
H        6.28455782      25.79151154      19.36575317
H        6.97738075      23.18080711      20.84401131
H        7.24802208      23.40525246      19.08876610
H        3.84528089      22.27956390      19.00177193
H        5.49522781      21.75533295      18.59437752
H        5.93374348      21.14795113      21.01424217
H        4.45557499      20.37343407      20.39710236
H        3.22824597      21.60543060      23.46368980
H        4.23736143      20.27862358      22.83230591
H        5.28358030      23.04837418      23.79918098
H        6.32376575      21.66498375      23.29517555
H        7.19022655      21.92883682      25.47700882
H        6.39554691      20.85262108      26.65552902
H        4.78282118      22.72146797      27.25780106
H        5.71225977      23.82797623      26.20815086
H        7.49773884      24.35375595      29.29129219
H        5.72678471      24.09247589      29.32338142
H        6.44609451      25.06411743      28.00192451
C       22.43346024       1.06969166      20.45111084
O       23.15972710       1.56252170      19.32222366
C       22.71242523       2.84104729      18.84481812
C       21.50601959       2.59822822      17.94051743
O       21.02097321       3.88619590      17.54582214
C       19.95201302       3.81815577      16.59614754
C       18.66150093       3.22037888      17.17481422
O       18.27923012       3.99284530      18.31341171
C       17.06834221       3.53470516      18.92870903
C       17.41495323       2.64065742      20.13122940
O       16.21029282       1.90483737      20.41756248
C       16.42743683       0.92660230      21.43576050
C       16.48791885       1.63001931      22.80240250
O       16.21502113       0.64473981      23.80361748
C       16.24409866       1.26359141      25.08271599
H       22.86360550       0.09448779      20.70995903
H       22.49032021       1.74319005      21.32070160
H       21.36599159       0.90447050      20.23037720
H       22.46596718       3.52501845      19.67501450
H       23.54028320       3.27625346      18.26192093
H       20.73314285       2.05321240      18.50135612
H       21.79408836       2.00279856      17.05698395
H       19.73890877       4.85078192      16.28691101
H       20.26412964       3.24625468      15.69770241
H       18.82095528       2.15527821      17.40798950
H       17.88244820       3.26274705      16.38395309
H       16.47293091       4.40736151      19.24468422
H       16.44031334       2.98090744      18.20851898
H       17.74552727       3.23962259      20.99988937
H       18.22237778       1.94761622      19.84867096
H       17.33380890       0.32440913      21.23616600
H       15.57031250       0.23642842      21.40576935
H       15.72474384       2.42719102      22.83647728
H       17.47286606       2.09398460      22.99245262
H       16.24825287       0.48834810      25.86199951
H       15.35181522       1.89135766      25.25123405
H       17.13556099       1.89494467      25.22254944
C       13.74811077      20.33782196       7.93351698
O       13.53123951      18.94377708       7.83480072
C       14.49917603      18.20324135       7.06582403
C       14.31439686      18.27969551       5.55627871
O       15.22379017      17.27908707       5.07573509
C       15.28811455      17.06459236       3.68774629
C       15.86238003      18.27338982       2.94546342
O       17.07494926      18.65366554       3.60619521
C       17.48723221      19.99902916       3.36944151
C       17.03840637      20.94413567       4.48994875
O       17.89139748      22.08700371       4.30433416
C       17.73328400      23.18878174       5.21824121
C       18.98700905      23.22782898       6.07303429
O       18.94731331      24.38800049       6.92687321
C       20.10815048      24.41199684       7.76235628
H       12.83661652      20.72688866       8.43873787
H       14.66235161      20.56818581       8.52154922
H       13.81908035      20.83817863       6.94840765
H       15.52370644      18.51775742       7.34358597
H       14.37730503      17.15976906       7.38744450
H       14.53776646      19.29591560       5.18892241
H       13.27401543      18.04995155       5.26750326
H       15.93406010      16.18452835       3.51834869
H       14.29790878      16.83719635       3.24924731
H       15.10695076      19.08183479       2.93624473
H       16.04562187      17.97798157       1.89260519
H       18.58979225      20.01482201       3.31875014
H       17.13923073      20.35200310       2.37835979
H       17.17954063      20.47642708       5.48283052
H       15.97098351      21.22308731       4.39736700
H       16.82525063      23.07650757       5.83448076
H       17.61016655      24.11583328       4.63014507
H       19.88006783      23.25990105       5.42162275
H       19.06621361      22.31382561       6.69220543
H       19.90939903      25.06412697       8.62614632
H       20.98697281      24.78721237       7.21163559
H       20.32740784      23.39214706       8.13668251
C       11.41891861      21.06557465      20.90287971
O       10.19267654      20.92425537      20.17188072
C        9.02330685      20.72463417      20.99096680
C        8.74471664      19.23986435      21.18700600
O        7.38244343      19.23554230      21.70688820
C        6.91745472      17.94163704      22.09191132
C        7.51493311      17.54470444      23.44494820
O        7.21636820      18.56815147      24.37824440
C        7.87438965      18.36313438      25.62727165
C        9.18098736      19.17437744      25.66465759
O        9.96681118      18.59912300      26.72289467
C       11.29367638      19.12577820      26.81628036
C       11.28625202      20.39908791      27.65351868
O       12.61672974      20.97421074      27.61050987
C       12.58330727      22.27319717      28.20392609
H       12.19226170      21.36379814      20.17863274
H       11.34597015      21.84638214      21.68101692
H       11.70277977      20.09312057      21.37235260
H        9.07434940      21.28250694      21.94930458
H        8.18298626      21.16202545      20.41738510
H        9.45829296      18.79419327      21.90194893
H        8.80653572      18.66978836      20.23830605
H        5.81239748      18.01033401      22.11675262
H        7.14388037      17.18267059      21.30957413
H        8.60266209      17.39177513      23.33722878
H        7.04814053      16.58963394      23.74891281
H        7.17633533      18.65551567      26.43495560
H        8.08738232      17.28544426      25.77225304
H        8.95124435      20.24816513      25.81486130
H        9.69123554      19.08703613      24.68491936
H       11.71672535      19.27640724      25.79578018
H       11.89063835      18.34426308      27.30800056
H       11.00426483      20.18351364      28.70168304
H       10.55350304      21.11920166      27.24244308
H       13.60260868      22.67700577      28.24094009
H       12.18127537      22.22409439      29.22985458
H       11.91709232      22.94406700      27.63128281
C       13.17803955       7.87308979      16.71796799
O       13.95775127       8.67890167      15.83475113
C       13.27637196       9.79149342      15.22423077
C       12.55105686       9.32525349      13.95794201
O       11.86331749      10.48614311      13.49613762
C       11.18064976      10.33095264      12.26388454
C       10.13832855       9.20883369      12.21449757
O        9.23271084       9.42557240      13.31200504
C        8.14324665       8.51262093      13.34690189
C        8.24003506       7.71825171      14.66073036
O        7.14332962       6.79033947      14.60309887
C        7.09123182       5.94445181      15.75239658
C        6.05315351       6.49336004      16.74299812
O        6.26580238       5.73814535      17.95754814
C        5.38356733       6.10906506      19.00715256
H       13.84490204       7.41038990      17.45984650
H       12.41251659       8.45777130      17.25826454
H       12.63993454       7.07691145      16.17716026
H       12.56360626      10.26390839      15.92853546
H       14.04189205      10.54658794      14.97882938
H       11.84912109       8.51001930      14.19592476
H       13.26522064       8.95747280      13.19816494
H       10.66621113      11.28870869      12.08364677
H       11.88630390      10.15994358      11.42774391
H       10.59940815       8.20841026      12.26128769
H        9.59227848       9.27603626      11.25434399
H        7.18799114       9.07375526      13.31892967
H        8.11106014       7.83016968      12.47944164
H        8.18046188       8.38493729      15.54359150
H        9.20572281       7.18439579      14.70063114
H        8.06063461       5.86268425      16.26814079
H        6.81599998       4.93357706      15.41757870
H        5.02728224       6.33156300      16.37215805
H        6.18903923       7.56475925      16.93618011
H        5.64287901       5.52516317      19.90237808
H        4.34241247       5.86554623      18.73582840
H        5.44298506       7.18507195      19.23674202
C       27.77607155      13.59626770      33.33293533
O       28.37561989      14.88969040      33.42938995
C       27.79507828      15.92635918      32.60928345
C       28.63343048      16.18906975      31.35567474
O       27.80840683      17.10614777      30.60802269
C       28.50657463      17.96577454      29.70524406
C       28.60818672      17.29165268      28.32897568
O       27.29972458      17.31696510      27.75990295
C       27.05887032      16.27914619      26.80912209
C       26.80813789      14.93584442      27.50732803
O       26.03506470      14.18678761      26.55345345
C       25.90410042      12.77215576      26.82234573
C       24.44065094      12.39361668      26.75879669
O       24.43296623      10.94044113      26.94338226
C       23.11278725      10.44570637      27.16191673
H       28.23732948      12.97350883      34.11321640
H       26.69241333      13.62559319      33.53419495
H       27.92380142      13.13028908      32.34266663
H       26.75928688      15.68114662      32.33012390
H       27.76156807      16.84311104      33.22050858
H       28.83181953      15.27413464      30.76347542
H       29.58918381      16.66641617      31.63400269
H       27.91867828      18.90249634      29.66829300
H       29.50385857      18.23322487      30.09629250
H       28.94658089      16.24911880      28.46022415
H       29.33241463      17.80783272      27.65507507
H       26.14523315      16.55488586      26.24770737
H       27.84136391      16.19376564      26.02418137
H       26.26866341      15.10686874      28.45852280
H       27.75379944      14.42106628      27.75166893
H       26.33382034      12.49628162      27.80434608
H       26.45093346      12.22396755      26.03442955
H       23.94506264      12.65293694      25.79906464
H       23.84086990      12.87395287      27.55316925
H       23.11628151       9.35533428      26.97673988
H       22.38581467      10.91125393      26.46367073
H       22.75813675      10.63755131      28.19339752
C       20.88718987      31.37389755       4.21689796
O       20.29106903      31.35357857       2.90943003
C       18.86085320      31.38907623       2.85899830
C       18.34407234      30.00168419       2.49158239
O       16.92895699      30.19464493       2.34475446
C       16.23122787      29.02533531       1.97034252
C       16.08177185      28.06901932       3.15204120
O       15.56208897      28.81550980       4.27201653
C       15.52926731      28.04704475       5.47405958
C       16.79871178      28.33909607       6.28678179
O       16.65905952      27.58724785       7.50432348
C       17.74729347      27.78183937       8.41695595
C       17.45442581      29.00270653       9.28662300
O       18.52937126      29.20767593      10.22705364
C       18.21443176      30.32400322      11.07604313
H       21.96476936      31.56284332       4.11178255
H       20.45165634      32.14966202       4.86544561
H       20.76129532      30.40678787       4.73154688
H       18.41565323      31.75198936       3.80507207
H       18.55203819      32.07800674       2.06058478
H       18.57977104      29.28399849       3.29123378
H       18.78385735      29.63234901       1.54658926
H       15.23048782      29.34905052       1.64570856
H       16.69963455      28.49830246       1.11638367
H       17.04628563      27.60367203       3.40083027
H       15.38016701      27.27394485       2.84195924
H       14.63867950      28.35272408       6.05145836
H       15.39464283      26.97286797       5.26100206
H       16.88396072      29.42410088       6.47271824
H       17.69235802      28.00697708       5.73017883
H       18.70660400      27.86611748       7.86944008
H       17.80580711      26.85823441       9.02526665
H       16.50401306      28.84389496       9.82647324
H       17.32002068      29.90213013       8.66244411
H       19.07645988      30.57074738      11.71591949
H       17.36479759      30.08953285      11.74041653
H       17.93497276      31.19980049      10.46242237
C       34.33256912      30.21572304       5.75463963
O       34.53602219      29.32484436       4.66011572
C       33.63560867      29.42803955       3.55421996
C       32.21639633      28.92081261       3.89649105
O       31.59847260      28.64195442       2.63906932
C       30.26553917      28.15345192       2.69600773
C       29.31758881      29.06896973       3.49575138
O       29.40968513      30.36591721       2.87801909
C       28.71973610      31.40011597       3.57371068
C       29.64246368      32.15851593       4.53169298
O       28.80433273      33.16638947       5.11200905
C       29.42253494      34.02478790       6.03803587
C       30.14843941      35.19189453       5.36273575
O       31.08645248      35.60341263       6.36405420
C       31.73244286      36.83100891       6.06804085
H       35.14144897      30.06669235       6.48623371
H       34.35059738      31.27479362       5.41532421
H       33.36599731      30.01796722       6.25969410
H       33.56533432      30.46557045       3.18447208
H       34.04106140      28.79908371       2.74876142
H       31.67655754      29.70380211       4.45628309
H       32.28105164      28.02746010       4.53544331
H       29.90851212      28.09032440       1.65608037
H       30.22434998      27.13269806       3.12333131
H       29.58042145      29.12453270       4.56770134
H       28.28528976      28.69210815       3.42242503
H       28.32227516      32.10147476       2.82297373
H       27.85521507      31.02162170       4.13921118
H       30.49153137      32.58266830       3.96687198
H       30.04153633      31.48531342       5.31063223
H       30.15937424      33.48980331       6.66848135
H       28.67344475      34.40818405       6.74665356
H       29.45722771      36.01723480       5.11628294
H       30.65192795      34.85971832       4.43988800
H       32.29960632      37.13151550       6.96107864
H       30.98649216      37.60541916       5.83850145
H       32.41771698      36.73917007       5.20831347
C       25.52892113      20.93925858      27.22412300
O       25.41990089      22.18654823      26.52106094
C       24.09778595      22.72472572      26.22781944
C       23.88623810      22.70914268      24.71112251
O       22.74371338      23.54330063      24.50376129
C       22.34298325      23.68032265      23.15077400
C       21.74337578      22.40649986      22.53977585
O       20.72032356      21.95765877      23.46096039
C       20.14551353      20.71630478      23.05930901
C       20.50802231      19.70952415      24.14860535
O       19.80290985      18.51105881      23.77300835
C       20.12798119      17.48860741      24.71996307
C       19.59988594      17.84951019      26.13381767
O       18.92195702      16.69635582      26.68277168
C       18.48634529      16.98521805      28.01420784
H       26.49698257      20.88555145      27.74296570
H       24.72218704      20.82121658      27.96824265
H       25.45259094      20.09035492      26.51949692
H       23.28984642      22.18170738      26.75044060
H       24.07948112      23.76695061      26.59222603
H       23.71447754      21.69180870      24.31952667
H       24.78016281      23.12430382      24.20798683
H       21.57376099      24.47630501      23.14295197
H       23.17800331      24.02729225      22.50809669
H       22.49550819      21.60960388      22.39900208
H       21.32321358      22.61995697      21.53459549
H       19.04183769      20.82364845      22.97627258
H       20.46816826      20.34892464      22.06484032
H       20.21912193      20.09149551      25.14869881
H       21.60340881      19.53695679      24.16768837
H       21.21721458      17.28805923      24.71204185
H       19.63208771      16.57233047      24.34975243
H       18.85365486      18.66736603      26.07847404
H       20.39399529      18.17185783      26.83837318
H       18.86331177      16.21349907      28.71535683
H       17.38880730      16.96403122      28.08670807
H       18.83251953      17.96767426      28.38034630
C       10.58923149      34.15809631      22.97917175
O       11.63036346      34.64648819      22.13912201
C       11.34387589      35.87157059      21.44374657
C       10.63872337      35.54627991      20.12560081
O       10.48561478      36.82043457      19.49676132
C        9.83825207      36.77268219      18.23787880
C        8.37322903      36.31601715      18.31727409
O        7.70549631      37.10597992      19.31565666
C        6.33443069      36.74759674      19.46013832
C        6.15076017      35.95804214      20.77430344
O        4.72764874      35.90154648      20.96831512
C        4.33665037      35.18191910      22.13080406
C        3.81838465      36.14781570      23.20988655
O        3.77033687      35.41723251      24.43719292
C        3.21275473      36.14982986      25.50949287
H       11.01894379      33.42493439      23.67526245
H       10.11488342      34.96686935      23.55795288
H        9.80205727      33.63982773      22.40490532
H       10.74541759      36.55802917      22.07199669
H       12.31163979      36.35429382      21.23020363
H        9.66118431      35.07559204      20.31832886
H       11.23558235      34.85497284      19.50351906
H        9.85748768      37.79069519      17.83053970
H       10.35578346      36.09572983      17.53042030
H        8.31665897      35.25144958      18.57416916
H        7.90592623      36.44495010      17.32450294
H        5.73907375      37.66966248      19.53379250
H        5.92186403      36.18965530      18.59761810
H        6.64752722      36.47027969      21.61412811
H        6.57309580      34.94580078      20.66177559
H        5.17485952      34.59562302      22.53594589
H        3.55691981      34.45304871      21.85196304
H        2.80256820      36.51702118      22.95995903
H        4.49856997      37.01299667      23.30413246
H        3.10504007      35.48223877      26.38027000
H        2.20202351      36.53585434      25.23503876
H        3.82616258      37.02427673      25.79973412
C       35.50682449      32.80719376      16.79915047
O       36.27878189      33.36254120      15.74334717
C       35.65584946      33.51482773      14.45977306
C       35.76835632      32.25305176      13.58841228
O       35.43988419      32.68724060      12.26295376
C       35.31449127      31.72306061      11.23584557
C       34.34379196      30.59115601      11.58732510
O       33.13810730      31.21010590      12.07551098
C       32.17597580      30.24766350      12.52790546
C       31.86174202      30.55619049      14.00783253
O       30.75591087      29.70426750      14.36053944
C       30.49595451      29.59339333      15.75577545
C       29.49627304      30.67573166      16.18803406
O       29.36162567      30.55031967      17.61564827
C       28.39735413      31.47324371      18.15574265
H       36.09169769      32.89900208      17.72565269
H       34.55521774      33.35585022      16.91907501
H       35.27792358      31.74172020      16.63190842
H       34.60318756      33.83860397      14.57258415
H       36.20782089      34.32062912      13.95341396
H       35.07886124      31.47694778      13.94470310
H       36.80194473      31.87318039      13.63254738
H       34.90675354      32.24593735      10.35239887
H       36.27705002      31.26509094      10.94494343
H       34.78881836      29.93023109      12.34937572
H       34.14581680      29.99493408      10.67986107
H       31.27392769      30.32073212      11.90656853
H       32.53841400      29.21583939      12.40611076
H       31.59799957      31.62309456      14.14705563
H       32.73817062      30.34975433      14.64942265
H       31.43325996      29.66930580      16.34362793
H       30.05568123      28.60106468      15.95100212
H       28.52019310      30.51626778      15.69370651
H       29.87184525      31.67949295      15.93510151
H       28.19462013      31.19153214      19.19342422
H       27.45229721      31.40884209      17.59181404
H       28.79380226      32.50138855      18.10944557
C        6.09543896      15.48897648       9.01214123
O        5.03852463      15.18418217       9.92633915
C        4.36044025      16.33397484      10.43467712
C        5.01275539      16.84923172      11.72121048
O        4.44572210      18.14656258      11.97389030
C        4.39667797      18.58209610      13.33390808
C        5.67075443      19.32968903      13.74927235
O        5.77069426      20.44948769      12.85676098
C        7.14490557      20.87167168      12.71922588
C        7.72757912      20.26464081      11.43759155
O        9.06908417      20.73207664      11.38158226
C        9.83372784      20.15232658      10.31660461
C        9.64288521      20.91710472       9.01657104
O       10.47445393      20.25859642       8.04378796
C       10.57754326      20.97711563       6.81483459
H        6.53588009      14.53747940       8.68856716
H        5.70552254      15.98824596       8.10921860
H        6.89413357      16.09722519       9.45567608
H        4.30867481      17.11582184       9.64875603
H        3.31267047      16.07160378      10.64229298
H        6.10383940      16.91472435      11.61409092
H        4.78117895      16.16245461      12.55462074
H        3.51201534      19.22771645      13.45335388
H        4.26975584      17.72726440      14.01963711
H        6.55796432      18.67725945      13.65985298
H        5.59513521      19.65756226      14.80530167
H        7.13284874      21.97463989      12.66834354
H        7.74383163      20.59667015      13.60790348
H        7.13072348      20.60781097      10.56391621
H        7.67981482      19.15741348      11.43783569
H        9.61075115      19.08415413      10.14883041
H       10.89571571      20.20327377      10.61161613
H        9.91744137      21.97738457       9.17775249
H        8.59033585      20.91873550       8.68269253
H       11.13674641      20.36274338       6.09388781
H       11.08704948      21.94613838       6.96490383
H        9.58738041      21.16840363       6.36984396
C       30.08310890      10.31260777      11.10793495
O       30.03258705      11.50372314      10.32204628
C       28.76911926      11.84041119       9.71127510
C       28.38155746      10.83920765       8.61453342
O       27.29337692      11.46879292       7.93069506
C       26.98220444      10.94025135       6.65996027
C       26.52531815       9.47474384       6.73633718
O       25.45595741       9.50323963       7.70115185
C       24.95491982       8.22996807       8.07951641
C       25.55354881       7.88877535       9.45365143
O       24.90270805       6.68353367       9.86331081
C       25.41594124       6.17557096      11.09205532
C       24.52772522       6.58944130      12.26949787
O       25.04593658       5.87363720      13.41942310
C       24.32866287       6.22037935      14.59688187
H       31.05548477      10.27285767      11.61143303
H       29.29458427      10.28822422      11.87784672
H       29.97203064       9.40697861      10.49181461
H       27.96687508      11.94265842      10.46749401
H       28.91176987      12.81809807       9.23659134
H       28.07781219       9.86568165       9.03444386
H       29.22955132      10.66941166       7.92383003
H       26.14270210      11.54624462       6.28263855
H       27.83246422      11.00640106       5.95212650
H       27.34765625       8.82694912       7.07114506
H       26.17892456       9.11884785       5.74696493
H       23.85894394       8.32003498       8.16689682
H       25.16073227       7.45261574       7.32238436
H       25.38482857       8.71783638      10.16559792
H       26.64166641       7.72360563       9.35293961
H       26.44225693       6.52239799      11.29812145
H       25.44049072       5.07636213      11.02990246
H       23.47514153       6.30568695      12.09950638
H       24.55450058       7.67320204      12.47465515
H       24.82190895       5.75020695      15.46642303
H       23.28386307       5.84271097      14.51487827
H       24.27445221       7.31295061      14.76928711
C       28.55073738      34.75902557      34.43589401
O       28.82379150      36.14139938      34.26317978
C       28.39134216      36.68155289      33.00893021
C       29.31922722      36.26642990      31.83920670
O       28.82209206      36.99880981      30.71980286
C       29.64148140      36.96163177      29.55937004
C       29.51294708      35.65731812      28.74543571
O       28.17700577      35.64506912      28.22179604
C       27.82160378      34.43360519      27.56002617
C       27.55795097      33.35115433      28.60936737
O       27.11252785      32.20890045      27.86569977
C       26.68859673      31.17266846      28.75505066
C       25.23773384      31.44230843      29.13765907
O       24.89458084      30.42687225      30.09782600
C       23.48984337      30.44733238      30.35837364
H       28.73625565      34.50869370      35.49118423
H       27.50615311      34.51187897      34.19822693
H       29.18507767      34.11718750      33.80171585
H       27.34857750      36.39861298      32.77933121
H       28.39295006      37.77812195      33.13737106
H       29.25795746      35.17957687      31.66348648
H       30.35619164      36.55189896      32.08938217
H       29.31621552      37.79568863      28.91714859
H       30.70304298      37.11043930      29.83161545
H       29.71721649      34.77949142      29.37815475
H       30.24109459      35.64142227      27.91158867
H       26.89201736      34.62399673      26.99650383
H       28.56480026      34.10408020      26.81026840
H       26.79956055      33.68973160      29.34408188
H       28.47312164      33.10572433      29.17945099
H       27.34550285      31.10353470      29.64095497
H       26.76732826      30.21297646      28.21872902
H       24.58902550      31.36590004      28.24703979
H       25.05423355      32.43486023      29.58339500
H       23.27520943      29.70872307      31.13783264
H       22.91761208      30.19646835      29.43917274
H       23.12323570      31.43645287      30.69374084
C       16.60110855      28.43593788      35.39530182
O       17.79702377      28.72739410      34.68515778
C       17.86882401      30.07955933      34.21182251
C       17.23701096      30.23958206      32.82550430
O       17.77789688      31.49148178      32.37097931
C       17.72138405      31.67207336      30.96024132
C       16.32746315      32.08668518      30.48684883
O       15.94284058      33.19992828      31.31260872
C       14.53469086      33.46914291      31.38781357
C       13.91690922      32.63634872      32.51970291
O       12.51129436      32.92033768      32.46656036
C       11.73509693      32.32665634      33.50545883
C       11.64322567      33.27228928      34.71427917
O       10.44847870      32.89508057      35.42351532
C       10.30641460      33.56942368      36.64765549
H       16.70517921      27.45036697      35.87172318
H       16.36566925      29.18595123      36.16986465
H       15.72561359      28.38959503      34.72515869
H       17.43707466      30.77116776      34.95746994
H       18.93620682      30.32739258      34.13492203
H       16.13336182      30.27724075      32.86620712
H       17.50455856      29.41034317      32.14948654
H       18.46265030      32.45677567      30.72435570
H       18.02468300      30.76657104      30.40460205
H       15.62190056      31.24727249      30.56389427
H       16.35868645      32.37234879      29.41606903
H       14.40240383      34.53776550      31.61252022
H       14.02168083      33.25949097      30.43468857
H       14.36004353      32.91326141      33.48826599
H       14.09952927      31.56729889      32.32697678
H       12.12995911      31.33906174      33.79817581
H       10.72167206      32.15943909      33.10026169
H       11.56888676      34.31074905      34.35479736
H       12.50789642      33.18370438      35.39044952
H        9.49259663      33.10059738      37.21979523
H       10.06784344      34.63960648      36.50988388
H       11.21510315      33.49393463      37.26953125
C       18.60033607       7.40893507      26.86685944
O       19.96385956       7.70930862      27.20226860
C       20.59643555       6.78312492      28.11840057
C       20.31094360       7.25126648      29.55654526
O       20.93678474       6.30652285      30.43324089
C       21.09356308       6.77332211      31.76742935
C       19.77188873       6.83625126      32.53937149
O       19.20559692       5.51904106      32.50180817
C       17.85798836       5.46259642      32.95709229
C       16.92038345       5.58811474      31.75169373
O       15.61170483       5.34123802      32.30514908
C       14.62153149       5.04024458      31.32742310
C       14.79923916       3.59761882      30.82852745
O       13.60143948       3.27747631      30.08556747
C       13.64959240       1.92787647      29.64733315
H       18.22853279       8.20657825      26.20572281
H       18.50643539       6.44835949      26.32912064
H       17.92956161       7.36724091      27.74089241
H       20.24327850       5.75363970      27.92793846
H       21.68461418       6.80407000      27.90550232
H       19.21943665       7.29795218      29.71421814
H       20.70620728       8.27445698      29.70566940
H       21.81215286       6.09596443      32.25644684
H       21.50310898       7.79657078      31.78699875
H       19.09045410       7.55727863      32.06059647
H       19.91943359       7.17826080      33.58266449
H       17.70364571       4.47817945      33.42100906
H       17.63999939       6.23444223      33.71957016
H       17.21121407       4.86262321      30.97698593
H       16.96131516       6.60269785      31.31343651
H       14.64255714       5.73175621      30.46082497
H       13.63117409       5.15336943      31.81586075
H       14.92640305       2.90168715      31.67159462
H       15.67409611       3.47706628      30.16554832
H       12.74205685       1.73527253      29.06033707
H       13.66498375       1.24057460      30.51016617
H       14.53481960       1.73994124      29.01565552
C        7.45975876      12.46904373       6.47203445
O        8.33876324      12.46671677       5.35002041
C        9.09344482      11.26178455       5.12905359
C       10.08592510      11.04150391       6.27374315
O       10.80566597       9.86678696       5.88541651
C       11.81631565       9.49240398       6.79316092
C       11.23627853       8.91324806       8.10697365
O       10.32907200       7.86732149       7.72047091
C        9.53508472       7.38831186       8.80475521
C        8.20436382       8.17505836       8.81890392
O        7.32336378       7.36604691       9.63072586
C        6.10802841       8.00533772      10.03274155
C        4.99374771       7.53182602       9.10149384
O        3.81610131       8.23429680       9.49264526
C        2.64150071       7.74156475       8.86152554
H        6.96041679      13.44507504       6.46756744
H        6.66851234      11.70698833       6.39179087
H        7.96022987      12.38438892       7.45035172
H        8.43295002      10.39668751       4.95949268
H        9.65146160      11.41747284       4.19152355
H        9.52856827      10.90506840       7.21351671
H       10.74586010      11.91982841       6.38021517
H       12.43767452       8.73467350       6.28617716
H       12.45253372      10.35579109       7.07068634
H       10.72129440       9.69798374       8.69112015
H       12.06581402       8.52671719       8.72356224
H        9.31905270       6.32470369       8.62102032
H       10.04244804       7.46876717       9.77863503
H        7.80632830       8.27721024       7.79340935
H        8.30177402       9.17406082       9.27875519
H        6.17707348       9.10354137       9.98721504
H        5.87783051       7.71419001      11.06832790
H        4.83098936       6.43755150       9.21544933
H        5.24158287       7.71163321       8.03730965
H        1.79095709       8.33288002       9.22991848
H        2.45307231       6.68246365       9.11665535
H        2.69617438       7.81971312       7.76056051
C        8.78443050       3.60139585       6.75828838
O        9.49192715       4.41889000       5.84613037
C        8.83970642       5.64623070       5.46578884
C        8.30226326       5.48474836       4.04695368
O        7.76354885       6.76933289       3.72993159
C        7.28486824       6.87641621       2.38716364
C        5.98764229       6.09266138       2.13546181
O        5.06079531       6.55402136       3.13796735
C        3.87765670       5.77376795       3.23725581
C        4.05645752       4.89097023       4.47912407
O        2.85156727       4.13349819       4.60996675
C        2.92648911       3.20533586       5.68626785
C        2.30168819       3.82300949       6.95463896
O        2.60815215       2.91986489       8.02426910
C        1.94229507       3.25575638       9.23120308
H        9.41631413       2.74811840       7.03060246
H        8.58980656       4.16100931       7.69947529
H        7.84046936       3.22368336       6.32171106
H        8.03488255       5.92499495       6.17145443
H        9.57802963       6.45907307       5.50868940
H        7.52768230       4.70486212       3.99926662
H        9.12741470       5.20280409       3.36833668
H        7.07636023       7.93915176       2.21667600
H        8.03934383       6.53567076       1.65598798
H        6.15267515       5.00858116       2.20149708
H        5.61693192       6.30889225       1.11946404
H        3.01405573       6.44394493       3.37555814
H        3.68817282       5.17487144       2.32996178
H        4.26344347       5.51988363       5.36494398
H        4.92392349       4.22360706       4.33223724
H        3.96498656       2.89082813       5.89692354
H        2.37886024       2.29905438       5.38498116
H        1.21029449       3.93965435       6.84320450
H        2.72115564       4.82010126       7.16832209
H        2.10885715       2.44416165       9.95419502
H        0.85451555       3.35883331       9.07592392
H        2.30281949       4.19901848       9.66905499
C       13.73064137      21.89971733      14.43951607
O       13.50934601      22.63190269      15.64076710
C       13.86382771      24.01468086      15.50113583
C       15.37754440      24.16575432      15.68109894
O       15.59630585      25.57174110      15.56760025
C       16.96931839      25.94118500      15.74916077
C       17.76624489      25.69777679      14.47035122
O       17.18570137      26.49778557      13.43782043
C       17.73436165      26.13344955      12.17192078
C       16.83874702      25.10005379      11.49043560
O       17.46987724      24.76427078      10.23164463
C       16.83092308      23.71854591       9.51083946
C       15.83472061      24.37771606       8.56206703
O       15.00632000      23.33906555       7.99829054
C       14.07948303      23.92333221       7.07219028
H       13.35259819      20.88020325      14.61412811
H       13.15978241      22.33550453      13.59420967
H       14.79429817      21.82290077      14.14743900
H       13.49337482      24.41672325      14.54155636
H       13.32889652      24.58234596      16.28103447
H       15.92171001      23.59403610      14.89383125
H       15.69423580      23.78735542      16.67483521
H       16.94989586      27.00918579      16.02420425
H       17.42375946      25.38212395      16.59242058
H       17.73790741      24.62894440      14.18708038
H       18.83376694      25.95442772      14.60470867
H       17.76422310      27.04072762      11.54337120
H       18.76563072      25.74592781      12.24395657
H       15.82518387      25.51599312      11.32745552
H       16.72281075      24.20668793      12.13463879
H       16.31881332      23.00873947      10.19496536
H       17.56388474      23.14522934       8.91858673
H       16.38174629      24.89646530       7.75851011
H       15.20255184      25.11125565       9.09192848
H       13.38827610      23.13094139       6.74970579
H       14.58658886      24.33767891       6.18655157
H       13.49264240      24.71400261       7.56214285
C        8.43361473       5.59264851      24.49747658
O        7.54127932       5.06059122      23.52873421
C        7.86118126       3.78777194      22.95515442
C        8.68852615       3.96237969      21.68734169
O        9.03602695       2.63557482      21.24671555
C        9.64374924       2.59796667      19.96764374
C       11.00756741       3.28087687      19.92667198
O       11.88951778       2.63554072      20.85127831
C       13.16350937       3.27779651      20.88678741
C       13.15089798       4.57541752      21.70689011
O       14.54108524       4.77015591      22.01933289
C       14.81755924       5.68801403      23.08015823
C       15.54803276       4.96758366      24.21054840
O       15.75792885       5.91706419      25.27430916
C       15.72615814       5.36225319      26.59484291
H        8.04745579       6.58261061      24.78868103
H        8.46551704       4.98138571      25.41672897
H        9.46365738       5.72593260      24.12733841
H        8.38825226       3.14764404      23.67711258
H        6.90573359       3.29371428      22.72134781
H        9.57161808       4.57317019      21.92962646
H        8.09182930       4.48614788      20.91973305
H        9.73045731       1.53526461      19.68920135
H        8.99375153       3.06605601      19.20965576
H       10.89179230       4.35239506      20.13778687
H       11.37128258       3.16637301      18.88564110
H       13.85459232       2.58168650      21.38222313
H       13.55618095       3.43801332      19.86352539
H       12.51820564       4.46159410      22.61043739
H       12.74290085       5.42057991      21.12304306
H       13.89946365       6.12817049      23.50202942
H       15.40749359       6.54045343      22.69967461
H       16.50375938       4.52447939      23.87555313
H       14.90324879       4.13434935      24.54634857
H       15.60766792       6.17476702      27.32563400
H       16.64502907       4.79867506      26.82433701
H       14.86029816       4.68370104      26.70277023
C       32.27925873       5.14370680      10.59085464
O       32.68202209       3.96946621       9.90832424
C       33.94483566       3.99071741       9.24447727
C       33.79304886       4.45517683       7.79332733
O       35.06064987       4.15351391       7.20619488
C       35.15151596       4.32310390       5.80023861
C       35.24738312       5.81271315       5.43639469
O       36.37603378       6.31182194       6.13685036
C       36.39583969       7.71091843       6.40865946
C       35.67513657       8.07764530       7.71670866
O       36.04860306       9.44335461       7.96449280
C       35.35856628      10.15575600       8.99217415
C       36.38381577      10.54205322      10.04281998
O       35.68081284      11.20587540      11.11087704
C       36.50156021      11.64621639      12.17671871
H       31.33848763       4.90558529      11.11228848
H       33.00147629       5.45160055      11.36330509
H       32.08756638       5.99137878       9.91412830
H       34.67284012       4.60074425       9.79956341
H       34.31882477       2.95855880       9.22939968
H       33.54626465       5.53006744       7.76851368
H       32.97526932       3.90552950       7.29669809
H       36.05717850       3.78348517       5.47883320
H       34.28334808       3.87616110       5.28189611
H       34.31734085       6.35262394       5.69470835
H       35.38459015       5.86883402       4.33898544
H       37.45624924       7.99705076       6.50641012
H       35.96673584       8.28155136       5.56698322
H       36.00266647       7.41918278       8.53770638
H       34.58251572       7.99227142       7.59516573
H       34.52009201       9.58949757       9.42877197
H       34.91311264      11.06553936       8.55908298
H       37.13592529      11.21628189       9.60470581
H       36.89799881       9.63960171      10.40765572
H       35.91682434      12.34467983      12.79099655
H       37.40927887      12.15339851      11.80961227
H       36.80629349      10.82100582      12.84249592
C        7.20505285      25.87592697      24.13772392
O        7.99092007      27.03513527      23.84917068
C        7.38225603      28.27945137      24.22594643
C        6.80091572      28.93343163      22.97865677
O        6.01647377      30.00866508      23.51755142
C        5.12832212      30.62104225      22.60088158
C        3.97478056      29.71828842      22.13417816
O        3.30669093      29.20678139      23.30267143
C        2.26133633      28.29383469      22.96361351
C        2.78611445      26.85411072      22.92790794
O        1.61894703      26.08901024      22.56308746
C        1.82359838      24.68740082      22.76987076
C        1.61127448      24.38653946      24.26406479
O        1.53004718      22.95501137      24.39256668
C        1.67461169      22.60300255      25.76534653
H        7.56901884      25.03217125      23.52498055
H        7.29290104      25.58920860      25.20267868
H        6.12999439      26.00715065      23.89533615
H        6.57601833      28.13658905      24.96042252
H        8.13152122      28.92597961      24.71091080
H        6.18924713      28.20188713      22.42457199
H        7.59242010      29.30066490      22.29265785
H        4.72367525      31.50795746      23.11408424
H        5.64723206      30.94953346      21.68090057
H        4.33473253      28.90153122      21.48678780
H        3.27682805      30.33044243      21.53265190
H        1.48736262      28.38352394      23.74411201
H        1.78912747      28.54058647      21.99440193
H        3.18561721      26.59817314      23.92612648
H        3.59045386      26.69324112      22.17887497
H        2.80484247      24.31807518      22.42244530
H        1.07528341      24.14529037      22.16599846
H        0.67669183      24.84695053      24.64582825
H        2.43119383      24.79379654      24.88986015
H        1.62074387      21.50992584      25.84600449
H        0.88430887      23.03137779      26.40576172
H        2.63284683      22.96009827      26.18144798
C       23.51739311      30.84411240       0.85647368
O       24.70663834      31.18953514       1.57102728
C       25.40591431      30.13072777       2.24220753
C       25.09352112      30.21651840       3.74209905
O       25.91988945      29.22366142       4.36681700
C       25.97039223      29.32102585       5.78001738
C       24.66319847      28.83108139       6.42431641
O       24.50091171      27.47591209       5.97435760
C       23.18602753      26.95629883       6.09423733
C       22.46934509      27.05815887       4.73978710
O       21.18391228      26.47052956       5.01361275
C       20.29167938      26.47392082       3.90297580
C       20.50151443      25.26972198       2.98231602
O       19.37172508      25.31922531       2.08698726
C       19.19379425      24.11325264       1.35858071
H       23.14335632      31.76786804       0.39900973
H       23.71557808      30.10969543       0.06106558
H       22.72620583      30.46250725       1.51526690
H       25.14503860      29.14965248       1.82034934
H       26.48825645      30.27686882       2.09795642
H       24.02365685      30.02491570       3.91380453
H       25.31684494      31.22118378       4.14509201
H       26.82230568      28.70311546       6.11458874
H       26.12412071      30.36058235       6.12693119
H       23.80970001      29.44420052       6.09246397
H       24.72849083      28.91238785       7.52131510
H       23.25801086      25.89482880       6.38814640
H       22.59339714      27.46182060       6.88019657
H       23.00942421      26.51422882       3.94776392
H       22.35042000      28.11023712       4.43444824
H       20.34354210      27.41240883       3.32363081
H       19.27396774      26.40885544       4.33053589
H       20.49493599      24.34240341       3.57892585
H       21.45067024      25.31903076       2.41846395
H       18.35663795      24.25758934       0.65945786
H       18.94732285      23.28610611       2.04382992
H       20.09051514      23.83740616       0.77593118
C       30.09836388      11.84323215      31.58954811
O       31.44539070      11.65464306      31.15623474
C       31.59803009      11.08924103      29.84042358
C       31.45486832       9.57230377      29.87475014
O       31.61573410       9.15757751      28.50879097
C       31.66269112       7.77022505      28.26288986
C       30.42032051       7.02677250      28.79133987
O       29.29765892       7.67696285      28.19597054
C       28.03131294       7.02438498      28.35027695
C       27.11423492       7.89602947      29.21741486
O       25.95427132       7.07782269      29.48031998
C       25.12792778       7.60613012      30.52509880
C       24.20036888       8.70118141      30.01343346
O       23.41746330       9.03702450      31.18782997
C       22.56849670      10.16136837      30.97989082
H       30.10573196      12.44962406      32.50648880
H       29.50475121      12.37453365      30.81556702
H       29.57605934      10.89258289      31.80683517
H       30.85004616      11.51544189      29.14401436
H       32.59542084      11.38535118      29.47391510
H       30.44969177       9.31700325      30.25234604
H       32.21392441       9.13356400      30.54708099
H       31.69330025       7.65643740      27.16189575
H       32.58183289       7.31728315      28.67185020
H       30.35473633       7.07485771      29.89211273
H       30.46870041       5.96814585      28.48422813
H       27.58481026       6.87465191      27.34889603
H       28.11631584       6.01139307      28.78851891
H       26.84116173       8.82971191      28.68426704
H       27.60434532       8.18743515      30.16751099
H       25.74299812       8.03007793      31.34181786
H       24.52359009       6.77901125      30.93385887
H       23.54398537       8.31385326      29.20524406
H       24.75099373       9.58224297      29.63621902
H       22.07411575      10.43509579      31.92490196
H       21.75390816       9.92493439      30.26318359
H       23.13388824      11.01471710      30.57724380
C        7.01435757      23.17758560      15.81660366
O        6.43973541      24.47507668      15.65669823
C        5.37974596      24.75775146      16.60342789
C        4.01485968      24.42117119      15.99660301
O        3.09954047      24.64520264      17.08482170
C        1.73540187      24.70712852      16.70644760
C        1.20761228      23.38418961      16.12278366
O        1.48488104      22.39216805      17.12069702
C        1.06485236      21.05967903      16.80818939
C        2.32076955      20.18893051      16.90208817
O        1.86352646      18.82826996      16.85710144
C        2.95573974      17.89815521      16.83568001
C        3.44762421      17.59245110      18.25117874
O        4.53689241      16.66527939      18.06015968
C        5.37868500      16.61173058      19.20511055
H        7.91267776      23.09320450      15.17988682
H        7.28934669      22.98578835      16.86722374
H        6.30812407      22.38478279      15.50081921
H        5.51179409      24.20555687      17.54724884
H        5.38673496      25.82657623      16.85064888
H        3.97383618      23.37840080      15.64281464
H        3.78127885      25.08513069      15.14654350
H        1.18494761      24.95182037      17.63132858
H        1.55983317      25.51675797      15.97257710
H        1.66555095      23.11400414      15.15082932
H        0.11705516      23.47272301      15.95690727
H        0.30626202      20.74603271      17.54743004
H        0.59558171      20.97607994      15.81100941
H        2.86956859      20.42036819      17.83068657
H        2.98584771      20.39850426      16.04059601
H        3.81026292      18.29434395      16.26152039
H        2.60044527      16.97520447      16.34278297
H        2.64594412      17.15136147      18.86526680
H        3.79070926      18.51177788      18.75617790
H        6.09682608      15.79372883      19.07079697
H        4.79897547      16.39425468      20.11708832
H        5.93380785      17.55857086      19.34276962
C       28.59142303       3.49730539       9.86915112
O       29.38020134       3.34897709      11.04652500
C       29.22478867       2.12495947      11.77851486
C       28.89305878       2.55912590      13.21167946
O       28.48136139       1.38828731      13.91202354
C       28.15737343       1.67334104      15.26227379
C       26.71302414       2.16501927      15.41073132
O       25.89117050       1.08982348      14.94322491
C       24.51651001       1.43910539      14.90498352
C       24.21335793       2.40410113      13.75542259
O       22.77094841       2.36606073      13.60101223
C       22.29876518       2.83548045      12.33338356
C       21.96235275       1.67497098      11.38502121
O       21.62345695       2.30102777      10.12880707
C       21.12215042       1.39915550       9.15774632
H       28.90596390       4.43101692       9.39070988
H       28.74267769       2.66121197       9.16985512
H       27.52121735       3.56766272      10.12051487
H       28.39575577       1.52173555      11.37528706
H       30.15045738       1.52570379      11.71384525
H       28.09650421       3.32146859      13.17817497
H       29.77204514       3.01434422      13.70186329
H       28.29325294       0.74003655      15.82199192
H       28.81260300       2.43654251      15.71705532
H       26.56734276       3.05537701      14.78409481
H       26.48867416       2.44276619      16.45273590
H       23.94545937       0.51425469      14.74845600
H       24.16696548       1.86124206      15.86676025
H       24.72722626       2.07512093      12.83689785
H       24.53421974       3.43103743      13.99058437
H       23.01968765       3.51400614      11.84882450
H       21.36789131       3.40569615      12.51983261
H       21.10251999       1.10494745      11.77318382
H       22.81044960       0.98499954      11.23947144
H       21.00210381       1.94043016       8.20934963
H       20.13540840       1.01456237       9.47374630
H       21.80625534       0.54739684       8.99909878
C       36.19572830      18.56709290       5.36413431
O       35.85657120      17.18966293       5.22359085
C       34.55985260      16.87475967       5.75674391
C       34.55409622      17.08290482       7.28735161
O       33.19068146      16.95006943       7.72685146
C       33.02136993      17.05472183       9.13308525
C       33.54428101      18.35917854       9.75295639
O       32.85556793      19.42854309       9.08993530
C       33.00308609      20.70458412       9.70891666
C       33.99640274      21.55369949       8.91789246
O       33.94414902      22.82051659       9.59350967
C       34.72423172      23.82131767       8.96496296
C       33.89237213      24.52686119       7.89191675
O       34.81783295      25.45497704       7.31024027
C       34.24801636      26.07249260       6.15878344
H       37.06219864      18.75178337       4.70872593
H       35.34275436      19.19548798       5.04787254
H       36.49512100      18.83837318       6.38915968
H       33.77254486      17.48118591       5.28221512
H       34.35411072      15.82826900       5.48006916
H       34.91649246      18.09206581       7.54037189
H       35.18877411      16.32746124       7.78065825
H       31.93781853      16.99868011       9.31122208
H       33.49864578      16.20124245       9.65006924
H       34.63769913      18.46214294       9.64324474
H       33.29746246      18.35559464      10.83200359
H       32.02036285      21.20950890       9.70859623
H       33.30392838      20.64379311      10.76863098
H       33.68014145      21.60910225       7.85859108
H       35.01438904      21.12932205       8.94911766
H       35.62889481      23.39550209       8.49701023
H       35.05508423      24.54483795       9.73423576
H       33.02702332      25.04712296       8.34382915
H       33.52797699      23.81918907       7.12616205
H       35.01726532      26.69504547       5.68872547
H       33.38825607      26.70361519       6.43523169
H       33.90093613      25.31475449       5.43386936
C        8.40648270      16.49819374      36.52108765
O        7.71327639      17.55548477      35.87412643
C        8.51129532      18.52509499      35.16293716
C        8.76078320      19.70937729      36.09880829
O        9.43054008      20.68488312      35.27479935
C        9.83954048      21.84765053      35.99094772
C       11.22603893      21.64485931      36.62558365
O       12.11790562      21.41644287      35.52547836
C       13.37124634      20.84985733      35.85960770
C       13.26735878      19.39570618      36.35949707
O       14.61798763      19.03634834      36.73982239
C       14.78823662      17.63891792      37.00565338
C       14.86006069      16.88287926      35.66839600
O       15.49441147      15.61802387      35.94685364
C       15.46982765      14.76378345      34.79642487
H        7.63328123      15.74756527      36.74473953
H        9.16895962      16.04596138      35.86758804
H        8.87943172      16.81405449      37.46187210
H        9.44733906      18.09258461      34.76445770
H        7.92239141      18.85388184      34.28839493
H        9.38471127      19.40556717      36.96184921
H        7.82068300      20.12627029      36.50446701
H        9.88693905      22.65898132      35.24780273
H        9.10480881      22.12677765      36.77349854
H       11.17265797      20.78555107      37.31338501
H       11.50720596      22.54644585      37.21032333
H       13.98556519      20.84500313      34.94190216
H       13.89235783      21.51153564      36.59539413
H       12.86142254      18.77304268      35.54423523
H       12.60975933      19.30493927      37.24066925
H       13.95271778      17.27532578      37.63412476
H       15.72859097      17.52925301      37.56755447
H       15.46223545      17.47445679      34.94507599
H       13.86309624      16.74119568      35.21636581
H       16.00561142      13.83281136      35.03017426
H       15.92462349      15.26025486      33.92094803
H       14.43284702      14.51554394      34.51544952
