4949
Lattice="42.790000915527344 0.0 0.0 0.0 42.790000915527344 0.0 0.0 0.0 42.790000915527344" Properties=species:S:1:pos:R:3 pbc="T T T"
Na      10.01663971       3.66079879      25.82700729
Na       1.93688178      15.15915298      34.26769257
Na      24.31826973      23.87900352      28.07222748
Na       1.23266542      33.78640366      35.64674377
Na       7.31040573      34.78598785      25.44794846
Na      34.39001083      19.47831345      16.38200951
Na       6.69041109      33.54137039      10.98813915
Na      15.78664112      15.19556046      37.28247833
Na      34.41365814      22.48757744      19.76727867
Na      26.09165764      24.80711746      19.51628304
Na      35.90934753      25.88485909      35.14783859
Na      28.82455063       8.96657276      27.85240555
P       18.52830887      24.52369881       6.88431120
F       20.15189362      24.33384132       6.93239784
F       16.89291954      24.68037033       6.88391066
F       18.68301582      26.06707573       7.36846781
F       18.37320709      22.96225166       6.41821957
F       18.46167755      24.07391739       8.46364021
F       18.57762527      24.97235298       5.32660389
P        5.12627602      24.99140358       4.29738283
F        6.06965637      26.31664276       4.01443338
F        4.20152140      23.65534782       4.62096262
F        6.47958040      24.12977028       4.65523529
F        3.78831649      25.85371971       3.96002936
F        5.25483036      24.54029083       2.74476838
F        5.03435421      25.42099953       5.88237238
P       23.07476234       1.80935466      27.19153404
F       22.22742653       0.49116158      27.66339302
F       23.93032646       3.12955236      26.72540283
F       21.70132446       2.46903300      26.56125450
F       24.44118690       1.15478122      27.80814171
F       23.37652016       1.08511245      25.75922394
F       22.76494217       2.53459549      28.62306595
P        2.06371999       4.62641144      26.02629471
F        3.44872308       5.51262712      25.78855896
F        0.71001464       3.75523019      26.27430725
F        1.87372720       4.49524546      24.41863251
F        2.27834177       4.76178360      27.63112640
F        1.20114183       6.01292896      26.03244781
F        2.96937156       3.26108027      26.02721214
P        8.31682682       3.05590272       8.06934452
F        7.57323647       1.65516102       7.65277195
F        9.07553101       4.44449139       8.50354004
F        7.28701973       3.23377228       9.34302902
F        9.34154606       2.86531472       6.81971979
F        7.28939724       3.89713407       7.11819506
F        9.34554672       2.21622825       9.03209591
P       23.10955620       6.93453741      37.65260696
F       22.36469650       8.37999725      37.57996368
F       23.87763977       5.50719023      37.74568558
F       21.68944359       6.24037123      38.09742355
F       24.52399445       7.64660120      37.22456741
F       23.47784042       7.22791386      39.22050858
F       22.77270508       6.65547991      36.10034180
P       36.32332611      38.00566864      14.41740322
F       36.36678696      37.65118790      16.01975060
F       36.29322815      38.37474060      12.82398987
F       34.95581436      37.14605331      14.24247074
F       37.69738388      38.86201096      14.59279442
F       37.21883011      36.67982483      14.09571266
F       35.45306015      39.35453415      14.75147343
P       28.68621826      31.67407799      14.90987301
F       29.15855598      30.09032059      15.07050705
F       28.23113632      33.24565125      14.79121017
F       30.24146271      32.08447647      14.68405819
F       27.10988617      31.24310684      15.18132305
F       28.87913322      31.86460876      16.54112434
F       28.47978592      31.45696640      13.30768585
P        2.61370540      31.52918243      36.81255341
F        2.69367766      33.14678574      37.23961639
F        2.45303345      30.02915573      36.29294968
F        0.96303087      31.77603340      36.61770248
F        4.20078230      31.42505455      36.93016434
F        2.38808942      31.14275360      38.34012222
F        2.75699329      32.07136536      35.22412872
P       15.48840809       5.73489666      33.67222977
F       14.13462639       5.01492071      33.13135147
F       16.84791946       6.46695518      34.20965576
F       15.16221809       5.29290295      35.22644806
F       15.85825253       6.18602800      32.15013504
F       14.66461945       7.13064861      33.91279602
F       16.31680870       4.36083698      33.46333313
P        2.29721618       9.03371525       4.17947054
F        3.09970188       8.49664116       5.51659966
F        1.49346685       9.58333206       2.83798099
F        3.69357276       8.95549679       3.31768894
F        0.91071749       9.14093685       5.06035280
F        2.66177964      10.58067131       4.60976934
F        1.94186258       7.48469925       3.74368930
P       21.54528046      33.03223801      22.93207741
F       22.89982033      33.00748062      22.01286888
F       20.19164467      33.07007980      23.87972641
F       22.15074348      34.22436523      23.87230301
F       20.89623833      31.83884048      21.99009895
F       22.21489525      31.90626526      23.94803619
F       20.87287140      34.16873550      21.93467903
C       30.31936264      31.80840302      27.93649673
O       30.49855042      31.11543274      29.18391228
C       29.28610802      30.44168854      29.54954338
C       29.62577820      29.80484772      30.89230919
O       28.43024063      29.23629189      31.42911720
C       28.67279053      28.77896881      32.76428986
C       27.30321503      28.31580925      33.26523590
O       27.38565445      27.96226692      34.65102005
C       27.64365387      26.58805656      34.90422058
H       29.43558693      32.45999908      27.97504807
H       31.22250748      32.40401459      27.77016830
H       30.16472244      31.09990120      27.10865211
H       29.00472641      29.69754791      28.78601646
H       28.43814468      31.14591026      29.64443207
H       30.03570747      30.55616379      31.58647919
H       30.39746094      29.03009415      30.74545479
H       29.04501915      29.58805656      33.41405487
H       29.40026093      27.95098495      32.77124786
H       26.57152939      29.14019394      33.18948364
H       26.92514229      27.49410439      32.63721466
H       28.67051125      26.29313850      34.64745331
H       26.94144249      25.95520592      34.33425140
H       27.45757484      26.42015648      35.97221756
C       28.03047562       3.21459246      17.09357834
O       26.79162407       3.04009819      16.44176292
C       25.75134659       3.77696347      17.09842110
C       24.43943214       3.33240414      16.46532440
O       23.43125534       4.04029512      17.18883896
C       22.12372017       3.57806134      16.86507034
C       21.21698570       4.33010626      17.85349655
O       19.86898804       3.86866283      17.72768784
C       19.15981674       4.40731573      16.61885262
H       28.04475594       2.75927830      18.10030937
H       28.81317711       2.72817183      16.48877907
H       28.28896141       4.28264713      17.20938110
H       25.88622093       4.86378622      16.95925140
H       25.73049736       3.59069943      18.18648720
H       24.32559395       2.24105763      16.55366325
H       24.41121101       3.57495737      15.38812160
H       22.03011322       2.48803449      17.00807571
H       21.85479546       3.80039263      15.81581306
H       21.53430367       4.12393188      18.89213371
H       21.27407265       5.42222071      17.69333267
H       19.52944756       4.05853367      15.64355564
H       19.16884613       5.50551891      16.64315987
H       18.11743164       4.07565880      16.70806694
C        8.98846340      29.88318634       1.32593656
O        8.52980804      30.77216148       2.33671784
C        7.45667744      31.63280296       1.94241762
C        7.03584623      32.29785538       3.25336003
O        5.92803335      33.13760757       2.94937944
C        5.24718571      33.56428909       4.12681818
C        4.06437111      34.40651321       3.62719393
O        3.45568204      35.13631058       4.70102978
C        2.58219910      34.43786621       5.57028055
H        9.40198898      30.42523003       0.46252671
H        9.74159241      29.24328613       1.79686010
H        8.16756535      29.23813820       0.97680014
H        6.61261272      31.05762482       1.52619505
H        7.79108047      32.36203003       1.18320560
H        7.86666775      32.86783600       3.70895147
H        6.77218628      31.50907707       3.97333932
H        5.88411665      34.19268417       4.77856112
H        4.88625765      32.71813202       4.73396826
H        4.45671177      35.15144730       2.92117977
H        3.33607292      33.77815628       3.09091544
H        3.10737014      33.78210831       6.27941942
H        1.84558773      33.84563446       5.00387716
H        2.04510880      35.18798447       6.16588402
C       31.37927818      30.27354050      17.74520493
O       32.01937103      28.99856186      17.85757065
C       31.69555283      28.08982849      16.80276871
C       32.36541367      26.81113434      17.25624275
O       32.15896606      25.77536201      16.27504921
C       33.00713730      24.66351318      16.58527565
C       32.88384247      23.63260078      15.46078682
O       33.70388412      22.49507523      15.78914928
C       35.11923599      22.69650459      15.63425064
H       30.30327606      30.17931175      17.98374939
H       31.84645271      30.96837044      18.45672989
H       31.44559860      30.67586708      16.72079468
H       32.07947159      28.43108749      15.82249832
H       30.60243416      27.96141624      16.68487930
H       31.93875694      26.51656914      18.23323441
H       33.44403839      27.00380516      17.41064453
H       32.69458771      24.21410942      17.55147362
H       34.05574417      24.99464035      16.68483162
H       31.85545921      23.24390221      15.37036419
H       33.16214752      24.04828072      14.47768116
H       35.54934311      23.33363914      16.42276764
H       35.35132980      23.10733795      14.63417244
H       35.57769775      21.69467926      15.70261002
C       38.85815811      22.24969101      12.63511562
O       39.26138687      20.92637634      12.26666355
C       38.18313980      20.06726837      11.88010216
C       38.86988831      18.80237770      11.36483765
O       37.87047195      17.78025627      11.20378494
C       38.47817230      16.55424500      10.76833439
C       37.33947372      15.56828117      10.53997803
O       37.87902451      14.31464577      10.10901642
C       37.59343338      13.86534691       8.80040550
H       38.25828552      22.26727295      13.55833626
H       39.76339340      22.85048103      12.77611160
H       38.22609711      22.69296455      11.84934616
H       37.57011795      20.51395988      11.07627869
H       37.48811722      19.85698700      12.71744061
H       39.65399170      18.49223137      12.07802486
H       39.35370255      19.00324249      10.39234352
H       39.19688797      16.20365334      11.52947426
H       39.01627731      16.69189262       9.81548023
H       36.77603912      15.42394257      11.47579765
H       36.62271118      15.98619747       9.81523609
H       38.19861221      14.37481022       8.03136349
H       36.52797699      13.99508858       8.55821514
H       37.82439423      12.79080105       8.75708866
C       20.36856461      24.66635132      19.51986504
O       20.08958817      24.37239265      20.89417458
C       19.56763649      25.50447464      21.61921883
C       18.84027290      24.93935204      22.82922173
O       18.22893524      26.04469681      23.50325394
C       17.49141121      25.71510315      24.69327736
C       17.09301949      27.07606316      25.26126862
O       16.49004364      26.98251534      26.57151985
C       15.10702419      26.60682106      26.53565788
H       21.19202614      25.38769913      19.40875244
H       20.62624168      23.71892929      19.01536751
H       19.46737289      25.07268906      19.01948357
H       18.84309387      26.05344009      20.98992920
H       20.35373116      26.21593666      21.92753220
H       19.52739716      24.38274574      23.49821854
H       18.08201218      24.22248840      22.46479607
H       18.09539032      25.14457130      25.42540741
H       16.59701538      25.12883186      24.43652534
H       17.98842812      27.70412636      25.40145874
H       16.41467857      27.58876419      24.55410385
H       14.95640469      25.54002190      26.29717445
H       14.54837132      27.21427155      25.80021858
H       14.67771149      26.78884888      27.52851868
C        1.58212781      33.10152817      22.48984337
O        2.29248357      34.23704147      22.02809334
C        3.61228490      34.35568237      22.57645607
C        4.31774187      35.45049286      21.78084564
O        5.56779432      35.68867493      22.44387245
C        6.36613941      36.62180328      21.70185089
C        7.70150566      36.73377991      22.45833015
O        8.63981724      37.45151520      21.64910698
C        9.40380669      36.61365128      20.75821114
H        1.54983211      33.04421616      23.58986664
H        0.55414546      33.19394302      22.12443542
H        2.01109624      32.15921402      22.11209106
H        4.16086483      33.40356445      22.46449089
H        3.55796385      34.59386826      23.65395164
H        3.70511293      36.36867905      21.73061180
H        4.47319937      35.11024094      20.74517632
H        5.84590006      37.59380341      21.63064766
H        6.53050661      36.25904465      20.67480850
H        7.57695293      37.27554703      23.41016769
H        8.06654739      35.71931076      22.69790649
H        8.76006317      36.14542770      19.99608994
H        9.93247414      35.80789566      21.28927231
H       10.13998699      37.25801468      20.25696373
C       30.62313652      16.41700745      36.44733429
O       31.13777924      17.71448708      36.69953537
C       30.17774010      18.77987671      36.86042023
C       31.00780487      19.98744392      37.27147675
O       30.14903831      21.12768745      37.22531128
C       30.86858559      22.25077629      37.74724960
C       29.96436501      23.46570969      37.62253571
O       30.63448143      24.55811501      38.27626419
C       30.48818588      24.70444870      39.68535614
H       30.35880089      16.27240753      35.38548660
H       31.38710022      15.69423103      36.75884628
H       29.70474052      16.23105621      37.02726364
H       29.40423012      18.53425026      37.60776520
H       29.65855408      18.95816231      35.90800858
H       31.84112358      20.09899330      36.55029678
H       31.45449829      19.86586571      38.27711868
H       31.78367233      22.42750549      37.15338898
H       31.15443420      22.10433197      38.80057526
H       29.82071304      23.73450089      36.56517029
H       28.97070694      23.29568672      38.06530380
H       30.66357613      23.76092148      40.22396469
H       29.47032738      25.05535698      39.92861557
H       31.22095871      25.45421410      40.00791931
C       13.22664165      25.06576538      12.76399708
O       14.10470009      24.99863052      11.64434814
C       14.33285046      23.66780853      11.12760162
C       15.16196728      23.80117798       9.85839558
O       15.09499931      22.49741364       9.26390457
C       15.67155457      22.35404396       7.94614458
C       15.18911266      20.99907875       7.44578314
O       15.88088417      20.53169060       6.26003027
C       15.46983910      21.17910767       5.05229378
H       13.41983414      24.24953079      13.48844719
H       13.34775829      26.03812981      13.25761318
H       12.17290401      24.96829796      12.44638348
H       13.36446381      23.20440674      10.87365437
H       14.82681370      23.03525734      11.88736343
H       16.20489883      24.11658669      10.05863190
H       14.68828297      24.54281616       9.18785858
H       16.76957321      22.39850616       8.02391243
H       15.29633713      23.14319420       7.27534914
H       15.32588482      20.23261261       8.22928333
H       14.10084629      21.05663872       7.26312590
H       15.67700768      22.25431442       5.07565928
H       14.39439487      21.02401352       4.85906935
H       16.02410507      20.72636604       4.21848059
C       17.60360336      32.43815231      40.66747665
O       18.56037140      31.70991325      39.91151810
C       19.79462242      32.36150360      39.52530670
C       20.16686821      31.55699348      38.27916336
O       21.46721458      31.96530533      37.83931732
C       21.79389763      31.16642189      36.69181442
C       23.20384407      31.54423141      36.27473450
O       23.67594910      30.63564491      35.24677658
C       24.15059280      29.38108635      35.75290680
H       17.27465820      33.33339310      40.11720657
H       16.74152756      31.77737236      40.82828140
H       17.97755623      32.75165558      41.65134430
H       20.54068947      32.28559494      40.33326340
H       19.59335136      33.41826248      39.28659058
H       19.42611694      31.77024460      37.48831940
H       20.13150024      30.47391891      38.48977661
H       21.08553505      31.34364510      35.86284637
H       21.74574280      30.08847809      36.92810822
H       23.19410896      32.55239868      35.83605576
H       23.87312317      31.53031921      37.14966583
H       23.30646706      28.73847008      36.05936050
H       24.83220482      29.52535439      36.60729218
H       24.67432785      28.86915779      34.93342209
C       29.84803009      20.82128525      41.45455933
O       31.08413315      21.28404999      40.94011307
C       32.24534988      20.89234543      41.69381714
C       33.43789291      21.23784637      40.80819321
O       34.59127045      20.76974487      41.49500275
C       35.78981400      21.04488182      40.76775360
C       36.93337631      20.39256668      41.54354477
O       38.13610077      20.61775970      40.80229950
C       38.67602921      19.56345558      39.99759674
H       29.62906647      21.24913025      42.44801331
H       29.06841660      21.12227440      40.74486923
H       29.84574890      19.72317886      41.52611160
H       32.22879791      19.80627060      41.85333252
H       32.27364349      21.40113068      42.67221069
H       33.46736526      22.32546043      40.62457275
H       33.30486679      20.73620987      39.82806396
H       35.95510101      22.13102150      40.67299652
H       35.74740982      20.61552620      39.75427628
H       37.05366516      20.84071541      42.54362869
H       36.73252869      19.32015228      41.66202545
H       37.98246765      19.25677299      39.20392609
H       38.92407990      18.68670845      40.61523056
H       39.60730362      19.95495415      39.56042480
C        5.77701139       8.47616577      34.29716873
O        6.34466410       9.24383450      33.23445892
C        6.13477039       8.67554474      31.92368317
C        6.92733765       9.52329731      30.93443680
O        6.71687746       8.87954998      29.68199348
C        7.27158165       9.61816120      28.58612633
C        6.69375706       9.05872250      27.28329659
O        7.12867022       9.96718884      26.25178337
C        6.06792736      10.67278004      25.58265686
H        5.94690514       7.39893913      34.12721252
H        6.25491381       8.76316166      35.24224091
H        4.69074297       8.63663483      34.36856079
H        5.06111526       8.67258072      31.67095184
H        6.49691868       7.63819170      31.88354874
H        7.99374485       9.54615116      31.21757317
H        6.53355646      10.55627441      30.92672539
H        8.37339211       9.53087997      28.59361076
H        7.00698376      10.68625164      28.68120003
H        7.05756760       8.03889847      27.04922676
H        5.59273243       8.99013996      27.32861137
H        5.63691616      11.45217991      26.22530174
H        5.25584793       9.99112988      25.28198242
H        6.46236658      11.11503601      24.65814590
C       31.81666565      34.65113068       5.82044649
O       31.49383354      35.82598877       6.55696726
C       32.34333420      36.07894897       7.70247746
C       31.77128029      37.36061859       8.30081558
O       32.51388931      37.61194229       9.49757671
C       32.19184113      38.86091614      10.13162613
C       33.30316925      39.08077621      11.15901375
O       33.00267029      40.20977020      11.99907589
C       33.43448257      41.45559692      11.47055340
H       31.78557396      33.77062988       6.48424625
H       31.04696083      34.51354218       5.04747581
H       32.81265259      34.72402954       5.35399628
H       33.39643860      36.21618652       7.39593124
H       32.28194046      35.25176239       8.43058205
H       30.69404221      37.24434662       8.52260494
H       31.87680244      38.19614029       7.58387280
H       31.19750023      38.82024765      10.60968494
H       32.17649078      39.66974258       9.37946987
H       33.38171768      38.21625900      11.84094048
H       34.27675629      39.19156647      10.64716244
H       32.93587875      41.69298553      10.51909924
H       34.52334213      41.46348572      11.33104229
H       33.15273285      42.21467590      12.20990753
C        1.27868056      29.59871674      16.39266586
O        0.65963811      29.05881500      15.24319363
C        1.54434967      28.26266670      14.45433044
C        0.78464270      27.80708122      13.21152496
O        1.75950849      27.14181137      12.41448307
C        1.24786818      26.47031975      11.26144123
C        2.46694255      25.77775574      10.64796638
O        2.17345715      25.29994965       9.31838226
C        1.35302663      24.13326454       9.24769592
H        2.26247859      30.04252434      16.18055153
H        0.63738734      30.39062309      16.80054092
H        1.41871512      28.85178947      17.19140625
H        1.90979385      27.37966347      15.01398373
H        2.42751169      28.85233307      14.14262581
H        0.36205196      28.67733002      12.68091774
H       -0.05372352      27.14471054      13.47798061
H        0.83274537      27.18376350      10.52664757
H        0.45753616      25.75370598      11.53998280
H        3.27901292      26.51168060      10.52842903
H        2.82004738      24.96627808      11.30782509
H        0.34977826      24.27459526       9.68010807
H        1.84170115      23.27041626       9.72573280
H        1.20777333      23.89512062       8.18484306
C       14.42655659      24.14894104       1.48801279
O       14.41730213      24.28718376       2.90164137
C       14.51920128      25.64328957       3.39996171
C       14.58282089      25.45344353       4.90723991
O       14.67358875      26.73279190       5.54260063
C       14.57302856      26.62815094       6.98546934
C       14.41804981      28.05405045       7.49934292
O       14.35041332      28.07007217       8.94295788
C       13.12715816      27.64264107       9.54814339
H       15.37534618      24.50286865       1.05680656
H       14.28853321      23.08661652       1.25922108
H       13.59299946      24.70938683       1.03755951
H       13.62144470      26.22396278       3.12518191
H       15.42368031      26.13805008       3.01406097
H       15.45091248      24.82545662       5.16758728
H       13.65900040      24.94162750       5.24263287
H       15.47921181      26.17723274       7.41453648
H       13.69022655      26.03276634       7.26819754
H       15.30209732      28.65427589       7.22010088
H       13.51688480      28.53798485       7.07846165
H       13.06166744      26.54170036       9.62111950
H       12.24417210      28.01603699       8.99437904
H       13.06662750      28.05089378      10.57080078
C       25.64908791      18.86804199      20.97698975
O       25.20820236      19.68546295      19.87709236
C       26.33214378      20.36816025      19.26210594
C       25.79724693      21.16534805      18.07766533
O       26.94281578      21.63141251      17.36545372
C       26.54964066      22.38217545      16.20957565
C       27.84533691      22.79101181      15.47851181
O       27.55233574      23.74421120      14.43989563
C       26.98119736      23.18291855      13.24590588
H       26.36274719      19.40472603      21.61988640
H       24.76010132      18.61091232      21.56381035
H       26.09803772      17.92848396      20.62425995
H       27.05759621      19.62275124      18.89032745
H       26.84063148      21.00154495      20.01265717
H       25.15122795      22.00688553      18.39221191
H       25.16010094      20.53458023      17.42836380
H       25.93824768      23.25779343      16.51335335
H       25.88732719      21.78058434      15.55647278
H       28.54185104      23.27456474      16.18127060
H       28.35536194      21.91123009      15.05796242
H       26.25991440      22.37573051      13.46979713
H       27.74862099      22.77433586      12.56934929
H       26.43832779      23.98347473      12.72137833
C       33.68534470      40.65051651      34.48540878
O       32.41810608      40.15604401      34.08243179
C       31.97850800      40.75642014      32.87344360
C       30.64444733      40.10876846      32.51318359
O       30.24769783      40.74028778      31.31127167
C       29.09211159      40.13172150      30.74338913
C       28.88379288      40.80064011      29.37926865
O       27.58560562      40.54321289      28.87551880
C       27.37727928      39.22634888      28.37236214
H       33.63581085      41.72011948      34.74663925
H       34.00264359      40.09004974      35.37658310
H       34.43379593      40.51971054      33.68527222
H       32.70798111      40.57510376      32.06163406
H       31.86429977      41.84770584      33.00003433
H       29.91045952      40.26689148      33.32848358
H       30.77317619      39.02688980      32.35180664
H       28.20794868      40.30736923      31.38571548
H       29.23412323      39.04818726      30.61498833
H       28.96118355      41.88940048      29.52359772
H       29.66600800      40.49299622      28.66286469
H       27.27729034      38.48676300      29.18511772
H       28.18846893      38.92243195      27.69460297
H       26.43692017      39.22521210      27.80948448
C       26.18696976      22.58160400      30.64348412
O       25.02667046      23.38733673      30.38219833
C       24.77249336      24.33420372      31.43519402
C       23.56344032      25.16412735      31.04831696
O       23.26096725      25.86798286      32.25099182
C       22.09668541      26.69548798      32.15582275
C       22.06298256      27.30813217      33.56266785
O       20.91498947      28.12342644      33.79656219
C       21.05332756      29.42568398      33.21598053
H       26.02633095      21.99383163      31.56270790
H       26.31070328      21.89276886      29.79333878
H       27.08335876      23.20901299      30.75550461
H       25.63937759      24.99648857      31.58469582
H       24.54533577      23.82081223      32.38435364
H       22.72083092      24.53123665      30.71488380
H       23.81376648      25.86672592      30.23003387
H       21.18739319      26.10668755      31.94312859
H       22.19938278      27.45036697      31.35971260
H       22.01197433      26.48900604      34.29951859
H       22.98718643      27.88298225      33.73542023
H       20.99341774      29.40030289      32.11502075
H       21.98391724      29.91582108      33.54603195
H       20.18218994      29.99681664      33.56935501
C       34.96977615      21.43140411      23.42163849
O       34.92960358      20.01091576      23.33318901
C       35.86733627      19.43071938      22.41045380
C       35.86220551      17.94631767      22.74625397
O       36.70799255      17.24038315      21.82192230
C       36.88457108      15.85962009      22.19080162
C       37.31366730      15.12514877      20.91558456
O       37.28309631      13.70710659      21.12281609
C       38.35708237      13.19054794      21.91098022
H       34.66365433      21.89316750      22.46380234
H       34.24403763      21.73591805      24.18696404
H       35.97411728      21.79049683      23.69587517
H       36.88076782      19.84538078      22.53820419
H       35.54262543      19.61076164      21.36797142
H       34.83008957      17.55895424      22.69643784
H       36.20828247      17.84099388      23.78963852
H       35.92380905      15.44470215      22.54034996
H       37.62891006      15.76837826      22.99962044
H       36.57457352      15.30659485      20.11747169
H       38.29610825      15.47119427      20.55498695
H       38.20932388      13.34935665      22.99264908
H       39.32418442      13.63017368      21.61446762
H       38.37689590      12.10439682      21.74042511
C       38.68624496      18.20309067       5.67083120
O       37.67020035      19.02220345       6.23125887
C       37.07226181      18.47782516       7.42678070
C       36.18036652      19.59216118       7.98285913
O       35.55662918      19.05660057       9.15012264
C       34.76374054      20.03277588       9.83914757
C       34.26498032      19.35673523      11.11201286
O       33.28920746      20.17377472      11.77940273
C       33.73876572      21.17047310      12.69057751
H       38.30319214      17.23083878       5.32043791
H       39.11408997      18.72676277       4.80425787
H       39.49650955      18.02089119       6.39598989
H       37.82612991      18.21729469       8.18803024
H       36.48658752      17.57856178       7.18477392
H       35.42430115      19.89560699       7.23626041
H       36.78032684      20.47828674       8.24347401
H       33.90349579      20.32775307       9.21740532
H       35.33349228      20.94059372      10.09346294
H       33.75984573      18.41579056      10.85446644
H       35.11264420      19.11971092      11.77285576
H       34.57967758      21.77455139      12.31968212
H       34.01666260      20.73515129      13.66579914
H       32.88434219      21.83775711      12.89238262
C       31.17909241      41.57418060      23.34832191
O       30.20811081      40.59711838      23.65648842
C       30.78756332      39.29851913      23.82453918
C       29.59096527      38.42956924      24.16854095
O       30.07264328      37.16374969      24.59865379
C       28.99512291      36.52650833      25.30595016
C       29.48963737      35.13758087      25.71360397
O       28.35123634      34.37254715      26.17497635
C       27.90957260      34.59886551      27.51622391
H       31.79331589      41.25856781      22.48731804
H       30.63570023      42.49685287      23.10133934
H       31.83242607      41.77172470      24.21694565
H       31.52139282      39.30030441      24.64572334
H       31.29457092      38.95904922      22.90304184
H       28.90383148      38.32406235      23.30665970
H       29.00578117      38.92391968      24.96552849
H       28.12862206      36.41114044      24.63606453
H       28.67938995      37.12562561      26.18151855
H       29.89612007      34.59235764      24.84452438
H       30.25173187      35.21522522      26.50372696
H       27.26335716      35.48631668      27.59689331
H       28.74729156      34.69828796      28.21796608
H       27.30665779      33.72753143      27.80770683
C        9.06308270      31.77820587       6.59613132
O        7.89150095      31.17805672       6.03596687
C        7.38208818      30.08657837       6.82692719
C        6.16162395      29.63665962       6.03024149
O        5.40180159      28.73643875       6.83473349
C        4.13518476      28.50625610       6.21215105
C        3.32583976      27.73019218       7.23572159
O        2.17284918      27.16772652       6.59349728
C        0.92950791      27.81075096       6.75235271
H        9.86969090      31.04003334       6.72556448
H        9.39961720      32.55922318       5.90209579
H        8.85695934      32.23679352       7.57553148
H        7.09665680      30.41835785       7.84218979
H        8.13129902      29.27906227       6.93054628
H        6.43853760      29.15817261       5.07122183
H        5.54711437      30.51935387       5.77804232
H        4.26220369      27.92489433       5.27860498
H        3.63199377      29.45634651       5.94914913
H        3.90154600      26.88232613       7.64122486
H        3.03760791      28.33749771       8.11710548
H        0.93118078      28.81815720       6.30074024
H        0.61476672      27.86990738       7.80582523
H        0.18409508      27.19425774       6.23575401
C       24.62906265      16.12819290      23.83768082
O       25.81218719      16.59938622      23.20811653
C       27.07309914      16.30350494      23.86835289
C       28.06826973      16.13751030      22.73068047
O       29.40267754      16.11580276      23.24468613
C       30.28802681      16.02079773      22.11395454
C       31.70071030      16.12778282      22.68520355
O       32.64208603      16.19305992      21.58955765
C       33.10431290      14.92029572      21.11106300
H       24.24833107      16.81628990      24.60702324
H       23.84488678      16.01192093      23.07512474
H       24.78364754      15.13836670      24.29917908
H       26.96592522      15.36856747      24.45169067
H       27.33008957      17.11782455      24.57065773
H       27.92198181      16.96707535      22.01369286
H       27.83982468      15.20702076      22.18401146
H       30.09163094      16.85084724      21.41199875
H       30.13064957      15.08123589      21.55550575
H       31.78037071      17.05598640      23.26837158
H       31.92126846      15.27202320      23.34519577
H       32.26922226      14.35452843      20.66055679
H       33.52085876      14.31711769      21.93578148
H       33.86738968      15.08967400      20.33332253
C       39.98539734      33.88269043      16.27566147
O       38.93717575      33.36541367      15.47731209
C       39.41952133      32.47839355      14.45245552
C       38.16904449      31.98141098      13.75218678
O       38.59447479      31.09646416      12.71606445
C       37.51575089      30.59026146      11.94753075
C       38.12617111      29.81101799      10.78117561
O       37.09574890      29.52087021       9.81413746
C       36.44045258      28.27199745       9.97034168
H       40.72657776      34.43408966      15.67545509
H       39.55265427      34.55048752      17.02551460
H       40.48323441      33.09247589      16.85610580
H       39.97549438      31.63513756      14.89511585
H       40.08203506      33.00119019      13.73945332
H       37.60320282      32.83811951      13.34169006
H       37.51101685      31.49076462      14.48967361
H       36.88938141      31.39907265      11.52477932
H       36.84728622      29.94676399      12.55359650
H       38.85618210      30.46303368      10.27860451
H       38.64576340      28.89992523      11.12064266
H       35.95006943      28.16868401      10.95047951
H       37.11326218      27.41629982       9.80187511
H       35.64775085      28.22768974       9.21170521
C       11.01199627      17.11419868      35.23269653
O       12.07113361      18.04546738      35.44183731
C       13.33800030      17.37564850      35.60960770
C       14.32002163      18.44129181      36.07636261
O       15.57237720      17.78414917      36.31973648
C       16.58179665      18.76313782      36.56344986
C       17.82541656      18.00040817      37.06412506
O       18.81032753      18.93818474      37.52197647
C       19.50949478      19.58941078      36.43140030
H       11.02054787      16.31783295      35.99866867
H       10.06107807      17.65929413      35.31356430
H       11.06968498      16.63777733      34.24036789
H       13.65682888      16.90568352      34.66097641
H       13.24542522      16.56606865      36.35509109
H       13.98068714      18.96704483      36.98603439
H       14.42032528      19.18962097      35.27158356
H       16.22656631      19.49195290      37.31526566
H       16.78466797      19.29236794      35.61882401
H       17.55044556      17.36929893      37.92856598
H       18.20953751      17.33032227      36.27373123
H       18.80799294      20.08829880      35.74136734
H       20.11035538      18.86593437      35.86027908
H       20.17853355      20.32995033      36.89363480
C       26.48713875      15.13704586      14.37163639
O       25.82073402      14.17112350      15.20901966
C       24.71972847      13.65859604      14.44804001
C       23.99049568      12.74512672      15.40376186
O       22.96100616      12.07827377      14.64849091
C       22.31849861      11.15754795      15.53781128
C       21.34977150      10.35742664      14.68564320
O       20.66144180       9.50931740      15.62806225
C       20.53723526       8.12965775      15.31381607
H       25.80377197      15.97173595      14.13455105
H       27.34955788      15.51474857      14.93639851
H       26.79390335      14.67324638      13.41640472
H       25.05273628      13.10361195      13.54865551
H       24.03513527      14.46298122      14.11137962
H       23.54813766      13.31014347      16.24821663
H       24.69003105      12.00964451      15.83982944
H       21.79504013      11.69294262      16.35994530
H       23.05870628      10.47693157      15.99589157
H       20.60927200      11.00328350      14.18065071
H       21.84973717       9.78466129      13.88924026
H       21.46818733       7.57714701      15.52125072
H       20.24483109       7.96765137      14.26486206
H       19.72412109       7.74768066      15.95136166
C       14.66603184      12.73357201      15.31210804
O       14.86282825      13.53230858      16.49323654
C       13.61632156      13.80513477      17.18417549
C       13.90163898      14.93088818      18.16112137
O       12.61243820      15.37399006      18.59495354
C       12.72529888      16.38210297      19.60355186
C       11.30486584      16.86250877      19.85925865
O       11.26337147      17.66524124      21.04958153
C       11.31497669      16.95050430      22.28400803
H       14.08324718      13.30036259      14.56357002
H       15.63421822      12.44458675      14.88502884
H       14.11557770      11.80672741      15.55256271
H       13.22069359      12.90712643      17.69127846
H       12.84923077      14.13253975      16.46275520
H       14.44283581      15.75135517      17.65406227
H       14.51345730      14.61350155      19.02954865
H       13.31719208      17.24289703      19.24231720
H       13.17608356      15.98901081      20.53257751
H       10.96002293      17.49919891      19.02561951
H       10.60903645      16.00590897      19.90668297
H       12.25473118      16.37133789      22.39196587
H       10.45750809      16.25138092      22.37806702
H       11.25371456      17.68478203      23.10259056
C       31.32764435      21.75984955       8.46185303
O       30.18765068      21.66768456       9.33354664
C       30.30538559      20.48701096      10.16433334
C       29.21143150      20.67517281      11.19754314
O       29.00008583      19.42122459      11.86711597
C       27.93977928      19.58049393      12.81993580
C       27.97738266      18.25341034      13.57204437
O       26.94705772      18.20916748      14.56555080
C       27.21108437      19.00006104      15.71889210
H       31.39404488      20.88456917       7.79502153
H       31.17309380      22.65393257       7.84764910
H       32.25452042      21.84783936       9.04080296
H       31.29722214      20.43316269      10.64175606
H       30.15309906      19.57788086       9.55588436
H       28.27631569      20.99067879      10.70662212
H       29.46728325      21.46125221      11.93388939
H       26.96036530      19.72440529      12.32543087
H       28.10848045      20.42961502      13.50743484
H       27.81061745      17.41804314      12.87337685
H       28.97412109      18.12821770      14.02673244
H       27.40729523      20.04844475      15.47073078
H       28.04470062      18.60838699      16.33116341
H       26.30499649      18.98144150      16.34820557
C        6.26326036      17.15707970      29.18460274
O        5.64201498      18.33574295      28.65816689
C        6.34766626      18.80448341      27.48224068
C        5.54122114      19.94248962      26.85800552
O        6.40418482      20.39850998      25.81562424
C        5.73356581      21.02567101      24.70279121
C        6.74511623      21.11219788      23.54782867
O        6.17762661      21.90103912      22.48303413
C        5.35232353      21.14885139      21.57573128
H        7.36381626      17.26280975      29.22479630
H        5.89670420      17.00414085      30.20758438
H        6.00285912      16.26837540      28.58333015
H        6.46071529      17.99544716      26.73660851
H        7.35731316      19.14961243      27.77296448
H        5.29913712      20.74098969      27.58328247
H        4.58493853      19.55986023      26.44917679
H        5.39020014      22.02597237      24.99473763
H        4.84270334      20.45719719      24.38989449
H        7.65420532      21.62354851      23.89005852
H        7.01830816      20.11370277      23.17128181
H        4.54294252      20.59972572      22.08565712
H        5.92396975      20.41279411      20.98543167
H        4.87950611      21.86238289      20.89301300
C       21.44850540      18.24507332      14.12268162
O       22.56785965      17.73149300      14.87495804
C       22.09845734      16.69659996      15.76897526
C       23.17765617      16.51557541      16.82441902
O       22.65900803      15.61189175      17.81898880
C       23.71269798      15.34904671      18.76032448
C       23.13675117      14.44474220      19.83514214
O       24.18110275      14.08455372      20.75128555
C       24.65663528      12.74682522      20.64323235
H       20.76213646      18.81599236      14.76794720
H       21.83746910      18.88443184      13.32183456
H       20.85547638      17.43552208      13.66989326
H       21.89790154      15.77411938      15.18796921
H       21.13643456      16.98918915      16.23440170
H       23.44023514      17.48337746      17.29795265
H       24.10093880      16.10648155      16.36384010
H       24.08189392      16.28345871      19.22842026
H       24.55832672      14.84822559      18.24998093
H       22.36100769      14.97344112      20.41562271
H       22.63192177      13.57340240      19.37744331
H       25.16638374      12.58882809      19.67321396
H       23.83270073      12.01221466      20.69350433
H       25.36388016      12.56293201      21.46730232
C       38.69078827      24.10123062      41.08830261
O       38.93112946      25.42338181      40.64404678
C       37.85509491      25.95865631      39.87174225
C       38.07662201      27.46132660      39.94653702
O       37.01317978      28.06829834      39.24046707
C       37.07164764      29.48520470      39.37134552
C       35.98106003      30.07166100      38.47468185
O       36.01111984      31.49790573      38.65446472
C       34.88567352      32.11188507      39.27121353
H       38.61680222      23.37668037      40.26153564
H       39.50960159      23.80736160      41.75972366
H       37.74400330      24.05095291      41.65299225
H       36.86368179      25.70869064      40.28639221
H       37.87591553      25.59506607      38.82650757
H       39.05135345      27.69602394      39.48065567
H       38.12663269      27.79754066      41.00049210
H       38.06057358      29.85655785      39.04961395
H       36.93704987      29.78495407      40.42519379
H       36.18251038      29.84064484      37.41701126
H       34.99453735      29.65063667      38.71432495
H       34.81660843      31.88218880      40.35041428
H       33.94680786      31.81082344      38.78851700
H       35.00999832      33.19653320      39.15303040
C       22.08867836      12.28463268      11.89959812
O       21.67106247      12.32291412      10.53842354
C       20.24192810      12.15466690      10.39961720
C       19.95639610      12.29416656       8.91254330
O       18.53315926      12.40740204       8.78139687
C       18.17902184      12.79140854       7.44626379
C       16.65359497      12.94248676       7.39786196
O       16.21715164      12.78197193       6.04320097
C       15.97045135      13.98164463       5.32642365
H       22.04093361      11.26020718      12.29932499
H       23.11413574      12.67024803      11.97334290
H       21.44757271      12.89912415      12.56579876
H       19.70512962      12.91019058      11.00868416
H       19.91347504      11.16923428      10.76734638
H       20.32549667      11.41507530       8.35297012
H       20.47003555      13.19038200       8.52134800
H       18.48517990      12.01445007       6.72356987
H       18.68964958      13.73484421       7.17474699
H       16.19330978      12.14177895       7.99991608
H       16.31087494      13.89981079       7.82994747
H       16.85907364      14.63010597       5.33508587
H       15.10081768      14.51755333       5.74043131
H       15.74218941      13.68067265       4.29539061
C       41.81108475      14.68048859      16.79130936
O       40.40953064      14.88575745      16.64540100
C       39.62612534      13.85933685      17.27684402
C       38.20310211      14.30479717      16.97827530
O       37.27594376      13.35841942      17.49781609
C       35.97933197      13.65461254      16.97595406
C       34.99108124      12.70182133      17.62758255
O       33.67554474      13.13290882      17.20356369
C       32.60555649      12.80326557      18.09406471
H       42.12976456      13.74862099      16.29937172
H       42.31265640      15.52308846      16.30253220
H       42.10916138      14.64416885      17.84829712
H       39.83689117      13.80981827      18.35928917
H       39.84226608      12.87892723      16.82100487
H       38.08692551      14.36790371      15.88143444
H       37.98751450      15.31357098      17.38163567
H       35.94548798      13.52897167      15.87268448
H       35.66885757      14.69157696      17.20306969
H       35.17005157      11.67066193      17.28375435
H       35.07918549      12.72405529      18.72564125
H       32.24169922      13.68990993      18.63059425
H       32.91392517      12.06208134      18.85013771
H       31.76612091      12.36279392      17.53591728
C       15.28258228      17.32382393      31.59541130
O       16.65214157      17.71599197      31.58438683
C       17.42268753      16.95072365      32.54306412
C       18.85741806      17.41645813      32.39598846
O       19.61375046      16.74409485      33.40752792
C       20.96925354      17.19505310      33.32265472
C       21.67831993      16.77961922      34.61392593
O       22.81501961      17.62417984      34.78026199
C       24.00698090      17.10072899      34.19205475
H       14.79035759      17.54206657      32.55970764
H       14.73513985      17.85419464      30.80092239
H       15.18200111      16.24041748      31.41750145
H       17.32183266      15.87251663      32.33372116
H       17.02940369      17.12075996      33.56483841
H       18.91125679      18.51169586      32.52989197
H       19.22444534      17.17674446      31.37738419
H       20.99637985      18.29585838      33.25022507
H       21.44492722      16.78872871      32.40465927
H       20.99964714      16.95678520      35.46865463
H       21.93026543      15.70554829      34.61973953
H       23.86234474      16.90744209      33.11304474
H       24.30754662      16.15543747      34.67762375
H       24.79048920      17.86050987      34.32281494
C       29.56765747      30.88371468      40.23559570
O       29.98221970      30.19471550      39.06223679
C       31.29363441      29.62242508      39.18240356
C       31.45178604      28.67469215      38.00577927
O       32.74163818      28.10068321      38.20618439
C       33.08227158      27.09078598      37.26670456
C       34.31344223      26.42310905      37.86736298
O       34.66137695      25.31186867      37.01500320
C       34.48174286      23.97628975      37.52463150
H       30.29627609      31.64242554      40.55495834
H       28.62027359      31.38560486      40.01244736
H       29.38389778      30.19852638      41.07657242
H       31.39230156      29.08485413      40.13726425
H       32.05838013      30.41161919      39.14078140
H       31.38608932      29.20029640      37.03551102
H       30.66102600      27.90699196      38.02214813
H       33.33381653      27.52972031      36.28345490
H       32.27292252      26.36105537      37.10956573
H       35.14534760      27.13579369      37.87150192
H       34.10964203      26.10710907      38.90076828
H       33.47877884      23.88736534      37.96383286
H       35.25107193      23.74362755      38.27213669
H       34.54455185      23.27321815      36.68415833
C       18.63418388      31.80736923      28.30730820
O       17.54051971      31.51098442      29.18375015
C       17.17851448      32.72900009      29.87955666
C       15.93440533      32.50827789      30.73900604
O       15.60570049      33.82033539      31.22207832
C       14.29704666      34.01057434      31.76453400
C       14.31768131      35.43845749      32.33419800
O       13.14783192      35.76773453      33.09206009
C       11.97092533      36.01156235      32.34992981
H       19.49144936      32.21762085      28.86423492
H       18.92481613      30.88320541      27.78924179
H       18.33183479      32.53783417      27.53425980
H       16.94039536      33.51197815      29.13442612
H       18.01931000      33.07355881      30.50368690
H       16.12478065      31.81324959      31.57839966
H       15.10307789      32.09750366      30.14252663
H       14.07487869      33.29667664      32.57607651
H       13.52886391      33.88608551      30.97592735
H       15.15482140      35.54659653      33.04383469
H       14.46129608      36.14324951      31.50010872
H       11.55725574      35.11788559      31.86369514
H       12.14257908      36.78670120      31.58504868
H       11.21235943      36.37625885      33.06110382
C        7.31419659      32.74058914      19.22753906
O        8.67284203      32.88870239      18.83036613
C        9.24063206      31.78433037      18.10507202
C       10.64993858      32.22636414      17.74509239
O       11.25822067      31.17245674      16.97837257
C       12.57501411      31.58562469      16.56643867
C       13.16419697      30.39918137      15.78506184
O       14.57326031      30.61894798      15.58721256
C       14.87321377      31.44436455      14.43598461
H        7.13629389      31.80903625      19.79789543
H        7.01129007      33.59413528      19.85393715
H        6.65006256      32.68502045      18.34498215
H        8.64649487      31.56439400      17.19886208
H        9.24842262      30.85844612      18.71200180
H       11.21946049      32.46449280      18.66098595
H       10.57550240      33.13980103      17.13359642
H       13.18740463      31.83433723      17.45494461
H       12.50426960      32.48128891      15.91913128
H       13.06334877      29.46747780      16.36414337
H       12.62434196      30.24427605      14.83007622
H       14.35400009      32.41099548      14.48873234
H       14.55500698      30.93454361      13.50984478
H       15.96446037      31.58979988      14.39602947
C        2.60602355      26.55252838      28.24444580
O        3.62607646      26.01425934      29.06676674
C        4.80364180      26.85124969      29.13724327
C        5.85789537      26.05386925      29.90138817
O        6.98463011      26.91073227      30.06537247
C        7.94692135      26.31610489      30.94318390
C        8.81465054      27.45771217      31.48027802
O        9.73089504      26.97285271      32.48070145
C        9.26160812      26.99298477      33.82838821
H        2.89526367      26.54448128      27.17602730
H        1.71562266      25.92190742      28.37407112
H        2.36401486      27.58600235      28.53439140
H        4.56748295      27.79692459      29.64782143
H        5.15040493      27.05824471      28.11224937
H        6.10923290      25.13133430      29.34544373
H        5.45101976      25.73453522      30.88047600
H        8.55690575      25.56037331      30.41164017
H        7.46591759      25.78145218      31.78260803
H        9.40768147      27.87427711      30.64931679
H        8.18818760      28.26969337      31.89450836
H        8.40625858      26.31224632      33.96037292
H        8.93183422      28.00292015      34.12333679
H       10.07195854      26.67082787      34.49600601
C       15.36061382      18.16326332      14.26004219
O       14.12396717      17.54654312      13.86540985
C       13.46956348      17.02730560      15.04385281
C       12.19920444      16.35393333      14.54184341
O       11.48923874      15.98476410      15.72651577
C       10.17964840      15.47900581      15.46352196
C        9.71800137      15.05577660      16.85552216
O        8.42614651      14.42467690      16.78566360
C        7.36386156      15.32881832      17.12736130
H       16.01760864      17.44417000      14.77941322
H       15.85768986      18.53539848      13.35448742
H       15.17488956      19.01542091      14.93929482
H       13.21159363      17.82827950      15.76808071
H       14.11691475      16.30166817      15.56934452
H       12.41868973      15.47086811      13.90888405
H       11.61438179      17.06051445      13.92627239
H       10.20248890      14.62395287      14.76453304
H        9.49951649      16.23089218      15.02424622
H       10.42915726      14.32023525      17.26923370
H        9.70201206      15.90161133      17.56523895
H        7.38075352      16.24686432      16.52638245
H        7.36775923      15.59040165      18.19677353
H        6.41155577      14.82652855      16.90667343
C       34.75095367      12.50155354      23.41739464
O       33.43790054      12.63300991      23.98342323
C       33.44617844      12.38101101      25.41497993
C       31.99849319      12.46888161      25.87626266
O       32.04377747      12.47659683      27.31240845
C       30.78281212      12.79455662      27.92004967
C       31.07982635      12.86994839      29.41448212
O       29.87223625      12.96108532      30.20365906
C       29.43216896      14.28177357      30.54360580
H       35.17413712      11.51218224      23.64276886
H       34.67372513      12.59651184      22.32339287
H       35.42114639      13.27583981      23.82217979
H       34.05102158      13.13468933      25.94169807
H       33.86314774      11.38255787      25.62031174
H       31.41710091      11.60907078      25.50307655
H       31.50815964      13.38177967      25.49577332
H       30.02958679      12.01558781      27.70359802
H       30.37065315      13.74890518      27.55044365
H       31.59025002      11.94668102      29.72517204
H       31.74412155      13.72198963      29.62285233
H       28.96350098      14.78137779      29.68364143
H       30.24434662      14.91122341      30.92399216
H       28.65951920      14.18252277      31.31987190
C       13.69032001      26.39592743      33.97713089
O       13.81448460      26.67086029      35.37527466
C       15.15660477      26.44206047      35.87226486
C       14.99035835      26.32361221      37.38648987
O       16.28737450      26.12141037      37.95966339
C       16.46898460      26.58731461      39.29922485
C       17.97674370      26.38895035      39.57317734
O       18.32429695      26.42626381      40.96467972
C       18.34536171      27.68638229      41.61577988
H       13.83468246      25.32563400      33.76734161
H       12.66372490      26.63788605      33.67097855
H       14.39694023      26.97605515      33.36452866
H       15.82667828      27.28315163      35.63532257
H       15.58377171      25.53094864      35.42059708
H       14.32997704      25.46968651      37.60783768
H       14.50457859      27.22107887      37.80786896
H       15.85971451      26.00430107      40.01106262
H       16.18783379      27.65360260      39.38274384
H       18.23644638      25.37630272      39.22315216
H       18.55097198      27.11187363      38.96845245
H       17.36718559      28.18935394      41.57955933
H       19.10378838      28.35885429      41.19190216
H       18.57355499      27.50103760      42.67896652
C        9.27796650      41.09510040      10.66267204
O        8.25290489      40.53222275      11.48679447
C        7.68510294      39.40970612      10.80257702
C        6.70347548      38.76052094      11.77361202
O        6.14120102      37.64658356      11.06529713
C        5.11361980      36.97913361      11.82065868
C        4.20494652      36.27492905      10.79580688
O        2.90824342      36.02075577      11.36622143
C        2.82812929      34.88961029      12.23213196
H        8.87458420      41.42942047       9.69324493
H        9.71203709      41.94728851      11.19393349
H       10.07245731      40.36228943      10.45370865
H        8.45677185      38.67962265      10.48902607
H        7.15202427      39.72090530       9.88651371
H        5.89963436      39.45444107      12.08518410
H        7.21863890      38.43432236      12.69349003
H        4.52079725      37.70386505      12.40993214
H        5.54754400      36.26825333      12.54255104
H        4.03233337      36.95399857       9.94957256
H        4.65765142      35.35175323      10.38562870
H        3.41169858      35.01304245      13.15593719
H        3.14604211      33.96544266      11.72133541
H        1.76727211      34.75995636      12.49017239
C       35.72956467       7.73597860      28.52018738
O       36.09111023       9.02261066      29.02685547
C       36.28550339       9.99327278      27.96251678
C       36.67807007      11.25705242      28.69487381
O       36.57966995      12.33349133      27.76164246
C       36.73646927      13.53984451      28.52313042
C       36.77697372      14.69047165      27.53283882
O       37.00903320      15.89715481      28.28018570
C       35.97282410      16.35272598      29.16081619
H       36.24307251       7.49013424      27.57366753
H       35.99165344       6.98019934      29.27277756
H       34.64701843       7.68139219      28.31916618
H       35.34471893      10.12969398      27.40120888
H       37.04430389       9.63325882      27.24784660
H       37.70225525      11.20216846      29.10953140
H       36.00983810      11.42357540      29.55710030
H       37.66131592      13.52795982      29.12931824
H       35.90218735      13.66229153      29.23296356
H       37.60668564      14.57884407      26.81289291
H       35.83663177      14.74463749      26.95783043
H       35.69821930      15.61832333      29.93876076
H       35.05376053      16.56952477      28.58347130
H       36.32534409      17.27308464      29.65274429
C       31.91393852      32.70632553      32.64205170
O       32.11947250      33.16455841      33.97012329
C       30.94239807      33.20924377      34.79030228
C       31.46173859      33.71758270      36.13199615
O       30.35331154      33.92735291      36.98848724
C       30.73123741      34.54858398      38.21078873
C       29.43909073      34.76643753      38.99898148
O       29.74799538      35.42958069      40.23078537
C       29.74893379      34.66872025      41.42880630
H       31.05093765      33.21237946      32.18335724
H       32.80464172      32.91184998      32.04114532
H       31.71496582      31.62653923      32.62192917
H       30.46793556      32.22077942      34.89111710
H       30.18990707      33.90033722      34.37506485
H       32.03067780      34.65211487      35.99199295
H       32.14561844      32.96947861      36.56884003
H       31.22381210      35.52083206      38.03390121
H       31.42099380      33.91703033      38.79345703
H       28.74116707      35.39858627      38.42758942
H       28.93019676      33.80387878      39.14508438
H       30.53700829      33.89925385      41.43748093
H       28.77771568      34.17995834      41.60200882
H       29.92899513      35.34762955      42.27417755
C       14.30533981       0.81272846      36.97590256
O       13.37822247       1.88232052      37.00377655
C       13.10677910       2.41037798      35.69388962
C       12.33904266       3.69493151      35.97678375
O       11.89019012       4.16314840      34.71102524
C       11.66779232       5.58228064      34.75660706
C       11.34597778       6.05591011      33.34090042
O       10.26027012       7.02336264      33.34420395
C        8.95810413       6.47090864      33.12128830
H       15.27345085       1.13047087      36.56066132
H       14.46345234       0.49808928      38.01584625
H       13.92652225      -0.03980720      36.38888931
H       12.52571106       1.69150114      35.09015656
H       14.03732204       2.62554812      35.14356995
H       13.01657963       4.41932487      36.45700073
H       11.49841118       3.51770043      36.67473602
H       12.56355667       6.09302664      35.15349197
H       10.82721615       5.79627180      35.43925476
H       12.20460224       6.58112335      32.89111710
H       11.10529518       5.20867014      32.67856216
H        8.70504761       5.70348072      33.87213135
H        8.85051250       6.05099535      32.10850525
H        8.24287796       7.29673290      33.22647095
C       15.00692654       6.38293409      38.37394333
O       14.44596958       7.56896257      37.81338120
C       13.83289242       8.38609600      38.81834793
C       13.50120068       9.71262550      38.16030121
O       13.19059086      10.59518051      39.23423386
C       12.79892635      11.88398457      38.78536224
C       12.73005104      12.77841377      40.02223969
O       12.07212353      13.99412155      39.63872147
C       12.87510300      15.16646290      39.72520828
H       14.20970154       5.69703865      38.70323944
H       15.59079742       5.86703444      37.60420609
H       15.65407276       6.61878681      39.23478317
H       14.50633526       8.55333328      39.67489243
H       12.91280556       7.91635466      39.20013809
H       12.65067005       9.58579063      37.45948792
H       14.36704826      10.06043816      37.56703186
H       11.81216717      11.84016132      38.28995132
H       13.51688862      12.30674648      38.05644989
H       12.14592838      12.29362869      40.82294846
H       13.73677731      12.97319603      40.42600250
H       13.62244987      15.20073318      38.91007614
H       13.39097404      15.27400684      40.69206619
H       12.20764732      16.02713013      39.56750488
C        9.04839993       9.59922600       7.08846331
O        8.12580013      10.61653709       7.47046089
C        6.75206423      10.22518635       7.30051565
C        5.98412991      11.28503323       8.08951187
O        4.60675573      10.93853664       8.02113914
C        3.82957530      11.86444950       8.75661755
C        2.40681362      11.30245781       8.81138706
O        1.59713376      12.31013393       9.44728661
C        1.50061774      12.31176186      10.85673141
H        9.05362511       9.42356110       5.99961424
H       10.04503441       9.89339066       7.43563843
H        8.77328587       8.65357208       7.57467747
H        6.58225441       9.22984600       7.73246431
H        6.45677185      10.19790554       6.23913002
H        6.18518209      12.28784657       7.66819096
H        6.33647251      11.28677845       9.14004326
H        3.80358362      12.85764599       8.27217007
H        4.19780397      12.00533009       9.79235554
H        2.02062631      11.11471462       7.79598427
H        2.39812255      10.35166073       9.36140537
H        2.46215606      12.49242115      11.36210442
H        1.06307018      11.37241745      11.23863602
H        0.82542312      13.14398384      11.12555027
C       20.51102638      28.87085152      19.42237854
O       21.79230118      28.39988327      19.84297562
C       22.83623123      29.34048462      19.52828598
C       24.13616371      28.56855583      19.64093399
O       25.17765617      29.38421631      19.09529495
C       26.45844650      28.90213394      19.53297424
C       27.55468750      29.61613655      18.73227310
O       28.80222893      28.92169762      18.95487404
C       29.35229301      29.04174805      20.27252388
H       20.52915192      29.29837036      18.40585709
H       19.83198547      28.00525284      19.39854050
H       20.07552338      29.60996437      20.11294746
H       22.78594971      30.21963692      20.20103645
H       22.68493271      29.68500900      18.49097443
H       24.06267548      27.61972046      19.06575775
H       24.33200836      28.30583000      20.69273758
H       26.53493118      27.82030678      19.31738663
H       26.57823753      29.05373383      20.62059212
H       27.34275818      29.54233742      17.64945793
H       27.61822891      30.68617821      18.99478149
H       28.77435875      28.46858978      21.02240181
H       29.39667511      30.10349083      20.58510780
H       30.36855698      28.61756134      20.23021698
C       10.10761833      24.59790421      28.01993370
O        9.42948055      23.35188866      28.25447083
C       10.36353207      22.40592384      28.80725670
C        9.54017067      21.13833046      28.94275284
O       10.25927925      20.25437546      29.80867195
C        9.41149807      19.14207077      30.11155891
C       10.19383049      18.34771538      31.15463066
O        9.42898273      17.20890236      31.56989479
C        8.41971016      17.50738907      32.53638458
H       10.92748547      24.46837234      27.28740692
H        9.33823395      25.26119614      27.59941483
H       10.52248955      25.01202011      28.95316696
H       10.75489426      22.75141335      29.78320122
H       11.22361660      22.26336670      28.11935616
H        9.33177567      20.67057610      27.95840645
H        8.54575539      21.38185501      29.35755348
H        9.22208595      18.54307747      29.19805336
H        8.41857529      19.46976471      30.48643303
H       11.12294960      17.95488358      30.71039963
H       10.44523621      18.97827530      32.02254868
H        7.60818005      18.13061523      32.12386322
H        8.80928326      18.00915146      33.43170547
H        7.95941639      16.55731773      32.84249496
C       19.40049362      36.38505173      17.25424957
O       19.84006500      35.11576462      16.76275826
C       20.45989418      35.22145844      15.45760918
C       21.03863716      33.85668182      15.11228466
O       21.64280701      34.01658630      13.82221031
C       22.56332207      32.95285416      13.50727272
C       23.18970680      33.22796249      12.13670254
O       23.77312851      32.02805328      11.56224728
C       25.08239555      31.70290756      12.05867958
H       18.61234283      36.79243851      16.59712982
H       18.95365334      36.25151062      18.24953270
H       20.23374939      37.10193253      17.32358551
H       21.27139854      35.96700668      15.49453259
H       19.70740891      35.53414154      14.71211433
H       20.25111771      33.08038330      15.08141327
H       21.78474998      33.57729721      15.88244343
H       22.01908684      31.99226379      13.45494461
H       23.35158157      32.89245224      14.27709961
H       22.40172958      33.52521896      11.42397404
H       23.92247009      34.04800034      12.19556046
H       25.08059311      31.46506310      13.13421822
H       25.81058884      32.50115967      11.85033512
H       25.37163353      30.77908134      11.53790092
C       18.61283302      27.31318665      35.91154861
O       17.91734314      28.36865425      36.58678436
C       18.06134605      29.62190437      35.88871765
C       17.17525673      30.61163330      36.63523865
O       17.23698997      31.81655502      35.85924149
C       16.34113503      32.80504990      36.40998077
C       16.41567421      34.01037216      35.45910645
O       15.73212719      35.14542007      35.99221802
C       14.34388161      35.04365158      36.29121399
H       19.70203018      27.44850349      35.97396851
H       18.28372383      26.38145065      36.39727402
H       18.34436035      27.26175308      34.83721542
H       17.71977043      29.50071144      34.84334183
H       19.12046242      29.93379784      35.86614990
H       17.49211311      30.79743004      37.67720795
H       16.13456345      30.24553108      36.68330002
H       16.62660408      33.07334137      37.44645309
H       15.30709457      32.42061234      36.41848373
H       17.46656990      34.31586075      35.32791519
H       16.02484131      33.73781967      34.45937729
H       14.12029934      34.24383545      37.01449585
H       13.74986935      34.85993958      35.38145065
H       14.05359459      36.00754166      36.72838593
C       30.36734009      25.71549225      11.88408947
O       31.77362061      25.51400948      11.79754925
C       32.50570297      26.41362381      12.65793514
C       33.95050812      26.00156021      12.44449902
O       34.74054337      26.62833214      13.45576000
C       36.09424591      26.14682770      13.42037868
C       36.78478241      26.83375740      14.59142208
O       38.20801163      26.58064461      14.55034161
C       38.66475677      25.46090698      15.31827068
H       30.06900024      26.75202560      11.66676998
H       29.88769531      25.07204247      11.13315296
H       29.95897102      25.43163681      12.86493969
H       32.20059967      26.31430817      13.71267891
H       32.30591202      27.45942307      12.36783981
H       34.28745651      26.29350281      11.43277645
H       34.02543259      24.89800644      12.49389839
H       36.57330322      26.41124725      12.46026325
H       36.12674713      25.04798889      13.51238632
H       36.64406204      27.91770172      14.48684311
H       36.31379700      26.52750969      15.53926945
H       38.33743286      24.50992966      14.87510586
H       38.29159546      25.48959351      16.35438347
H       39.76202393      25.47867966      15.34143543
C        3.98051047      11.63657761      15.77708626
O        4.35405016      10.39804268      16.35737991
C        4.90154552       9.47826004      15.40997887
C        5.33005428       8.29434299      16.26014328
O        6.09475994       7.42179680      15.43693829
C        6.74812126       6.42522478      16.24045944
C        7.58696413       5.61097383      15.23876381
O        7.77193117       4.26220083      15.67191410
C        8.86211681       4.05652189      16.55426979
H        3.18275332      11.49369049      15.02859020
H        3.60516334      12.27508450      16.58633041
H        4.83900404      12.11875248      15.28338146
H        5.79690456       9.88635349      14.91004658
H        4.16212749       9.19120789      14.63746357
H        4.44547939       7.78927946      16.67969131
H        5.92083025       8.68492126      17.10697556
H        6.00455618       5.78110790      16.74243736
H        7.37244606       6.90126324      17.01796913
H        7.04894876       5.55024481      14.27767658
H        8.54950047       6.11915112      15.04216194
H        8.82485199       4.68304157      17.46262550
H        9.82792568       4.23839045      16.04788589
H        8.83170033       3.00023818      16.86291885
C       23.03813553      13.32277679       1.50520146
O       23.35090828      14.63871574       1.93378723
C       24.67731667      14.76213264       2.46108103
C       24.77452660      16.22708511       2.87103105
O       26.06305885      16.39651108       3.43904042
C       26.30504417      17.74275589       3.84095287
C       27.75532913      17.74963951       4.32852554
O       28.12206650      19.07082748       4.74421024
C       28.63488579      19.83867836       3.64992785
H       22.95813370      12.64432812       2.37307882
H       22.05947495      13.35312653       1.00555182
H       23.78460884      12.94745445       0.79101425
H       25.42087555      14.49892521       1.68371117
H       24.83580780      14.10569096       3.33298063
H       23.97501755      16.50345993       3.58405709
H       24.64439964      16.84537697       1.96745467
H       25.60589600      18.07319641       4.63302517
H       26.18124390      18.41825104       2.97782087
H       27.86189461      17.10368347       5.21197701
H       28.41792679      17.37609482       3.52906680
H       27.89363098      19.93660164       2.84288788
H       29.55236435      19.37484360       3.24524450
H       28.85216904      20.83423996       4.06009912
C       26.29634476      28.43159103      29.66863251
O       25.35367584      27.83033943      28.77688599
C       25.47030067      28.32712936      27.42969513
C       24.86043930      27.25260735      26.55690575
O       24.86646271      27.73723221      25.21623039
C       24.05690765      26.88824844      24.39819145
C       24.03024292      27.46287727      22.98916245
O       23.00704002      26.80263710      22.21677399
C       23.34751511      25.49189186      21.77268982
H       26.25646591      29.53212547      29.62792587
H       26.05581856      28.11934853      30.69334221
H       27.32518578      28.11900902      29.44241905
H       26.51751900      28.49597931      27.13606453
H       24.91676712      29.27196312      27.31480026
H       23.83040810      27.04962730      26.89871407
H       25.43279266      26.30547142      26.62538147
H       23.01899338      26.88471413      24.76827049
H       24.43151665      25.84930801      24.38631248
H       23.73729134      28.52584648      23.02568436
H       25.02319527      27.38698006      22.50054932
H       23.77728844      24.83948517      22.54832268
H       24.03332329      25.55536461      20.89857483
H       22.41986847      25.00980377      21.42654800
C       12.48071194      29.68057251      23.39122391
O       13.58018112      30.22996330      22.66033173
C       13.76504517      29.60100937      21.37603951
C       15.17411613      29.91917038      20.92008018
O       15.36452293      29.18869781      19.69973183
C       16.66456604      29.48413277      19.15315819
C       16.81655121      28.65914154      17.86659813
O       18.15319252      28.80365753      17.33732033
C       18.35493660      30.03348160      16.60850334
H       12.68178082      28.64281273      23.72216225
H       12.28130054      30.30206871      24.27559662
H       11.55903435      29.67136574      22.77689362
H       13.00620079      29.98408318      20.67410851
H       13.62620831      28.50529861      21.42597198
H       15.89813232      29.61758423      21.70099831
H       15.26791382      31.01267433      20.75498581
H       17.45375824      29.22664070      19.88278198
H       16.71400070      30.56543541      18.93255806
H       16.68516922      27.58107758      18.07705307
H       16.05708122      28.95112038      17.11375618
H       18.14307594      30.91703415      17.22618103
H       17.69203186      30.06076241      15.72246456
H       19.40467834      30.03948784      16.27164841
C       20.85551643      41.52576065      20.52872086
O       21.47005463      40.89804459      21.64350891
C       22.12209702      39.67563629      21.28205490
C       22.74910355      39.18661499      22.57581520
O       23.32728195      37.91278839      22.27330780
C       23.94920540      37.31713867      23.42495346
C       24.63869286      36.06367493      22.87742615
O       24.74672890      35.06465912      23.89994240
C       25.93147659      35.03632355      24.68082047
H       19.99205780      40.94044876      20.17454147
H       20.51763916      42.51360321      20.86654472
H       21.57108688      41.62174988      19.69364548
H       22.90300560      39.85288620      20.51752853
H       21.41834259      38.93619156      20.85680962
H       21.97386551      39.10217667      23.35696983
H       23.52000427      39.89111710      22.93675613
H       23.18423462      37.04264450      24.17250824
H       24.66176033      38.02180099      23.89314461
H       23.99489212      35.62043762      22.09461403
H       25.61098862      36.28830338      22.39982986
H       26.08966255      35.95264816      25.26989555
H       26.84055710      34.84338760      24.08395386
H       25.84180260      34.19646072      25.38605309
C       12.82056427      11.31190300       7.62358999
O       12.36584568      10.20018578       8.39384365
C       13.47518444       9.45578861       8.90740967
C       12.85656071       8.43034554       9.85942078
O       13.90589905       7.95212746      10.71762276
C       13.40561199       7.14875937      11.81105328
C       14.64445305       6.46822357      12.39304066
O       14.27044773       5.30544615      13.15010548
C       14.20553112       5.44837284      14.57177544
H       13.42537689      10.97521210       6.76582003
H       11.93108749      11.85113239       7.27280188
H       13.43385792      11.97890186       8.24612808
H       14.17466450      10.10252571       9.46565056
H       14.03055763       8.96969795       8.08087349
H       12.38444614       7.59101868       9.31464386
H       12.05706978       8.91617107      10.44627762
H       12.68407631       6.40377378      11.43449116
H       12.87685585       7.78111267      12.55282879
H       15.24118233       6.09313631      11.54525280
H       15.26296043       7.16367245      12.98567963
H       13.57626534       6.28700209      14.89737988
H       15.18630028       5.58768988      15.05165672
H       13.75391865       4.52630186      14.96636963
C       18.24689674      16.48921394      10.99914169
O       19.58652306      16.83407211      11.32347107
C       20.54407120      16.45843315      10.30561066
C       21.84572029      16.34733963      11.07600307
O       22.82699013      15.74875832      10.22195148
C       23.99134445      15.48299885      11.01408577
C       24.92884636      14.65949631      10.13094616
O       26.15631676      14.41283989      10.84385014
C       27.11305809      15.47608185      10.63849640
H       18.11882210      15.40030193      10.88903809
H       17.60245514      16.82244492      11.82284832
H       17.91224289      16.97303963      10.06492710
H       20.58688736      17.21357918       9.50225353
H       20.29463959      15.49135590       9.84254456
H       21.65112114      15.72029114      11.96789551
H       22.17585754      17.33129501      11.45086479
H       23.70601273      14.91197014      11.91941071
H       24.45943832      16.42374992      11.35633183
H       24.47735977      13.68204880       9.88817978
H       25.10097504      15.18289661       9.17680454
H       26.72158623      16.43583679      11.01473999
H       27.35429192      15.56454754       9.56427765
H       28.01157761      15.21743393      11.21499538
C       37.28258896       2.55098248      13.86727715
O       37.43981934       3.59659338      12.93044949
C       36.21023560       3.82297826      12.24118233
C       36.43280029       5.01482201      11.31432533
O       35.20046616       5.18578768      10.65601921
C       35.19882965       6.39762306       9.90258026
C       33.74382782       6.61186600       9.45879936
O       33.67505646       7.54948759       8.38928413
C       33.90056992       8.89484024       8.83415699
H       36.83999634       1.66721284      13.38056278
H       38.26731491       2.28134489      14.27420521
H       36.61556625       2.85117698      14.69955349
H       35.38928604       4.06111193      12.93780518
H       35.90792084       2.94028425      11.65083313
H       37.25525665       4.80796432      10.60059738
H       36.70761490       5.89334774      11.92442989
H       35.86796188       6.30825901       9.02423954
H       35.54280472       7.23480749      10.53525734
H       33.34187317       5.66806459       9.06237411
H       33.10279083       6.90774345      10.30856133
H       34.87904358       9.03082752       9.31545734
H       33.11047745       9.21109390       9.53618050
H       33.83585739       9.51432896       7.92716789
C       12.19970894      28.63274765      18.73973274
O       11.30106544      28.42734528      19.84893417
C       11.07721615      27.01236916      19.93887711
C       10.49561119      26.80211830      21.32744980
O       10.28705311      25.38803673      21.47001266
C        9.78441048      25.15619659      22.79560661
C        9.50162888      23.66472816      22.81563377
O        9.09897804      23.31607246      24.15566063
C       10.18354416      22.89747047      24.98860741
H       11.75904179      28.24382019      17.80636215
H       12.30908394      29.71873283      18.64071465
H       13.16800976      28.13609886      18.89252090
H       12.02032948      26.44660759      19.82724571
H       10.39394283      26.66858673      19.13408852
H        9.52791595      27.31623650      21.45023155
H       11.16520596      27.19177055      22.12067604
H        8.84926319      25.72519684      22.97986794
H       10.50998211      25.44432068      23.57855415
H        8.66207504      23.41802025      22.14318466
H       10.37473869      23.08443069      22.47222328
H       11.01577377      23.62054253      24.99472809
H       10.56443977      21.91571617      24.65619469
H        9.77835846      22.80012512      26.00996208
C       41.27482986      18.51909065      34.43470764
O       40.04713440      18.19708252      33.78798676
C       39.88722229      16.78048706      33.68820572
C       38.58554459      16.58559418      32.92836761
O       38.30261612      15.19581890      33.02751923
C       37.16575623      14.83236980      32.23975372
C       37.02874374      13.32902336      32.45444870
O       36.10264206      12.77404213      31.50958824
C       34.70261765      12.93799782      31.71391106
H       42.13142395      18.09565735      33.88510513
H       41.37820816      19.61132622      34.44742203
H       41.30217743      18.13763618      35.46750641
H       39.84751892      16.31357765      34.68753433
H       40.71989441      16.31568718      33.12379837
H       38.69263077      16.89206696      31.87125015
H       37.76484299      17.18588066      33.35958862
H       37.35445023      15.02662659      31.17153549
H       36.25738144      15.38792896      32.54044342
H       37.98866653      12.83120155      32.23407745
H       36.78370667      13.09275913      33.50336838
H       34.37915802      13.97973537      31.55659676
H       34.37098312      12.60055542      32.70775986
H       34.17910004      12.31465244      30.97060585
C        9.01639652      10.06702614      10.88283253
O        8.48677635       8.82265949      11.35412502
C        9.53738022       7.85355854      11.52273369
C        8.87504482       6.49118996      11.57170391
O        9.91086674       5.55204439      11.90671444
C        9.33934021       4.25597572      12.13403130
C       10.52320957       3.33716726      12.41156006
O       10.07226753       1.97233546      12.51773930
C        9.31223488       1.71626925      13.69633102
H        9.37794399       9.98166275       9.84526825
H        8.18894196      10.78793716      10.90636921
H        9.85151577      10.42781067      11.50663853
H       10.10805130       8.06452274      12.45097542
H       10.23560238       7.88895559      10.66446686
H        8.39945793       6.21113920      10.61350822
H        8.08090305       6.48956537      12.33410358
H        8.79661560       3.90621400      11.23697567
H        8.63775730       4.29469585      12.98150063
H       11.22598648       3.35957575      11.56248856
H       11.07160950       3.64781547      13.31748962
H        8.42782974       2.36708212      13.79391479
H        9.89680672       1.83857489      14.62517071
H        8.96119881       0.67955101      13.62648964
C       16.35751343      37.64570236       1.40747368
O       17.20854950      36.76337814       2.11314154
C       18.54719353      37.24591446       2.25627160
C       19.22629929      36.24801254       3.18239546
O       20.61355782      36.57963562       3.19150472
C       21.39396667      35.67407227       3.97936344
C       22.84458542      36.11319733       3.78432417
O       23.77445221      35.21329498       4.42582846
C       24.00395966      35.51964951       5.80716801
H       16.59417725      37.66196060       0.33195612
H       15.33005333      37.28071213       1.53732300
H       16.43696976      38.66623688       1.82091844
H       18.55516243      38.25961685       2.69192576
H       19.06274414      37.27190399       1.28173447
H       19.06977844      35.22340012       2.80546618
H       18.79038620      36.30506897       4.19951773
H       21.27854919      34.65000534       3.59503913
H       21.08610344      35.71871185       5.04269075
H       23.06744385      36.09006882       2.70537376
H       22.96589088      37.14038849       4.16170692
H       23.09238434      35.41273117       6.41740274
H       24.39756584      36.54193497       5.94925833
H       24.73133469      34.79010773       6.20930767
C       23.22203827       6.92142248      10.38557148
O       21.83663750       7.00672865      10.72120476
C       21.53047752       8.18138981      11.50914478
C       20.02241325       8.11482143      11.61398888
O       19.52494240       9.27901554      12.29142857
C       18.09112358       9.20396423      12.38353825
C       17.65473366      10.44634628      13.15779305
O       16.22511101      10.44803047      13.33330727
C       15.50614166      10.81896496      12.15283680
H       23.86424446       7.12405109      11.25950050
H       23.43332481       5.90697432      10.02130508
H       23.46705627       7.65442371       9.60542393
H       21.82103729       9.10993004      10.98923969
H       22.02899361       8.16083336      12.49233723
H       19.70127869       7.19969559      12.14428902
H       19.61784744       8.08352470      10.58853436
H       17.76293373       8.29859257      12.92695522
H       17.64640427       9.16521454      11.37214851
H       18.08053780      10.43796539      14.17245388
H       17.96992493      11.36230087      12.62952042
H       15.60505772      10.09402752      11.33334732
H       15.79958630      11.82246017      11.81183815
H       14.43720150      10.81499958      12.41738510
C        6.64494562       3.63153601      23.75517273
O        6.95185566       4.55122948      22.71225929
C        8.18303204       4.29525995      22.01470184
C        8.34667683       5.47788954      21.06926346
O        9.65894985       5.33527946      20.53542900
C       10.03128719       6.45639277      19.74121666
C       11.42649269       6.14176273      19.17918587
O       11.78568554       7.19863033      18.28098869
C       11.41190910       7.04151821      16.90453148
H        7.30651617       3.78708339      24.62829781
H        5.61929655       3.82193065      24.09660912
H        6.72361183       2.58665085      23.41182137
H        8.14933395       3.33680606      21.47120094
H        9.04095173       4.27326059      22.71235657
H        8.21117115       6.41524696      21.64189148
H        7.56809330       5.45867872      20.27696609
H       10.00794411       7.39221811      20.33090019
H        9.31982803       6.59670734      18.90689087
H       12.17234135       6.11783552      19.99277687
H       11.42789173       5.17317724      18.65025330
H       10.34133434       7.25061941      16.74500275
H       11.59508514       6.02197409      16.53405571
H       12.01651287       7.74433899      16.31409454
C       37.95883179      24.99075317      21.13370323
O       38.87293625      23.95300484      21.47345543
C       38.35615921      22.64561272      21.17443657
C       39.46502304      21.70753479      21.63247871
O       39.13151169      20.36178780      21.27894020
C       40.21556854      19.49439812      21.65142059
C       39.88162613      18.13881683      21.02923012
O       40.72942734      17.12188148      21.56623840
C       42.04553223      17.07983398      21.00461388
H       37.02570343      24.89927101      21.71090508
H       38.43448257      25.95390129      21.36511230
H       37.68889999      24.95136070      20.06494904
H       38.15559006      22.52761650      20.09129333
H       37.39976501      22.46290398      21.69991684
H       39.61764908      21.79882240      22.72277260
H       40.40785217      22.00467491      21.13740349
H       40.31681442      19.46019554      22.75335503
H       41.16516113      19.86469460      21.21922112
H       38.84520721      17.87071037      21.28730965
H       39.93067169      18.17464256      19.92087173
H       42.58687592      18.02290535      21.13259315
H       42.00142288      16.83663750      19.93181992
H       42.59297562      16.28240967      21.52341461
C       22.31911469      23.62419701      40.40419388
O       21.34535217      22.79648209      39.77176285
C       20.23176193      22.56178093      40.65621185
C       19.18926048      21.86256218      39.79824829
O       18.12040138      21.52536392      40.69409561
C       17.14763260      20.73246193      40.01725388
C       16.16361046      20.23467255      41.07038879
O       15.28789043      19.30819893      40.40949249
C       14.07096386      19.85526466      39.91129303
H       22.74129105      23.13982201      41.29949188
H       23.12105370      23.80453110      39.67491150
H       21.86953926      24.57988930      40.71586227
H       19.83412170      23.51357651      41.05327225
H       20.52500534      21.93095207      41.51019287
H       19.61817741      20.96515274      39.31755066
H       18.83481789      22.53012657      38.99088287
H       17.60608292      19.86748123      39.50559998
H       16.60343742      21.31625938      39.25197983
H       16.69938850      19.69001198      41.86345673
H       15.60002041      21.04473495      41.56294250
H       14.25310612      20.60486984      39.12387085
H       13.45678711      20.29874992      40.71092606
H       13.49144459      19.02681732      39.48243332
C       22.60696602      20.78211975      16.35012436
O       22.35787201      20.89221001      17.77056885
C       21.28146553      20.03237724      18.22785187
C       21.42516708      20.08477402      19.74099541
O       20.36803246      19.33238220      20.36670685
C       20.47901344      19.51716805      21.78777695
C       19.39348793      18.64179802      22.39197159
O       19.41357422      18.72645760      23.83568764
C       20.33926964      17.82586861      24.45413780
H       21.69066048      20.97388268      15.76471424
H       23.35171127      21.54363251      16.08552361
H       22.95754242      19.77658463      16.06930542
H       21.37921143      19.01138687      17.81703377
H       20.29956055      20.41294479      17.89062309
H       21.37818527      21.13167191      20.09834480
H       22.41495895      19.68086624      20.03458977
H       20.30964470      20.57502174      22.07407379
H       21.47096062      19.19770050      22.16160583
H       18.39923477      18.99723053      22.07455635
H       19.48457527      17.60143089      22.03272820
H       21.38385201      18.06190681      24.20031357
H       20.12212372      16.78502655      24.15953636
H       20.20014954      17.90096283      25.54162407
C       25.58025360      14.95790482       6.76136112
O       26.68084526      14.26150703       7.36134338
C       26.62557983      12.86958027       7.01079702
C       27.75741196      12.18015003       7.76087236
O       27.75857925      10.84118271       7.24454212
C       28.72067070       9.96518326       7.83884144
C       28.45487404       8.63027763       7.11455584
O       28.99563217       7.53476095       7.84622669
C       30.42614937       7.45670605       7.87141562
H       24.60804939      14.53199387       7.06414080
H       25.62247276      16.01801300       7.05513287
H       25.63923454      14.88477516       5.66299772
H       26.74278259      12.73444939       5.91746521
H       25.63805389      12.45171452       7.27496004
H       27.57723045      12.20520496       8.85025311
H       28.72051048      12.67304134       7.54746819
H       28.56701660       9.86406803       8.93184757
H       29.74674988      10.32237148       7.64857960
H       27.36950302       8.46615028       7.08480167
H       28.81637192       8.64753628       6.06877422
H       30.88875771       8.26165104       8.45352459
H       30.84976768       7.46067286       6.85561895
H       30.67552757       6.50660229       8.35780525
C       15.60840988      26.25340652      15.59664249
O       15.66682148      26.46889114      14.19292545
C       16.34392738      27.70758438      13.87957096
C       16.09687424      27.97834778      12.39918995
O       16.55254745      29.31499481      12.15679646
C       16.08250046      29.71481514      10.84408665
C       16.61220551      31.11672592      10.54369164
O       16.00622749      31.57699394       9.32173729
C       16.72194290      31.18877411       8.13639164
H       14.93936157      26.96688461      16.11217499
H       15.20285606      25.24470329      15.76791477
H       16.60000801      26.31603622      16.07366180
H       17.41858101      27.62620735      14.12618923
H       15.93289471      28.53432655      14.49640942
H       15.01092339      27.88759232      12.19701195
H       16.57594872      27.23575211      11.72422409
H       14.97663784      29.72024345      10.81263638
H       16.39451218      28.99523163      10.06375790
H       16.34552383      31.84473801      11.33076382
H       17.70887947      31.11075211      10.43950748
H       16.80109406      30.09532738       8.04759693
H       17.73051834      31.62825394       8.11894989
H       16.13474274      31.55082130       7.28142738
C       35.64809036      29.25128174      16.96044922
O       35.72875595      30.60857773      16.53114700
C       34.42596054      31.20024300      16.32085419
C       34.67525864      32.67727280      16.06724548
O       33.40443802      33.30633545      15.94908333
C       33.53386307      34.60369873      15.34747601
C       32.17995071      35.29742432      15.47855186
O       32.24373245      36.52038956      14.73048592
C       32.30883026      37.70323944      15.52209091
H       35.16008759      28.63222885      16.18287468
H       36.66618729      28.87746429      17.15456963
H       35.02810287      29.14756203      17.86819077
H       33.79305267      31.05709457      17.21359253
H       33.89707947      30.71132660      15.47671890
H       35.26614761      32.78042984      15.13765907
H       35.27421951      33.11369705      16.89144897
H       33.82434082      34.50993347      14.27987194
H       34.31723022      35.19981766      15.84928703
H       31.36151505      34.69266891      15.04359913
H       31.90730476      35.49105835      16.53480530
H       33.21938324      37.73473740      16.14053345
H       31.40668488      37.80051804      16.15626526
H       32.36261749      38.53758240      14.80768013
C       17.53561592      34.65480042      13.13295841
O       16.89159584      34.26563644      11.91441059
C       16.82543945      35.40081787      11.02260113
C       16.45561790      34.92661285       9.62262630
O       16.28162956      36.17556381       8.93202400
C       16.09722137      36.06820297       7.50049543
C       15.34347153      37.34550095       7.11868525
O       14.58288765      37.19736862       5.90467119
C       15.38335705      37.39981461       4.72897577
H       16.88871193      35.30284119      13.75150490
H       17.73827553      33.73211288      13.70181942
H       18.48249054      35.18659210      12.92612267
H       17.80051041      35.91934204      11.00647831
H       16.07932091      36.10556793      11.43473244
H       15.52269077      34.33043289       9.61463928
H       17.23287582      34.29753113       9.14822197
H       15.48385239      35.19010544       7.23326015
H       17.06847191      35.96575546       6.97985029
H       14.60741329      37.55455780       7.90632868
H       16.02797318      38.20365906       7.04970932
H       16.04890060      36.55522156       4.51807308
H       15.99427795      38.30878067       4.83988285
H       14.69611168      37.50374222       3.87889504
C       13.99412441      16.31926727      10.87279797
O       12.99246407      17.32047081      10.69226265
C       11.64483643      16.82180214      10.81198406
C       10.76633072      18.05603790      10.77608490
O        9.43083572      17.60683823      11.06025410
C        8.50672817      18.63932991      10.67022228
C        7.08825541      18.08362389      10.84316540
O        6.16179609      19.01189423      10.24848461
C        5.80485153      20.14860916      11.05148792
H       13.94856834      15.55747890      10.07294178
H       14.97731495      16.80448532      10.85898590
H       13.86498737      15.80205727      11.83773232
H       11.50154686      16.27203560      11.75533772
H       11.40506649      16.13137817       9.98368359
H       10.82161522      18.50022697       9.76619816
H       11.08557415      18.82139015      11.51154518
H        8.63898563      18.89807129       9.60277748
H        8.62452602      19.55590439      11.28462029
H        6.97449446      17.13714981      10.28940582
H        6.84965658      17.90132141      11.90574551
H        6.66303349      20.66560555      11.50527382
H        5.09595251      19.86820221      11.85064507
H        5.28326845      20.84735680      10.38219833
C       14.83947372      37.23256302      14.46498299
O       14.36040306      36.39793396      13.39616585
C       13.54844570      35.25676727      13.75594616
C       13.74506760      34.28388596      12.60032368
O       12.70058060      33.29595184      12.60504913
C       12.85051060      32.50667191      11.40814400
C       11.72914124      31.48320961      11.40810490
O       11.90320873      30.60243607      10.27612495
C       10.92983055      30.66695976       9.24400902
H       15.06828308      36.63452911      15.36393833
H       15.74256325      37.74566269      14.10997200
H       14.08148098      37.98612595      14.74630737
H       12.49275398      35.56127167      13.86458683
H       13.84747982      34.85005569      14.73950195
H       14.73968887      33.80595779      12.63173389
H       13.71380138      34.82529068      11.63486958
H       13.83373451      32.00004959      11.36967850
H       12.74925995      33.11951065      10.49285507
H       11.76419067      30.90568161      12.34924030
H       10.74262810      31.97890472      11.40842533
H       10.87676811      31.67688942       8.80814266
H        9.92031765      30.38106728       9.59638882
H       11.19251537      29.93779945       8.45700073
C       34.15002823      30.36964607      34.62007141
O       35.44122696      29.83711624      34.90718079
C       36.01060867      29.10127640      33.82507324
C       37.29271698      28.52228928      34.41410446
O       37.59022141      27.33527374      33.67577362
C       38.89939117      26.81234360      33.92521286
C       39.36443710      26.13779068      32.61823654
O       40.46755981      25.27306175      32.87667465
C       41.67141724      25.93005371      33.23550415
H       33.40792084      29.57721519      34.43051910
H       33.82247543      30.93533897      35.49964905
H       34.18141556      31.04191780      33.74777985
H       36.23802948      29.74514008      32.96012497
H       35.32977295      28.30603981      33.46959305
H       37.13048172      28.31066513      35.48582840
H       38.10889816      29.25516701      34.34336853
H       38.85494232      26.05608940      34.73233414
H       39.58932877      27.60214424      34.25948715
H       38.54898453      25.50006294      32.24383545
H       39.60361862      26.88731384      31.84352684
H       41.62253952      26.47390366      34.19218445
H       41.99932861      26.62253189      32.44139481
H       42.42651367      25.13883209      33.34960175
C       10.78341675      32.64884949      26.21154785
O       10.90423584      33.76641846      27.09630966
C       11.10115814      35.00571442      26.37655640
C       10.55763245      36.09085083      27.30499649
O       10.73070717      37.32590103      26.60713387
C       10.03151417      38.38488007      27.26290703
C       10.51697540      39.68650818      26.61774063
O       10.17413902      40.81666183      27.42568398
C        8.81045628      41.20048141      27.46223831
H       11.67630005      32.52003098      25.57276917
H       10.62875652      31.75566483      26.83788490
H        9.90663052      32.75551987      25.54762268
H       10.54838181      34.99575806      25.41820717
H       12.17295933      35.15106964      26.14434052
H       11.08814335      36.11441422      28.27236748
H        9.48766804      35.90045547      27.51312447
H       10.24962711      38.41548538      28.34852982
H        8.93979073      38.26488876      27.13177681
H       11.61618519      39.65558243      26.57458305
H       10.13226891      39.76681519      25.58493042
H        8.14542294      40.36219788      27.72363853
H        8.46932793      41.61550140      26.49906349
H        8.71818161      41.96755981      28.24135971
C        9.84690666      39.53855896       6.16682005
O       10.19189739      38.18449020       5.91547632
C       10.11034966      37.77104187       4.54970598
C       10.50994778      36.30232620       4.56043434
O       10.46000862      35.82377243       3.21780586
C       11.10599613      34.55934143       3.09141660
C       11.11611080      34.20668793       1.58869195
O       11.51659584      32.85217667       1.36471879
C       12.77196693      32.48003006       1.90435207
H        8.75709438      39.67113876       6.12000179
H       10.16620827      39.78042603       7.18756866
H       10.34113407      40.21173477       5.44574070
H       10.81051636      38.33350754       3.91078019
H        9.08629513      37.89518356       4.15844488
H        9.82246876      35.74620438       5.22568369
H       11.52026367      36.23022842       4.99538946
H       10.55777645      33.77529144       3.64578199
H       12.13983631      34.60860443       3.47415161
H       10.09092426      34.28900146       1.19279814
H       11.76592636      34.90495682       1.02977598
H       12.83795547      32.60425568       2.99739051
H       13.60199261      33.02244568       1.42311680
H       12.88664341      31.40109634       1.71267438
C        1.98653197       9.92864323      34.26461411
O        2.75209308      10.75828648      33.42010117
C        2.52765369      10.52425385      32.01722717
C        3.42668295      11.50977802      31.27231407
O        3.27414370      11.15477371      29.90219879
C        3.94293833      12.05308151      28.99908066
C        3.26828289      11.83652020      27.63128090
O        3.68244290      12.86691952      26.72691536
C        2.73875308      13.88402081      26.37810898
H        2.15769529       8.86114979      34.03109360
H        2.26389241      10.12549400      35.30788040
H        0.90927917      10.13198948      34.14282608
H        1.46750605      10.69701290      31.77245331
H        2.78444409       9.48873615      31.73881340
H        4.46541977      11.42315674      31.63478088
H        3.09760714      12.54956436      31.47607613
H        5.02161503      11.81594944      28.96563530
H        3.82511353      13.09718609      29.32810783
H        3.52644134      10.85590458      27.19406700
H        2.17664218      11.85986805      27.77359772
H        2.71662664      14.69484711      27.11916351
H        1.72084022      13.47040749      26.30053711
H        3.01955771      14.28820038      25.39508629
C       36.41855621       9.98785686      14.01502991
O       36.60629654      10.01037979      15.43115807
C       36.76654053       8.68347454      15.94727993
C       37.12060165       8.88649845      17.41507149
O       37.32150650       7.59154892      17.95674133
C       37.79547119       7.68692589      19.29081154
C       38.21404266       6.26798153      19.65949440
O       38.83181381       6.32091904      20.93773079
C       40.22337723       6.07324314      20.98198891
H       35.55722046       9.36536217      13.74249077
H       36.21056366      11.01437283      13.69834232
H       37.31258774       9.60101795      13.49870872
H       37.56769180       8.13593674      15.42023754
H       35.82580566       8.11689281      15.83265018
H       36.31327438       9.42456913      17.95384789
H       38.03754807       9.49843216      17.49776649
H       37.01900101       8.05413246      19.98965454
H       38.67313004       8.34626007      19.38491249
H       37.30436325       5.65332460      19.74252701
H       38.86485672       5.81758499      18.88921547
H       40.80844498       6.88791990      20.53146935
H       40.49134827       5.12632895      20.49102020
H       40.48805618       6.00589514      22.04336929
C        3.46193886      30.43181038      19.55084038
O        2.64088655      31.53239632      19.17465973
C        3.45083785      32.69589996      18.92488289
C        2.46570969      33.77741241      18.50616837
O        3.17906690      35.01557922      18.58273506
C        2.29443932      36.13745880      18.53782082
C        3.20455265      37.36626434      18.61719131
O        2.45926809      38.58243179      18.65294838
C        1.75204778      38.88300323      17.46114731
H        4.11027336      30.67640877      20.40583992
H        2.79183364      29.61606979      19.85040474
H        4.09099531      30.07643700      18.71982193
H        4.19289160      32.48311615      18.13423157
H        3.98852015      33.00792313      19.83695030
H        1.58311260      33.78975296      19.16922569
H        2.09644890      33.60216904      17.47665787
H        1.57571268      36.10512924      19.37577820
H        1.71634591      36.12107849      17.59342957
H        3.81486797      37.33681107      19.53216553
H        3.88905954      37.35327530      17.75216866
H        0.82141119      38.29843140      17.39134026
H        2.36092758      38.69791031      16.56060219
H        1.49039900      39.94850159      17.50833702
C       37.92822266      32.93735504       6.61364746
O       37.25534439      33.69977188       5.63382149
C       36.92925644      34.99928284       6.13250351
C       36.02295303      35.63282013       5.08900118
O       35.74777222      36.91032791       5.64099455
C       34.89350128      37.71268082       4.81730080
C       34.89378357      39.05754089       5.55837822
O       33.90798187      39.93004990       5.01243305
C       34.26384735      40.49914932       3.76242781
H       37.31229782      32.78420258       7.51617670
H       38.14370346      31.94347000       6.19582653
H       38.88003159      33.40172195       6.93683004
H       37.83211136      35.61136246       6.29678822
H       36.39607620      34.95034027       7.10010290
H       35.09757614      35.04600143       4.96044874
H       36.53743744      35.68768311       4.11047220
H       33.87321472      37.28919220       4.78861189
H       35.28374100      37.77317429       3.78324151
H       34.63056564      38.89250565       6.61902428
H       35.89620590      39.51723862       5.53089809
H       34.30734253      39.74994659       2.95573068
H       35.22765350      41.02876663       3.83581734
H       33.47905350      41.22870255       3.51978040
C       16.71291542       1.69312477      31.54278564
O       17.90106583       2.46691251      31.65316391
C       17.91098595       3.61280394      30.77289581
C       18.90900612       4.55738831      31.42560577
O       18.83853340       5.79722738      30.70396423
C       19.26757622       6.88640738      31.54650116
C       19.11624146       8.17281246      30.71158981
O       19.93804359       9.23365021      31.26276970
C       19.71259308       9.59668732      32.62733459
H       16.53963470       1.33709848      30.51227951
H       16.82593536       0.83155179      32.21462250
H       15.82355499       2.25998974      31.85122299
H       16.91979218       4.09415150      30.74430275
H       18.16418076       3.31390023      29.73808098
H       19.93862152       4.15430784      31.38654709
H       18.63494682       4.69297600      32.49325562
H       20.32106018       6.75259638      31.84854317
H       18.65153122       6.93396759      32.46498489
H       19.44635773       7.99529123      29.67150307
H       18.05190468       8.46404743      30.63235664
H       19.38781166       8.74770260      33.25723648
H       18.92571259      10.37470055      32.71692657
H       20.66773605       9.96340370      33.04445648
C       32.94566727      35.68802643      19.39186668
O       33.21716690      35.28662109      20.73289871
C       34.61011124      34.96581650      20.88574982
C       34.75764847      34.76225281      22.38925171
O       36.03947449      34.17229843      22.66423798
C       36.28673935      34.13835144      24.06938553
C       37.50285339      33.23258972      24.25242043
O       37.72625732      33.00912857      25.65361214
C       38.15398788      34.12455750      26.43074608
H       33.01761627      34.84358978      18.69105339
H       31.90678978      36.03978729      19.34914589
H       33.64088440      36.47608185      19.06480026
H       35.25039291      35.79266739      20.53220749
H       34.87718964      34.06271744      20.31127739
H       33.94358063      34.10456848      22.74781609
H       34.64306259      35.71144104      22.94977951
H       35.42269135      33.72908401      24.61521530
H       36.45882416      35.15714645      24.46288490
H       37.29085922      32.25668335      23.79352188
H       38.39376450      33.65305328      23.75894737
H       37.35235214      34.86920166      26.56442261
H       39.04279327      34.60574722      25.99713326
H       38.41409683      33.74766922      27.43035698
C        8.81892490      22.56541061      10.22510242
O        8.27213192      22.68578529      11.54562187
C        9.32754040      22.58148575      12.52314281
C        8.57092381      22.77751923      13.82819271
O        9.42557526      22.61771011      14.98009968
C        8.57724953      22.71788025      16.13722801
C        9.46161652      22.65202713      17.36652756
O        8.58884621      22.69395065      18.53447151
C        8.39562988      23.98365211      19.13026810
H        9.27395058      21.57460022      10.05708408
H        8.01722717      22.65997505       9.48260307
H        9.59349728      23.32267761      10.07147694
H       10.10355854      23.35808182      12.37446499
H        9.80710506      21.58597374      12.42424488
H        7.72827339      22.06237793      13.86448288
H        8.10643387      23.77751160      13.85238171
H        7.81683540      21.91574478      16.15138245
H        8.01956081      23.66426277      16.14444160
H        9.98763752      21.68258286      17.39890671
H       10.18952084      23.48204994      17.37226677
H        8.01368618      24.72300529      18.40745735
H        9.31406307      24.36553764      19.60254669
H        7.63091755      23.87051201      19.91547394
C       41.35588455      18.91038895      14.87788296
O       40.35335541      17.98469734      14.45883942
C       39.08997345      18.20950890      15.11594105
C       38.20032883      17.08563614      14.59853268
O       36.85284042      17.28288841      15.04086304
C       35.93479538      16.57693291      14.19539547
C       34.53884125      16.73348999      14.80733681
O       33.59703064      15.84540844      14.18226719
C       32.86438370      16.37254715      13.06660938
H       41.60949707      18.78610229      15.94093704
H       42.25309753      18.73527718      14.26967430
H       40.99732971      19.94148445      14.73140430
H       38.65898514      19.18480873      14.82499027
H       39.18375015      18.21897507      16.21613884
H       38.59238434      16.11590576      14.93623829
H       38.22811508      17.09216118      13.49672031
H       36.18589020      15.50100136      14.13153839
H       35.94144821      16.98754883      13.16967773
H       34.55805206      16.51251411      15.88519478
H       34.17348480      17.77004623      14.70291615
H       33.42775345      16.32208824      12.12479210
H       32.54067612      17.40555573      13.25520992
H       31.95699883      15.76100349      12.95597649
C       34.62103653      34.18160629      11.08947372
O       35.87561417      34.85092545      10.92814541
C       35.71642303      36.06967545      10.15414906
C       37.11396027      36.65517807      10.06270885
O       36.95153809      37.91875076       9.38828945
C       38.24391556      38.52184296       9.26525402
C       38.02373505      39.93317413       8.73425770
O       39.32238770      40.53817368       8.62609386
C       39.65959167      41.46558762       9.64506149
H       34.18571854      33.88998413      10.11485195
H       34.78799438      33.28645325      11.70327282
H       33.86206436      34.80796814      11.58471966
H       35.01457214      36.75036240      10.66331291
H       35.27150726      35.85937500       9.16409206
H       37.79588699      36.00680161       9.48068810
H       37.56605530      36.79709625      11.06031322
H       38.89825058      37.94668198       8.58649158
H       38.73822021      38.58374786      10.24728966
H       37.55057907      39.91237640       7.74037600
H       37.35440063      40.50498199       9.39889431
H       39.66288757      41.02519608      10.65652847
H       38.96721268      42.32902908       9.64977169
H       40.67780685      41.82410049       9.43017292
C       28.83811188      40.28888702       8.80309772
O       27.96868896      40.89781952       7.84900093
C       27.37738800      39.92995071       6.97670031
C       26.45627975      40.69467926       6.03361130
O       26.08652878      39.75142288       5.03512192
C       25.22751236      40.31050873       4.04385042
C       25.07469940      39.22890854       2.96375275
O       24.34321785      39.74652100       1.83917451
C       22.94779396      39.96751022       2.02225304
H       29.74015427      39.87025452       8.31506157
H       29.14391708      41.03814316       9.54728127
H       28.32414246      39.45692825       9.32221508
H       26.79278755      39.18837738       7.54591846
H       28.13578415      39.37960815       6.39031696
H       26.99359703      41.55226517       5.59782362
H       25.57104492      41.08895874       6.56364489
H       25.68099022      41.21023178       3.59079599
H       24.25357437      40.58008575       4.49024916
H       26.06796837      38.93177414       2.59268570
H       24.59760857      38.32859802       3.37696147
H       22.71819496      40.66352463       2.84855056
H       22.40958214      39.02621460       2.20683622
H       22.56335449      40.39536667       1.08809543
C       12.05417538      31.65524673      40.34336472
O       12.28104782      30.68389702      39.33846283
C       12.69888687      31.25542831      38.09925842
C       13.04542446      30.10507774      37.16019821
O       13.51420879      30.72573662      35.95540619
C       13.97535801      29.78721046      34.97283936
C       14.59669781      30.65292931      33.86826324
O       14.87118721      29.91294861      32.66494751
C       16.10090256      29.18520927      32.59553909
H       11.28018379      32.37469101      40.02500153
H       11.69493389      31.16355896      41.25783539
H       12.97094345      32.21583557      40.58229065
H       13.58800793      31.88772011      38.25308609
H       11.89409161      31.87653160      37.67000580
H       12.16152763      29.48000526      36.95166779
H       13.82997417      29.47436905      37.61005783
H       13.15289974      29.18029976      34.56425858
H       14.74526215      29.11580658      35.38949203
H       13.85609150      31.42271614      33.59358597
H       15.49713516      31.16715240      34.24998474
H       16.13662148      28.34091949      33.31121826
H       16.98104095      29.83378029      32.74552536
H       16.13332367      28.75983810      31.57820511
C        9.62144947      10.44208050      36.45262909
O        9.13582325       9.37881279      37.26366425
C        9.27044201       8.13860512      36.56576157
C        8.54706860       7.09070730      37.40163040
O        8.57024765       5.90260410      36.60888672
C        8.07019997       4.75392532      37.28279877
C        8.11014843       3.64670372      36.21557236
O        7.62120676       2.42863393      36.80136871
C        8.60505962       1.69309032      37.49939346
H        9.08919048      10.49600506      35.48784637
H        9.45693779      11.37056637      37.01676178
H       10.69749928      10.33118153      36.23811722
H       10.32922363       7.86026478      36.41699219
H        8.79767609       8.17032623      35.56705093
H        7.50697279       7.41452646      37.58259201
H        9.03522968       6.93709326      38.38026810
H        7.03540802       4.89802980      37.63907623
H        8.70909786       4.50953770      38.15200043
H        7.43705559       3.90865421      35.38338089
H        9.12329197       3.51713300      35.79985046
H        9.06686974       2.26305032      38.32470703
H        9.40794659       1.33534992      36.83460999
H        8.09402943       0.82468385      37.93675232
C       23.14627838       5.43311596      31.69949913
O       23.78865814       6.58294535      32.25753403
C       22.83268929       7.44059801      32.94510269
C       23.61026001       8.51049709      33.68909073
O       22.59706688       9.25119972      34.38603210
C       23.11205673      10.16637421      35.35597610
C       21.89555550      10.72698021      36.07869339
O       22.29607010      11.80920315      36.95298004
C       22.63133621      11.45260429      38.29677200
H       22.36637497       5.71827030      30.97038651
H       23.88196182       4.80333424      31.17652893
H       22.65748405       4.83138323      32.48643112
H       22.21399117       6.86982203      33.65962601
H       22.14252472       7.89135265      32.20564651
H       24.15831184       9.17105675      32.98486328
H       24.32759285       8.06904984      34.40451813
H       23.64197922      10.99546719      34.85325241
H       23.81617928       9.69217110      36.05524063
H       21.21599960      11.15634632      35.32535934
H       21.29607201       9.95764256      36.58902740
H       23.17357635      10.49530411      38.32688522
H       21.72759438      11.35790634      38.92738724
H       23.25670242      12.24988079      38.72522354
C        2.74400640      13.89241695      19.69688225
O        3.92286706      14.25389004      20.38253403
C        5.10763741      13.77395248      19.72349358
C        6.24516201      14.27532196      20.59684944
O        7.45863533      13.77164650      20.00776100
C        8.61735725      13.92767429      20.83920288
C        9.57806587      12.82502460      20.34665108
O       10.66230106      12.62607193      21.24934196
C       11.60852051      13.70117569      21.15635681
H        2.70869827      12.80421352      19.51416206
H        1.88251364      14.17200184      20.31393623
H        2.67355061      14.40947914      18.72484589
H        5.17530775      14.17448139      18.69523430
H        5.10943460      12.67284679      19.65115356
H        6.11825752      13.91260529      21.63394356
H        6.22972298      15.37474346      20.63679314
H        8.36117649      13.81199837      21.91060066
H        9.02954769      14.94302368      20.70346260
H        9.01519108      11.87670994      20.32382011
H        9.90301228      13.00954151      19.30264091
H       11.11843777      14.65826607      21.39012909
H       12.01658154      13.73219299      20.12803268
H       12.42257404      13.53950119      21.87886620
C       41.43196869       9.34444141      23.25686264
O       40.24599838       9.54526424      24.02222824
C       39.08292007       9.09284115      23.32674408
C       37.93265915       9.23782253      24.31617165
O       36.74370193       8.84695339      23.62356567
C       35.64014053       8.88638496      24.54644012
C       34.35794830       8.62824154      23.74819756
O       33.25310898       9.10605240      24.55457115
C       32.59237671       8.21903419      25.45831299
H       41.38588333       9.90856934      22.31048012
H       42.27249146       9.69174194      23.86790085
H       41.58521652       8.28957844      23.00102234
H       39.19565964       8.05644608      22.97392082
H       38.87747574       9.71359539      22.43638420
H       37.85225677      10.28361702      24.66947365
H       38.09410477       8.61650085      25.21467781
H       35.55457306       9.87569904      25.03381729
H       35.75685883       8.14037037      25.35046959
H       34.36092758       9.22606754      22.82320404
H       34.25495529       7.56941795      23.46443558
H       32.95365524       8.34570599      26.49424171
H       32.70246506       7.16045570      25.16990280
H       31.50545311       8.43412018      25.44635391
C       10.79369450      30.25978279      32.94894409
O       10.91562653      30.71627045      31.60634613
C       12.22745514      30.54716492      31.02728653
C       12.10727692      31.00106812      29.58070564
O       13.43821621      30.91378021      29.08034134
C       13.52765179      31.44092178      27.73770523
C       15.02045441      31.42933655      27.39304543
O       15.17318249      31.47018433      25.95722198
C       15.08887291      30.16448784      25.37907028
H       11.37951851      30.85799026      33.66075134
H        9.73252296      30.32145119      33.22101974
H       11.07644367      29.19719315      33.03446579
H       12.55236149      29.49571037      31.06025505
H       12.96811008      31.14626503      31.57821083
H       11.71667099      32.03221893      29.52905083
H       11.41869640      30.35239983      29.00461769
H       13.09089470      32.45201492      27.71224976
H       12.95761108      30.80910492      27.03677940
H       15.52422619      32.32588577      27.78797531
H       15.51166344      30.54300880      27.82263565
H       14.10229778      29.69662285      25.54621506
H       15.87307930      29.50391769      25.79034996
H       15.20112705      30.25154686      24.28568840
C       11.11178970       9.79328060      30.19846535
O       11.95383644       9.02332497      29.33480072
C       11.99382877       9.58184147      27.99575996
C       12.99017429       8.75049400      27.18873215
O       12.88992882       9.24748707      25.85071564
C       13.65862083       8.51430702      24.87902641
C       13.59479046       9.36154270      23.61170387
O       14.21234035       8.70834064      22.47991180
C       15.64722729       8.83654118      22.49336243
H       10.05797577       9.73203087      29.88407898
H       11.15004349       9.39343548      31.21839333
H       11.39746761      10.85676098      30.20248413
H       12.29094028      10.64446163      28.04518509
H       10.98518085       9.54003716      27.54787445
H       12.75514889       7.67047691      27.22528076
H       14.00897980       8.92184639      27.58661270
H       13.21376801       7.52049541      24.68654060
H       14.70558262       8.40291691      25.21450615
H       12.54217052       9.52627659      23.34059143
H       14.02150822      10.36120605      23.81118011
H       16.09992409       8.24729252      23.30580139
H       15.93463993       9.88917160      22.64691734
H       16.03120041       8.47074890      21.52937508
C       32.56895828      13.70029926      38.93766785
O       33.83717346      14.32294559      39.08092117
C       34.95515442      13.42900944      39.23701096
C       36.09069443      14.35389137      39.67930984
O       37.31149292      13.62611771      39.78585815
C       38.37740326      14.51489067      40.09683228
C       39.68728256      13.72383976      39.99206924
O       40.76065063      14.65217781      40.18086243
C       41.36426163      15.13259220      38.97401810
H       32.43973541      12.91208458      39.69742203
H       31.79789734      14.46906090      39.07534790
H       32.44033051      13.24742317      37.94331741
H       35.17055893      12.92627525      38.27607727
H       34.73077393      12.65920353      39.98843765
H       35.84064865      14.84221077      40.64136124
H       36.17585754      15.14658260      38.91909409
H       38.25036621      14.96668339      41.09828186
H       38.40955353      15.33277512      39.35737991
H       39.76049423      12.96677780      40.78730392
H       39.75043869      13.21295071      39.01583099
H       40.63545227      15.62085819      38.31228256
H       41.84760284      14.31497097      38.41459656
H       42.12291718      15.85909843      39.29795837
C        6.01991463      27.09569931      22.46549034
O        6.97657633      27.90927887      21.79100990
C        7.67877769      28.84188652      22.64925003
C        8.34637070      29.81837082      21.70047760
O        9.12387466      30.70538330      22.51312065
C        9.85316563      31.55660248      21.60860062
C       10.47824287      32.68080139      22.42518806
O       11.16004562      33.55553055      21.51060104
C       12.43249130      33.02563477      21.07248878
H        5.29767990      27.71214104      23.03350449
H        5.46978855      26.52529335      21.70243454
H        6.49636745      26.38564491      23.16033363
H        8.41920090      28.34017563      23.29375076
H        6.96947432      29.35420799      23.32201958
H        7.56594133      30.35840988      21.13336563
H        8.95608616      29.28815269      20.94178581
H        9.16386795      31.98789787      20.86664581
H       10.59653091      30.95674896      21.04688454
H        9.68046093      33.26628876      22.91781044
H       11.14769459      32.30244446      23.21688271
H       12.31072330      32.15238571      20.40143204
H       13.04205704      32.69388962      21.92742538
H       12.93102455      33.84670258      20.53975868
C       26.75465202      16.60909462      17.78008842
O       27.14334488      15.24710274      17.94371414
C       27.56291771      14.98312283      19.28667259
C       28.07853317      13.55188370      19.29185295
O       28.37107849      13.29118538      20.67307854
C       29.04887390      12.04656601      20.87446594
C       28.81222153      11.73729706      22.35225296
O       29.52095222      10.54070282      22.73392677
C       28.72307587       9.35812569      22.87321281
H       27.58939362      17.30601311      17.98950386
H       26.41051483      16.70052338      16.73489380
H       25.90840340      16.89196777      18.42945290
H       26.72502708      15.11823273      19.99684334
H       28.36799622      15.67829227      19.59745789
H       28.96923637      13.43388367      18.64711571
H       27.32566643      12.84987164      18.89122772
H       30.12960243      12.13760185      20.65477371
H       28.62975311      11.26113510      20.22042274
H       29.18074608      12.55830193      22.99022484
H       27.72746849      11.66044044      22.54082298
H       28.34861565       8.99126434      21.90117264
H       27.84132957       9.53121090      23.51171112
H       29.35748291       8.59051037      23.33691597
C       32.22008514      30.27869606      21.99204063
O       33.48200607      29.92032623      21.43468285
C       34.21754456      31.10574150      21.09232521
C       35.60774612      30.65525436      20.65221405
O       36.25150681      31.87088966      20.29289436
C       37.54854202      31.67559052      19.72327805
C       38.21382523      33.04750443      19.77227783
O       39.56423187      32.87033081      19.32802582
C       40.55397415      32.77184296      20.34407997
H       31.66822433      30.96323776      21.32100105
H       31.62378693      29.36294937      22.09707260
H       32.31497955      30.73886108      22.98291016
H       34.27175522      31.79532623      21.95410728
H       33.70221329      31.65134621      20.27644730
H       35.55094528      29.96505547      19.78927803
H       36.14165115      30.14614868      21.47883224
H       37.47221756      31.29364014      18.68761063
H       38.14027023      30.95952988      20.31872749
H       37.69149017      33.71465683      19.06505394
H       38.13531876      33.50542831      20.77817345
H       40.41843796      31.85952568      20.95299530
H       40.53094482      33.63815689      21.02505493
H       41.54076385      32.72351456      19.86629295
C       13.47257519      22.47794914      36.90052032
O       14.77190018      21.88575935      36.85075378
C       15.75643253      22.90970039      36.55900192
C       17.10515022      22.25698471      36.25617218
O       17.93397903      23.34549332      35.83483124
C       19.27725983      22.93030357      35.54569244
C       19.99376297      24.20243835      35.06795502
O       21.40956497      23.99373436      34.96030426
C       22.17103195      24.29965019      36.13620377
H       13.19014263      22.91161537      35.92457581
H       12.73904991      21.70650673      37.15873718
H       13.40692711      23.28207970      37.64775085
H       15.79897118      23.62902260      37.39183807
H       15.40268612      23.46170044      35.67147064
H       17.00194550      21.51976013      35.43455887
H       17.52784157      21.72918892      37.13244629
H       19.29268265      22.14397621      34.76711273
H       19.77104950      22.53680038      36.45005417
H       19.61276817      24.47482300      34.06999969
H       19.75835228      25.03485489      35.74829483
H       22.00755310      23.55010414      36.93264008
H       21.88644028      25.28276634      36.55122757
H       23.23660851      24.30330086      35.85752487
C       29.52113533      24.70347214      19.27449608
O       28.32326698      24.85515594      18.49591255
C       28.55297470      25.90984154      17.53947258
C       27.25568390      26.13568115      16.78683472
O       27.48148918      27.18368149      15.86064911
C       26.50368118      27.10546875      14.79636097
C       26.62120628      28.38332558      13.97656631
O       25.45209885      28.54717255      13.15803337
C       25.44129753      27.72733498      11.98969269
H       29.75749779      25.63337135      19.82109451
H       29.35035896      23.89364624      19.99854851
H       30.36302376      24.42789841      18.61170578
H       29.34771538      25.60744286      16.82895470
H       28.87503815      26.82793617      18.06170654
H       26.41917801      26.41894722      17.46844673
H       26.93308258      25.21893692      16.26375771
H       25.48438263      27.06461906      15.22323513
H       26.64314270      26.19389725      14.18735409
H       26.64544868      29.24402809      14.66202545
H       27.54263496      28.42965317      13.36831379
H       25.47623062      26.64668655      12.21418762
H       26.26738167      27.98445511      11.30505562
H       24.47521400      27.89141464      11.49409580
C       23.10307121      27.38743401      41.34888077
O       23.67924309      28.67331314      41.16700745
C       24.35763741      28.76493454      39.89660645
C       24.83960533      30.20256805      39.88420105
O       25.64146423      30.36249542      38.71137619
C       26.02654266      31.73289108      38.62834930
C       26.82217026      31.94515991      37.32927704
O       27.07214165      33.34714890      37.23975754
C       25.97489929      34.13898468      36.76920319
H       23.83380318      26.58927345      41.12692261
H       22.76647568      27.30751801      42.38985825
H       22.23358345      27.24458313      40.68274689
H       23.66512680      28.56812859      39.05936432
H       25.19025230      28.04796982      39.81560135
H       25.40432167      30.42789650      40.80682755
H       23.95968246      30.87851334      39.86847687
H       26.61318588      32.02088928      39.51877213
H       25.11935043      32.36414719      38.62897110
H       27.79059410      31.41856194      37.34666061
H       26.25206184      31.57952881      36.45699692
H       25.12762833      34.15119553      37.47085953
H       25.59808350      33.76245880      35.80396652
H       26.34831047      35.16233063      36.65237427
C       15.39132118      18.63928032      18.85942841
O       15.06036568      18.95959473      20.21755219
C       15.43740559      17.97107697      21.19964218
C       14.54182816      18.34478569      22.37764549
O       14.88578415      17.55662155      23.52295303
C       14.11978722      18.05117035      24.64030838
C       14.57882690      17.26408386      25.84995651
O       13.71923828      17.52217484      26.97137642
C       14.15703487      18.54530334      27.87178612
H       15.39400196      17.54816246      18.68434143
H       14.63290977      19.07814217      18.18855476
H       16.38965988      19.02825546      18.60801315
H       16.51479149      18.03683853      21.45227242
H       15.24569607      16.95124435      20.80454636
H       13.48691463      18.19534874      22.09300423
H       14.62435246      19.41428566      22.64097977
H       13.03977299      17.89841461      24.46313667
H       14.27425766      19.13617325      24.80748367
H       14.49246216      16.19118881      25.61387825
H       15.63847923      17.44996452      26.07847404
H       14.48185444      19.44740868      27.33588028
H       14.96765614      18.19374466      28.53012657
H       13.29281712      18.79328346      28.50850487
C       32.64170837      16.70447350      41.17939377
O       32.80603409      17.38925171      39.95811844
C       34.18236160      17.59968376      39.55594254
C       34.18918991      17.92152786      38.05466843
O       35.28349304      18.82894325      37.85025406
C       35.32267761      19.25989342      36.47740936
C       36.46213913      20.26759529      36.35430527
O       36.33981323      20.98228836      35.12602997
C       36.87806702      20.36438942      33.94985580
H       32.98043823      17.28579521      42.05373001
H       31.56393814      16.51106071      41.28274155
H       33.16633224      15.73641968      41.15933990
H       34.74622345      16.68000412      39.75200272
H       34.60602951      18.41410255      40.16447830
H       33.23603439      18.39848900      37.77913666
H       34.29084778      17.01828766      37.42583084
H       34.35494995      19.71943474      36.20267487
H       35.45564651      18.40969849      35.78845215
H       36.37694550      21.01013184      37.16324997
H       37.44551849      19.78219032      36.44093704
H       36.32371140      19.46040344      33.66754532
H       37.93201065      20.08888435      34.08311081
H       36.77986908      21.09754944      33.14245987
C       23.51920509      22.60996056      20.43039131
O       22.81148148      22.49182510      21.68177223
C       23.60021973      21.66660118      22.54915047
C       22.91474915      21.67023277      23.90343285
O       23.55500412      20.65090561      24.68441200
C       22.86923218      20.47584915      25.93585396
C       23.84996414      19.69217110      26.80321312
O       23.21875000      19.28714180      28.02717400
C       23.05581665      20.33747292      28.98253059
H       23.65710449      21.63112450      19.95283699
H       22.94244576      23.25540924      19.75248528
H       24.52368927      23.03058815      20.61747932
H       24.63489532      22.05769157      22.65030479
H       23.66651535      20.64662933      22.12335968
H       21.83553314      21.46012497      23.79777145
H       22.98964119      22.64490128      24.42215919
H       21.92202950      19.93840408      25.77836227
H       22.58916855      21.43085098      26.41236687
H       24.17604446      18.78430748      26.27406502
H       24.74184036      20.30982208      27.00146675
H       22.21446991      21.00358772      28.72291374
H       23.97680092      20.92896080      29.11824989
H       22.80845261      19.88408661      29.95733261
C       12.13764095      21.15899658       9.20894814
O       11.42550278      22.38569450       9.01893520
C       11.94679642      23.18481255       7.94301271
C       11.02570343      24.40830803       7.92256498
O       11.45118618      25.23805237       6.83417845
C       10.59908104      26.40157509       6.68601942
C       11.18115139      27.20630264       5.52220821
O       10.44955063      28.43567657       5.35928297
C        9.29304504      28.26434326       4.52003527
H       13.13613987      21.33064651       9.63601303
H       11.52259445      20.55512238       9.89108181
H       12.23447227      20.60235405       8.25597763
H       11.91868496      22.63912392       6.97537565
H       12.99639511      23.47756386       8.14081860
H       11.07522392      24.96730042       8.88122749
H        9.96567631      24.10730743       7.77881432
H       10.59480095      26.98969650       7.62724924
H        9.55343819      26.09784317       6.48110342
H       12.22366333      27.46988869       5.74767923
H       11.17475128      26.60467339       4.59574032
H        8.54720211      27.57645035       4.94715309
H        9.58072853      27.85339546       3.54097843
H        8.82794762      29.24927330       4.40150690
C        7.07996845      29.20608139      38.99658203
O        6.00307751      28.28417206      39.07956696
C        6.47289085      26.94322586      39.17940903
C        5.19851589      26.11686134      39.25763321
O        5.62927866      24.81076622      39.60962677
C        4.55530691      23.96057129      40.02619171
C        5.23228073      22.59990311      40.20963287
O        4.26498652      21.54556274      40.13423538
C        3.47411513      21.38882637      41.30384827
H        7.70361185      29.01707077      38.10904312
H        6.62829781      30.20043373      38.92363358
H        7.71331501      29.15718460      39.89358902
H        7.08688879      26.81222916      40.08642960
H        7.08300781      26.65195656      38.30187225
H        4.65930891      26.11871529      38.29351807
H        4.53149080      26.55722046      40.01966858
H        3.78674436      23.88781166      39.23813629
H        4.07962179      24.33327484      40.95046616
H        5.92151737      22.42602348      39.36611557
H        5.80060053      22.55759621      41.15163803
H        2.72347546      22.18889618      41.41586685
H        4.07835197      21.36544228      42.22078705
H        2.94780302      20.43310547      41.20613480
C        1.84376466      41.48922729      12.18745232
O        2.40376496      41.48343658      10.88905144
C        2.97661281      40.22700882      10.48703289
C        3.71147966      40.47250748       9.17189598
O        4.28131819      39.22536469       8.81056786
C        5.07994509      39.25317001       7.62237406
C        5.73063183      37.86494446       7.54028606
O        6.60206366      37.79349518       6.39344883
C        5.97747040      37.62092590       5.11851645
H        2.59238577      41.30198288      12.98090363
H        1.41495967      42.48699188      12.36524487
H        1.02670491      40.75670624      12.28480053
H        2.19977117      39.45948029      10.34940624
H        3.68586254      39.86362076      11.24947166
H        4.49037838      41.23786545       9.32430458
H        3.01404977      40.81556702       8.38660049
H        5.85310316      40.03406906       7.69294882
H        4.45573235      39.42597961       6.72651291
H        6.33194494      37.70271301       8.44504356
H        4.95710993      37.08339691       7.50279903
H        5.45986223      38.53711700       4.79331207
H        5.26170444      36.78782654       5.13666677
H        6.76391125      37.37748718       4.39072514
C       34.00451279      26.04358101      20.62238693
O       33.47159195      25.30661774      21.74059677
C       32.08026505      25.06038857      21.48253632
C       31.48153496      24.36061287      22.69835854
O       30.08391953      24.25592613      22.38502121
C       29.29275513      23.68255806      23.43114090
C       27.86314011      23.86452103      22.91025543
O       26.88367844      23.33809662      23.83179092
C       26.94514656      21.90558243      23.95606804
H       33.42761612      26.96365929      20.43495178
H       35.05503845      26.27146149      20.83456421
H       33.94553757      25.43784142      19.69747543
H       31.95032501      24.42997360      20.57756805
H       31.52648735      26.00148964      21.29370117
H       31.63609505      24.93209839      23.62703133
H       31.93201637      23.36153030      22.82275581
H       29.43626976      24.20669365      24.39259338
H       29.50910950      22.60793304      23.55126953
H       27.62446404      24.93332863      22.80278778
H       27.76404762      23.38155174      21.91654778
H       27.82377815      21.55628777      24.52109909
H       26.91996574      21.39924431      22.97241211
H       26.04132462      21.61772346      24.51081848
C        4.38761902      17.27820969       2.46875834
O        4.06857347      17.16004753       3.83491683
C        3.86289692      18.40493965       4.51266861
C        3.54944515      18.07657623       5.96392584
O        3.47575045      19.32949448       6.63167953
C        3.02662802      19.28239059       7.99736691
C        3.02517986      20.75712395       8.41136360
O        2.86012197      20.99391937       9.82608509
C        1.71662581      20.50953293      10.52622223
H        5.28778553      17.89047432       2.31553125
H        4.59371662      16.27748871       2.06526804
H        3.56255460      17.72463036       1.89178681
H        3.02295899      18.97186279       4.07563782
H        4.75923681      19.04296303       4.49566936
H        4.36263466      17.46778107       6.39837837
H        2.59634399      17.52441978       6.04054642
H        3.72389317      18.71556091       8.63575363
H        2.01820469      18.85061455       8.06340504
H        4.02321243      21.16009521       8.19009018
H        2.28623009      21.32150459       7.81692123
H        1.55462790      19.43161392      10.36511612
H        0.79712743      21.04306221      10.23552227
H        1.89196420      20.67323112      11.59899044
C       20.54323196      21.10685158      31.43092346
O       20.88731194      20.92001724      32.80123901
C       22.32876778      20.78134918      32.95267105
C       22.56089211      20.83839417      34.44992447
O       23.96371651      20.66501427      34.71240997
C       24.24224663      20.92663765      36.09873199
C       25.60415649      20.29704666      36.38158035
O       25.86914635      20.24748039      37.79468918
C       26.11994934      21.49758339      38.43467331
H       20.73229790      20.20157051      30.83256149
H       19.46103287      21.30217171      31.39287949
H       21.09324646      21.95309830      30.99035263
H       22.84409523      21.61031723      32.43444824
H       22.64673042      19.82206345      32.50883865
H       21.98532486      20.03327751      34.93083572
H       22.19633484      21.79454422      34.85871124
H       23.45689964      20.48190689      36.73956680
H       24.24261856      22.01178169      36.29719162
H       25.56927109      19.25077248      36.04273987
H       26.41263199      20.80921936      35.82597351
H       25.18895340      22.06616783      38.58894730
H       26.83475304      22.09568596      37.85270691
H       26.55728149      21.28429794      39.42081833
C        5.82687712      14.40454006      11.95351791
O        4.95360470      15.31564617      12.61573887
C        5.44819546      15.69236279      13.91209221
C        4.32007599      16.43790817      14.62535572
O        4.92651844      16.92958069      15.82124233
C        4.16902924      17.82871819      16.63045120
C        5.17732954      18.39411163      17.64553833
O        4.56287289      19.28378105      18.58441544
C        4.29574680      20.59501266      18.09424782
H        5.93304348      13.46841812      12.52554703
H        5.39257765      14.13827801      10.98134708
H        6.82373714      14.83646774      11.79190159
H        6.32422876      16.35849380      13.85117054
H        5.72884035      14.80936337      14.51014328
H        3.47846532      15.75831604      14.84900951
H        3.94380331      17.25792313      13.98735714
H        3.33256173      17.32677078      17.14773941
H        3.75777197      18.64850044      16.01635742
H        5.61342669      17.56499290      18.22564316
H        5.98284054      18.89601326      17.08316612
H        3.56054950      20.58339500      17.27197647
H        5.22070503      21.09603310      17.76171684
H        3.84816432      21.16076660      18.92088318
C       12.03370380      39.37498856      17.99689102
O       12.38192272      38.09020233      18.49210358
C       13.06124687      37.27582169      17.52068138
C       13.52384663      36.05759048      18.29651451
O       14.50921822      35.36946869      17.50683975
C       15.20126152      34.41920853      18.33458710
C       16.34029579      33.82051468      17.51169968
O       16.90484428      32.75065994      18.31584930
C       18.02583694      33.12744904      19.12562180
H       11.19942284      39.30067444      17.27957726
H       11.72030926      39.99137497      18.84850502
H       12.88751984      39.85121536      17.48806953
H       13.93938446      37.80519867      17.11183739
H       12.38493443      37.00543976      16.68200874
H       12.66878891      35.39425659      18.52024269
H       13.93571472      36.38504028      19.26948357
H       14.49293041      33.63181305      18.65202332
H       15.58786678      34.90173721      19.25062561
H       15.96469975      33.35802078      16.57991982
H       17.09550285      34.58171463      17.25305557
H       17.73677444      33.75017548      19.99305153
H       18.80012894      33.63873672      18.52852440
H       18.43034935      32.18981552      19.54393387
C       34.05895615      15.91146755      34.26286316
O       34.25883865      16.85589409      33.20359421
C       33.12765884      16.96977234      32.31616592
C       33.46015167      18.02849197      31.28031921
O       32.53590393      17.82769203      30.21188927
C       32.63537979      18.91956329      29.29161453
C       31.60312080      18.68407440      28.17183495
O       31.88626480      19.46183777      26.99426270
C       31.95435333      20.87170982      27.26970100
H       33.99108505      14.88241196      33.87229919
H       34.89784241      16.00070190      34.96198654
H       33.12301254      16.12142372      34.80186462
H       32.21984863      17.23506165      32.88499451
H       32.92773438      16.00595665      31.81850624
H       34.49448776      17.90017509      30.91905022
H       33.35565567      19.03694725      31.72516060
H       33.64847183      18.94157600      28.85147858
H       32.45396423      19.86950111      29.83100891
H       31.60046196      17.63140678      27.84560394
H       30.58280373      18.89645576      28.52922440
H       32.81549454      21.14680099      27.90374184
H       31.02368546      21.21209145      27.75768852
H       32.04719543      21.36763573      26.29158783
C       25.71151352      12.93278599      31.43613243
O       24.30421829      12.67254448      31.48786926
C       23.73072052      13.24180031      32.67676926
C       22.24695969      12.93192387      32.59984970
O       21.68023491      13.40576458      33.82873154
C       20.27545357      13.12311935      33.88779449
C       19.87447548      13.48835468      35.32042313
O       18.58632851      12.92237473      35.63904953
C       17.50635910      13.80834770      35.33288193
H       26.20998192      12.60866833      32.36287308
H       26.12199783      12.38885021      30.57369995
H       25.89022446      14.01157284      31.30743599
H       23.88417244      14.33746624      32.73010254
H       24.17395210      12.79976463      33.58770370
H       22.08893394      11.84624195      32.46012878
H       21.77730751      13.43346405      31.73330879
H       20.08879089      12.05372810      33.69125366
H       19.70764542      13.68904972      33.12451553
H       20.59278488      13.08186340      36.04721832
H       19.84395409      14.58055878      35.48221970
H       17.34733963      13.97262573      34.25310135
H       17.67567444      14.80471039      35.78598022
H       16.58259392      13.34094715      35.71841049
C       34.52989197      11.33576488      34.92955399
O       35.62073517      10.93366432      34.09640884
C       35.64655304       9.54841900      33.71845627
C       36.89454651       9.36738205      32.85578537
O       37.04198837       7.95480442      32.72248840
C       38.18010712       7.57310581      31.96128273
C       38.09570694       6.04662895      31.89266968
O       39.23953629       5.46840858      31.26258850
C       39.23848343       5.49722433      29.84122849
H       34.44749832      10.71128464      35.83440781
H       34.67913055      12.38734722      35.20814514
H       33.56728363      11.24893951      34.39144897
H       34.74159622       9.28564835      33.13904953
H       35.67992401       8.91074944      34.61804199
H       37.76654434       9.81983852      33.35726547
H       36.76000214       9.84671307      31.87270355
H       39.11087418       7.89742041      32.45629120
H       38.12982559       7.98574448      30.93803596
H       38.04585266       5.65908813      32.92018127
H       37.16286087       5.75099468      31.38184738
H       39.29771042       6.51410294      29.43347168
H       38.34789276       5.00354481      29.43188858
H       40.12181091       4.93288517      29.52073097
C       18.08579254      19.17892647      16.34922218
O       18.48414421      18.65003777      17.61943054
C       18.30585670      17.22863007      17.62846756
C       18.76112556      16.79291153      19.01444626
O       18.54263306      15.38015461      19.06628227
C       19.22953987      14.77221107      20.17628670
C       19.20010948      13.29178619      19.78978348
O       19.26032066      12.42735291      20.94197273
C       20.55412674      12.11996746      21.46710968
H       17.02696228      18.94196320      16.15052795
H       18.21128845      20.26790810      16.38041878
H       18.67091370      18.74199867      15.51996803
H       18.90157890      16.73971367      16.83230972
H       17.25297546      16.95379066      17.42204475
H       18.20739365      17.30636597      19.82242584
H       19.82683182      17.05154037      19.15685463
H       18.70282364      14.96531677      21.12970924
H       20.25813103      15.16197109      20.24958229
H       18.21653175      13.09199810      19.33425903
H       19.94516373      13.01686001      19.02150726
H       20.99439621      12.94992256      22.04368973
H       21.26070404      11.81742191      20.67436409
H       20.41301155      11.25504303      22.13759613
C       11.49741745      41.43322754      15.10464859
O       11.66895390      40.09457397      14.64150524
C       10.47674751      39.49431992      14.10871124
C       10.92733383      38.17178345      13.50155067
O        9.74568272      37.47921371      13.05772495
C       10.07205391      36.39104462      12.17968369
C        8.72432041      35.80887985      11.75319099
O        8.88912964      34.52837753      11.11610699
C        9.18020058      34.59216690       9.70568371
H       10.87337112      41.46398926      16.01631165
H       12.48764324      41.84927750      15.33761501
H       11.00125408      42.04968262      14.33937168
H       10.01972485      40.12322617      13.32866573
H        9.72056103      39.35887527      14.90221500
H       11.47844601      37.55993271      14.24312019
H       11.61046600      38.36125946      12.65132046
H       10.67249775      35.61275101      12.69132519
H       10.62778664      36.73484039      11.28660488
H        8.09033775      35.66395187      12.64219093
H        8.17292404      36.48326874      11.08659554
H       10.16000080      35.04351044       9.52447224
H        8.39996243      35.15606308       9.17219353
H        9.19021702      33.56056595       9.33281898
C       23.67756081      18.11917496      41.19330215
O       24.70023155      17.17748070      40.85601425
C       24.45855904      15.85077095      41.34443665
C       25.58065414      15.00091457      40.74649048
O       25.38157463      13.67886543      41.22819138
C       26.30566597      12.77597809      40.63151932
C       26.03424072      11.38885021      41.20364761
O       26.80888748      10.50171375      40.38543320
C       26.44397545       9.13278103      40.38577652
H       23.51358986      18.18115807      42.28147888
H       23.99021339      19.09029770      40.79478836
H       22.72834969      17.83223343      40.71670914
H       23.49225426      15.48114777      40.96791840
H       24.43682671      15.84038067      42.44656754
H       26.57113266      15.38873577      41.04388809
H       25.50503159      15.03528500      39.64221573
H       27.34928894      13.08207512      40.82982635
H       26.15313530      12.70033741      39.53774643
H       26.31285858      11.32017326      42.27187347
H       24.95573616      11.18183994      41.11568069
H       25.61906052       8.93486881      39.68403244
H       26.14167786       8.79113007      41.39285278
H       27.30707169       8.53883266      40.05754471
C       24.18118095      24.99533653       7.98734951
O       24.27615547      26.25131416       8.66857433
C       24.34434128      27.36497307       7.73989153
C       24.47004509      28.60063934       8.62476158
O       24.57142639      29.71559143       7.73554087
C       24.64343643      30.96216965       8.46711922
C       24.74378967      32.03406525       7.37685156
O       24.95871735      33.32067490       7.94433975
C       23.83097267      33.85044098       8.65443611
H       24.93204498      24.90005302       7.18141079
H       24.33866119      24.20203590       8.73066139
H       23.17921448      24.85802269       7.54024649
H       23.43584442      27.39900970       7.11270761
H       25.20806503      27.25379753       7.05248737
H       25.36822891      28.53712463       9.26914310
H       23.59983635      28.70419884       9.30628300
H       25.52290916      30.99719810       9.13564396
H       23.75126648      31.11923981       9.09991264
H       25.60233116      31.82253456       6.71408463
H       23.84373283      32.03392792       6.73674774
H       23.57447433      33.26873016       9.55583572
H       22.94091415      33.85564423       7.99494743
H       24.02815628      34.89731598       8.91977024
C        3.01587057      21.92176437      29.77516556
O        4.43398762      21.99085426      29.82690048
C        4.97757435      22.60720634      31.02232170
C        6.46737385      22.32396317      30.93736839
O        7.07001734      22.91868973      32.08987427
C        8.46652412      22.58622932      32.10742188
C        9.08380127      23.20384407      33.36116791
O       10.53594494      23.12862778      33.28490448
C       11.15158081      21.83663940      33.40009308
H        2.56366801      22.92159653      29.84835815
H        2.73200274      21.47827530      28.81282806
H        2.60999680      21.28465080      30.57842636
H        4.53616238      22.17049217      31.92715263
H        4.75014305      23.68239021      31.00378609
H        6.86580753      22.74066544      29.99060440
H        6.61101961      21.22641373      30.91098404
H        8.95494843      23.00752640      31.20983696
H        8.60319328      21.49077415      32.08204651
H        8.86546135      24.27934837      33.37770081
H        8.69716358      22.74917984      34.28683472
H       10.91226768      21.19234085      32.53934479
H       10.84594631      21.32526588      34.32591248
H       12.23827648      22.00212097      33.41996384
C        4.84914351      36.15495300      15.46583271
O        5.19208813      34.96136093      14.74457741
C        5.18338585      33.74920273      15.51902390
C        5.06583500      32.65553665      14.47309208
O        5.29237747      31.37976265      15.09510231
C        5.32840061      30.41838074      14.02810192
C        5.65467119      29.05385399      14.62261772
O        6.00708294      28.16040802      13.55871582
C        4.95706415      27.46007538      12.89714718
H        5.64226246      36.46765137      16.16260147
H        4.67688036      36.94022751      14.71609116
H        3.92403173      36.01004028      16.04604340
H        4.35001659      33.75991440      16.24126434
H        6.12152147      33.64440155      16.08807373
H        5.81514168      32.82727051      13.67375278
H        4.08582401      32.67207336      13.96255016
H        6.11032820      30.65489006      13.28062916
H        4.37244511      30.39083672      13.46954632
H        6.52130890      29.13218880      15.30164528
H        4.80776262      28.67106628      15.21959019
H        4.30326986      28.10853004      12.29265881
H        4.31871986      26.90283012      13.59971619
H        5.39883709      26.72323608      12.20667362
C       41.20403290      21.05823708      25.42682266
O       40.27336121      20.00175476      25.18633842
C       38.91441727      20.35957146      25.48732948
C       38.22584152      19.08867264      25.96981239
O       36.82525253      19.36882973      26.00565910
C       36.13575363      18.28789139      26.62998009
C       34.67869186      18.42494392      26.18552780
O       33.91575623      17.30441093      26.66428185
C       33.80564499      16.24802399      25.72026253
H       41.07504272      21.47847939      26.43596268
H       42.21145248      20.63409996      25.33313751
H       41.06515121      21.85683250      24.67758179
H       38.40965271      20.70941544      24.56960869
H       38.86101151      21.16168404      26.24577522
H       38.61323929      18.80831337      26.96890259
H       38.44539261      18.24940872      25.27813530
H       36.23395157      18.34246063      27.72886467
H       36.52362061      17.30868149      26.30123711
H       34.17959976      19.32326698      26.57959557
H       34.59257889      18.49367714      25.09458542
H       34.77043915      15.79767227      25.42389297
H       33.29240799      16.59095001      24.80605507
H       33.19348145      15.47146416      26.20438385
C       24.27314949       3.47149253      41.47337723
O       22.97998238       3.92177105      41.12322617
C       21.99709129       2.89655018      40.99957657
C       20.72945023       3.67226696      40.65095139
O       19.72559929       2.68757892      40.53615189
C       18.48370361       3.24660206      40.15083313
C       17.51314163       2.06844759      40.20071793
O       16.29895020       2.41999125      39.52611542
C       15.19477844       2.87746024      40.28522873
H       24.69526100       2.79520488      40.71075821
H       24.91659164       4.36107874      41.54618835
H       24.28522491       2.94476938      42.44727325
H       21.89645386       2.33881021      41.94592285
H       22.24513054       2.18275189      40.18872070
H       20.90377045       4.19727850      39.69874191
H       20.48055077       4.42672539      41.42918015
H       18.50743866       3.62093878      39.11424637
H       18.17915344       4.07117414      40.82239151
H       17.95320320       1.22641945      39.64247513
H       17.32167053       1.73926473      41.23536301
H       15.37314892       3.86163187      40.74769974
H       14.90315533       2.14410043      41.05751419
H       14.35713959       2.97557950      39.58551407
C        3.40743208      29.94491959      31.62847137
O        4.26030350      30.11792183      30.50219727
C        3.64876127      30.66078949      29.31603432
C        4.53044796      30.24971199      28.13238335
O        4.10073233      31.02001953      27.01441574
C        4.84732485      30.65138817      25.84574509
C        4.42578173      31.62300491      24.74126053
O        5.10902691      31.37043953      23.49737740
C        6.35949516      32.08797836      23.35939598
H        2.37441301      29.74897003      31.30344582
H        3.75556922      29.07924652      32.20652771
H        3.38570642      30.82225037      32.29346085
H        3.56911922      31.75674248      29.40545082
H        2.62741232      30.26492310      29.19494247
H        4.42226696      29.17401123      27.91183472
H        5.58860731      30.44492531      28.38882828
H        4.66023636      29.60892487      25.53193283
H        5.93396330      30.74993706      26.01348305
H        3.34683323      31.53076363      24.54542351
H        4.58547735      32.65405273      25.10393143
H        7.13232994      31.72469711      24.05452538
H        6.18423176      33.16889954      23.49448204
H        6.71056509      31.93717766      22.32650757
C       17.97616005      22.90992355      16.88046646
O       17.17946434      22.16521645      17.81785202
C       17.47788811      22.60731888      19.15826607
C       16.81046677      21.64206505      20.11997414
O       17.06877327      22.14157867      21.44397545
C       16.28603554      21.44362068      22.42203522
C       16.37068748      22.31725693      23.67711258
O       15.51877880      21.80872536      24.74164200
C       14.16847897      22.26860619      24.56553078
H       19.04915237      22.79887390      17.10912323
H       17.78374863      22.53082085      15.86364651
H       17.71045113      23.98046494      16.90803528
H       17.09363365      23.63176918      19.34599876
H       18.57068634      22.62057304      19.33949471
H       17.20526886      20.61800194      19.98055840
H       15.72025108      21.58213997      19.92177582
H       16.67354965      20.42163467      22.58867073
H       15.23955345      21.36056900      22.07516289
H       17.39580345      22.35929489      24.08560562
H       16.04356575      23.34076500      23.42654610
H       13.70555782      21.87761879      23.64008713
H       14.11746311      23.37388420      24.53377151
H       13.55066109      21.90290642      25.39961624
C       30.08407402      19.46277237      24.34476471
O       29.49055099      19.83713722      23.09824753
C       30.46531105      20.10750389      22.06861496
C       29.66921425      20.47163963      20.82664680
O       30.61659622      20.78862190      19.79662132
C       29.93974113      20.94889641      18.53480339
C       31.01224709      21.08726501      17.45542908
O       30.41611862      21.34011841      16.17355156
C       30.77981567      20.41056442      15.13989639
H       30.83547783      20.18750191      24.69018555
H       29.27964783      19.41367340      25.09291077
H       30.52770996      18.45806503      24.29436493
H       31.08013916      19.21568871      21.86528778
H       31.13808632      20.92095375      22.39015007
H       28.99127388      21.32304764      21.02601814
H       29.02325821      19.63129425      20.50873184
H       29.24158478      21.80222130      18.57555962
H       29.31978226      20.06893730      18.30451775
H       31.69457245      21.91140938      17.71537018
H       31.60749817      20.15991974      17.40530014
H       30.47562027      19.37981606      15.39834023
H       31.86194229      20.43538857      14.93727016
H       30.25485992      20.70224762      14.21611977
C       29.08819962      14.34821606       4.64127493
O       29.69941139      13.13018703       5.03013802
C       30.49933052      12.51504898       4.02329922
C       31.11968994      11.34912491       4.77826977
O       31.94216347      10.62016487       3.87822485
C       32.56950760       9.52010250       4.53303337
C       33.60475159       8.98745346       3.52301264
O       34.16129684       7.74783468       3.97044277
C       35.15255356       7.87542248       4.97544670
H       28.43535805      14.19789791       3.76751471
H       28.46037292      14.66578102       5.48400879
H       29.84144402      15.11908627       4.41794634
H       31.28340340      13.18591213       3.63441992
H       29.89217186      12.15135384       3.17358875
H       30.29782104      10.73588467       5.18086624
H       31.68555069      11.74497318       5.64202118
H       31.82825089       8.74417305       4.79200077
H       33.06701279       9.83441544       5.46835756
H       33.11432648       8.78029060       2.56085563
H       34.39149857       9.73607159       3.34846926
H       34.77117157       8.27718067       5.92571163
H       36.00528717       8.49115372       4.63514757
H       35.51581955       6.86004114       5.18643332
C        2.96165729      22.82155800      25.93651581
O        3.99043322      23.67778778      25.47126961
C        4.96074629      24.16455269      26.42862129
C        5.75069523      25.18346786      25.61938667
O        6.63935089      25.87493324      26.50200844
C        7.22543573      26.96374893      25.76567459
C        7.95511341      27.87197495      26.75063515
O        8.54298687      28.93261147      25.96952438
C        9.88832283      28.64742088      25.51496696
H        2.24816060      23.34917259      26.58931351
H        2.42226958      22.45327377      25.05535889
H        3.35402369      21.95428848      26.49796486
H        5.59410810      23.34102440      26.80325317
H        4.46926498      24.62493515      27.30218506
H        5.02770329      25.87556839      25.14303970
H        6.28833008      24.68144608      24.78845215
H        6.44199753      27.53492737      25.23999596
H        7.90117168      26.56808090      24.98523903
H        7.26030254      28.32207489      27.47500420
H        8.70746994      27.32489777      27.33716774
H        9.94581795      27.68379974      24.97861481
H       10.59786606      28.63163567      26.35413742
H       10.12835026      29.45538902      24.80689049
C       30.38347054       9.20866013      11.54437256
O       29.63809204       8.07408428      11.08159161
C       28.63029480       7.65539503      12.02528191
C       27.82839584       6.61787558      11.25271893
O       26.82015991       6.12466097      12.16201973
C       26.16435814       4.99962854      11.56345940
C       25.09637070       4.55925846      12.56822109
O       24.57042313       3.28321910      12.16524220
C       23.51584244       3.24521399      11.21428680
H       30.95148087       9.00962162      12.46175766
H       31.07475471       9.48548412      10.73387623
H       29.71015739      10.05183220      11.75732517
H       27.98814774       8.50284100      12.32289124
H       29.07425117       7.23391056      12.94547462
H       28.46490860       5.79826307      10.88228512
H       27.36426353       7.07059050      10.35857487
H       26.87466240       4.17677069      11.39510727
H       25.70772362       5.25872850      10.59050941
H       25.57153320       4.43095732      13.55212402
H       24.28478241       5.29517937      12.69105053
H       23.83637619       3.53835821      10.20225239
H       22.68215370       3.89693356      11.52129555
H       23.13470268       2.21623111      11.18295479
C        5.95480394      23.31508827       7.99578905
O        6.38198471      21.96133041       8.03343105
C        6.66925716      21.34933662       6.76617718
C        7.20062542      19.97560692       7.14648581
O        7.34266901      19.22352982       5.92550135
C        7.87119055      17.89475060       6.13148642
C        7.86809015      17.23951912       4.73386288
O        8.24882221      15.86396599       4.79700232
C        9.64779663      15.63206863       4.89653206
H        4.99932718      23.41170692       7.45143604
H        5.77185202      23.64165497       9.02931118
H        6.69900942      23.96541595       7.50755310
H        7.43414259      21.91711235       6.20638418
H        5.75486851      21.28252029       6.14030266
H        6.51436520      19.49975777       7.86835670
H        8.16901684      20.08570671       7.67275906
H        7.22579050      17.33762932       6.83881807
H        8.89327049      17.95693588       6.54786110
H        6.83584261      17.25089073       4.35239410
H        8.49449825      17.81411362       4.02546787
H       10.13605881      16.20867157       5.69328547
H       10.16781235      15.85820961       3.94720078
H        9.77138233      14.56416130       5.12351751
C        7.04677010      29.27887535      18.02629662
O        6.03559828      28.30316544      17.71616745
C        5.80303621      27.51396942      18.90312386
C        4.84857750      26.40716553      18.48865128
O        4.40508175      25.83776093      19.73299408
C        3.61525178      24.66768837      19.52748871
C        3.13525748      24.31004715      20.93250084
O        2.62408686      22.97076416      20.93174362
C        1.21015811      22.82004738      20.89252472
H        7.96540165      28.81175232      18.42030907
H        7.25962257      29.80415916      17.08228111
H        6.67096853      29.99666023      18.77854919
H        5.38586760      28.12758636      19.72198105
H        6.74482965      27.08843231      19.29398727
H        5.35166264      25.64713287      17.86498642
H        3.99587703      26.78462410      17.89082527
H        4.20626402      23.84039116      19.08980751
H        2.76748943      24.85857391      18.84092903
H        3.98452187      24.34277344      21.63128853
H        2.38019156      25.02324677      21.31226540
H        0.80526608      22.90683746      19.87005424
H        0.71881396      23.58446121      21.51883507
H        0.95975167      21.82556152      21.28270721
C        9.52654839      29.70422745      12.81050014
O        9.11306000      31.06505585      12.91765976
C        9.06458092      31.54029465      14.27344704
C        8.95341492      33.05067444      14.18654919
O        8.73633766      33.53659058      15.50537109
C        8.68748379      34.97352219      15.55486202
C        8.35794640      35.30384827      17.01778030
O        7.91210127      36.65828323      17.16774940
C        9.00013256      37.58564377      17.15562248
H        8.73223400      29.02403259      13.16705799
H        9.67795467      29.44933510      11.74850559
H       10.45755196      29.52627182      13.37588596
H        9.96185303      31.26134491      14.85763073
H        8.18357563      31.13431549      14.80761242
H        8.09920311      33.30709076      13.52752876
H        9.86892986      33.45598221      13.71832275
H        7.87945032      35.34529877      14.89463806
H        9.65239048      35.40686035      15.23232174
H        7.50301456      34.69467545      17.34873390
H        9.19247246      35.07295227      17.69715881
H        9.59825230      37.50938797      16.23455620
H        9.66336823      37.46395111      18.02436829
H        8.54310322      38.58408356      17.19164467
C       18.08941460       3.95380211      36.12035751
O       19.41823387       3.50643611      36.35424805
C       20.27794266       3.60649896      35.19572449
C       21.58768845       3.00855756      35.66985703
O       22.46555901       3.11025143      34.54219437
C       23.80266571       2.73189259      34.89826202
C       24.67515373       3.06442118      33.68603516
O       26.01756287       2.62459731      33.91727066
C       26.78528404       3.50899792      34.71495056
H       17.62664413       3.43606591      35.26462173
H       17.48303795       3.72671247      37.00661850
H       18.03460121       5.03206635      35.90957260
H       20.42419434       4.65694237      34.89155579
H       19.86495972       3.05249667      34.33369446
H       21.45176697       1.95781994      35.97510147
H       21.98324013       3.57781529      36.53254318
H       23.85303879       1.65374422      35.11579895
H       24.11557007       3.29213572      35.80018234
H       24.30596542       2.55009389      32.79071426
H       24.62101555       4.14707136      33.49485397
H       26.28935432       3.78253794      35.65996933
H       26.99849319       4.44354725      34.16990280
H       27.73407936       3.00953770      34.96518326
C       17.20073318      20.31178474      11.13993549
O       18.13130188      21.07436371      11.92658520
C       18.82006264      21.98743248      11.03280640
C       19.50024986      23.00613976      11.92198753
O       20.01137543      23.99429893      11.01814842
C       20.84893227      24.93366241      11.70031166
C       21.26932335      25.98050880      10.67108917
O       22.11481285      26.93086624      11.35138130
C       21.44559860      28.07822800      11.88616848
H       17.69883156      19.69768524      10.37154007
H       16.64026642      19.64446068      11.80766773
H       16.47395134      20.96436501      10.63221741
H       18.10274506      22.49938965      10.36865616
H       19.52570915      21.44397354      10.36859703
H       20.31091309      22.56720352      12.53109074
H       18.76754761      23.44799042      12.62766171
H       21.74697685      24.43594742      12.10498714
H       20.31874657      25.41416740      12.54818630
H       21.83529854      25.51884460       9.83703995
H       20.38256264      26.44750786      10.20113087
H       20.62987137      27.80741882      12.57740879
H       21.00661087      28.67021179      11.06416607
H       22.17418861      28.69018173      12.43809986
C       31.24534225      17.64608765      18.79602051
O       31.23978996      17.13928032      17.45625877
C       30.43464851      15.95284748      17.34207726
C       30.78783417      15.30770683      16.02112198
O       29.86487198      14.20956230      15.88177586
C       29.91059875      13.69248676      14.54573536
C       29.04556656      12.43774986      14.55021095
O       29.12359810      11.76479912      13.29288197
C       28.26410103      12.28483105      12.27568436
H       31.62011528      16.90580368      19.52402687
H       31.86127281      18.55433273      18.83015823
H       30.21945953      17.92646980      19.11305237
H       29.36183739      16.20965958      17.35414505
H       30.61801147      15.26726723      18.19220924
H       31.82769394      14.94107723      16.00385857
H       30.64927101      16.02103806      15.18842697
H       30.94172096      13.44018841      14.24834728
H       29.48991394      14.41425896      13.82235718
H       29.38978767      11.74784851      15.33972549
H       28.00512314      12.69567394      14.81907654
H       28.45797729      13.34622192      12.07629490
H       27.20411491      12.13745975      12.53956890
H       28.42924309      11.70375156      11.35099125
C       14.08160210      13.86729717      34.34080124
O       12.80602837      14.11132050      33.72921371
C       11.87509632      13.03785801      33.93507385
C       10.52445984      13.67407417      33.65677643
O        9.53999996      12.65170097      33.53246307
C        8.28522396      13.26007175      33.22922516
C        7.20218277      12.22945786      33.48499680
O        5.92351294      12.87098694      33.28212738
C        4.99388409      12.78095341      34.37094879
H       14.49919224      12.89560032      34.02848053
H       14.76716137      14.66670322      34.01289749
H       13.99093437      13.87472439      35.44399643
H       11.93575096      12.65137482      34.96539688
H       12.07736588      12.19934464      33.24700165
H       10.57741642      14.25150585      32.71594620
H       10.24595928      14.37949848      34.45936966
H        8.24461842      13.58636856      32.17254257
H        8.09762669      14.14805126      33.86096573
H        7.29301167      11.37800407      32.80065918
H        7.27938604      11.82598591      34.50563431
H        5.14654589      13.56281757      35.12714386
H        5.03480482      11.79181576      34.86103439
H        3.97881031      12.88508987      33.94649124
C       17.66290665      19.85622406      29.21121788
O       16.59045982      20.51403427      28.52384949
C       16.28340149      21.75057983      29.19817352
C       15.07122898      22.36418724      28.52292633
O       14.97243595      23.64651680      29.15304184
C       13.66019249      24.21652985      29.15491295
C       13.75373650      25.36908150      30.15797234
O       12.51884174      26.10037231      30.25196075
C       12.40971470      27.07964134      29.19734001
H       17.31822205      19.44790459      30.17768860
H       17.99380684      19.00712013      28.59523964
H       18.50911713      20.53964806      29.36968613
H       17.13467026      22.45228195      29.14567375
H       16.05836678      21.60024643      30.26653481
H       14.16413593      21.75564766      28.69036674
H       15.20744514      22.45035362      27.42937851
H       12.89965534      23.49497223      29.49240112
H       13.37429237      24.53956604      28.13717461
H       13.96159554      24.97642326      31.16315460
H       14.58540440      26.03841019      29.88619995
H       12.41112137      26.62928772      28.19281197
H       13.21792698      27.82243156      29.26836967
H       11.43049717      27.56547165      29.32442284
C       36.90245056       4.41979837      26.29513931
O       35.70403671       4.71394587      26.99473572
C       34.54177856       4.34976864      26.25585175
C       33.36917496       4.60963297      27.19302750
O       32.22723389       4.33500385      26.40488815
C       31.00586128       4.53263283      27.10053253
C       29.93194771       4.17061329      26.07106209
O       28.63644600       4.40681267      26.63822174
C       28.12689209       3.38569474      27.48830605
H       36.94590378       4.94953823      25.32921219
H       37.72610855       4.74912310      26.93992424
H       37.00299835       3.33983684      26.09930992
H       34.58518219       3.29977942      25.91978073
H       34.43546295       4.98838377      25.36080742
H       33.37150574       5.65542412      27.54762268
H       33.41847992       3.95819783      28.08261871
H       30.86638069       5.58879805      27.42432213
H       30.92113495       3.88913035      27.99508858
H       30.03091431       4.83938932      25.20229149
H       30.04913521       3.13343310      25.71370697
H       28.40119553       3.53441238      28.54445839
H       28.44456482       2.38957524      27.15430832
H       27.03330994       3.40717578      27.41697693
C       35.45087433      10.27986717      41.29537582
O       34.33164215      10.31217384      40.44252014
C       34.48666763       9.56597328      39.23048019
C       33.11722565       9.57221317      38.55265045
O       33.30201721       8.83830070      37.35076141
C       32.09206772       8.58322430      36.64435577
C       32.44789505       7.64842081      35.48471451
O       31.31091881       7.61124897      34.59882736
C       30.50600052       6.44884014      34.66588593
H       36.38966370      10.47389317      40.74819946
H       35.33724976      11.06984329      42.05067062
H       35.53147507       9.31260777      41.81957245
H       34.81623840       8.53198528      39.42209244
H       35.23099899      10.04095078      38.56402588
H       32.80598831      10.61027050      38.35197067
H       32.35297012       9.11891270      39.20080566
H       31.67221832       9.51553345      36.22766113
H       31.32341385       8.14598370      37.30296326
H       33.29029083       8.07892036      34.92242050
H       32.73274231       6.64616013      35.83210373
H       30.10699463       6.28068542      35.67919159
H       31.04697609       5.55254602      34.32024384
H       29.64630127       6.62156916      34.00734329
C       27.60595131      18.19277191      34.47689438
O       27.12060738      17.14712906      35.32006073
C       27.20380783      15.89927006      34.60606003
C       26.73033333      14.85955620      35.59534454
O       26.70931816      13.60118771      34.90392303
C       26.40351105      12.54484749      35.81636429
C       26.72988319      11.26476479      35.05229187
O       26.25605965      10.15385914      35.84449005
C       27.23790741       9.20054913      36.25490570
H       26.91415977      18.34449005      33.62733078
H       27.64229965      19.11183739      35.07201767
H       28.61211777      17.95836067      34.09618378
H       28.23620033      15.68899536      34.27067566
H       26.55661774      15.91187382      33.70413589
H       25.72517967      15.10554409      35.98016357
H       27.40450096      14.83887291      36.46802139
H       25.33311653      12.56119537      36.10376358
H       27.00714302      12.61588764      36.74121094
H       26.20254135      11.24037361      34.08138275
H       27.80661201      11.20841217      34.83293915
H       27.82088852       9.55608082      37.11860657
H       27.91997528       8.92922878      35.43478012
H       26.66910744       8.30707550      36.55481720
C       19.15594673       7.70613146      19.41053772
O       20.19108200       8.36195660      18.68454933
C       21.43738174       8.45634937      19.42123795
C       22.37984085       9.18838310      18.47000313
O       23.60074806       9.41107082      19.17523956
C       24.67379189       9.75036907      18.28034592
C       25.94157600       9.79634571      19.12982750
O       27.00981522      10.28423977      18.26815987
C       28.01603317       9.34798145      17.84722710
H       18.90703773       8.22524643      20.34823990
H       18.25707245       7.69788980      18.77815247
H       19.40877724       6.65747356      19.64133263
H       21.82035446       7.44597054      19.64561272
H       21.28438950       8.97969627      20.38538933
H       21.90716743      10.13499928      18.15260887
H       22.52147102       8.57423782      17.55846786
H       24.47649765      10.72384071      17.80153084
H       24.77836418       8.99569225      17.47990990
H       25.81461525      10.49726009      19.96575737
H       26.15495110       8.81026459      19.55815315
H       27.66365242       8.73678017      17.00001144
H       28.30193520       8.67200756      18.66860008
H       28.89279747       9.92327595      17.51714134
C       25.62817192      28.30126381       3.96385217
O       24.32571411      28.66810417       4.40050030
C       24.09050941      30.10017586       4.52219200
C       22.67637825      30.18779755       5.09266567
O       22.14243317      31.51488495       4.99410582
C       20.80516815      31.51300240       5.53451538
C       20.15035439      32.83225632       5.13337374
O       18.79451942      32.94585800       5.63217068
C       17.78114891      32.40345383       4.78402090
H       26.40293312      28.83577728       4.52923918
H       25.73087692      27.22258568       4.15200853
H       25.76891518      28.50452042       2.88677979
H       24.12895775      30.54788971       3.51573038
H       24.85976028      30.56557274       5.15842819
H       22.62539291      29.81688309       6.13329172
H       22.03703308      29.50431252       4.50717497
H       20.80868149      31.41139793       6.63759470
H       20.21988106      30.67161560       5.13123798
H       20.69818306      33.67987061       5.57327604
H       20.14330482      32.92220688       4.03233099
H       17.85810471      31.30721283       4.68070889
H       17.81223679      32.86260986       3.78236580
H       16.81412888      32.62636948       5.25543404
C       11.30961323       4.32480907      28.48365974
O        9.94540596       4.13437366      28.07680702
C        9.00512600       4.87596273      28.88127708
C        7.62547493       4.59591532      28.29383659
O        6.73703671       5.18482733      29.22736931
C        5.35002232       5.13290739      28.87143135
C        4.75783682       5.98286772      30.00542259
O        3.35921979       6.19726467      29.94423103
C        2.95402408       7.22475815      29.05987358
H       11.52620697       3.75890851      29.40224457
H       11.96307278       3.95773077      27.67314529
H       11.52363491       5.38945389      28.65444946
H        9.20991707       5.96121025      28.83013535
H        9.06232643       4.56468201      29.93720245
H        7.46171999       3.51243210      28.16862106
H        7.53766203       5.06141186      27.29184723
H        4.96822405       4.09750175      28.85377121
H        5.14492416       5.56731367      27.87619209
H        4.94789553       5.48393536      30.96998215
H        5.28986740       6.94421196      30.00440598
H        3.14604664       6.99570894      28.00214767
H        3.39454865       8.18720341      29.33328629
H        1.86157751       7.29398870      29.15344810
C       29.11887550      22.69520187       5.86714363
O       27.75222588      22.76998711       5.45087719
C       26.84604836      22.31819153       6.47740030
C       25.50177002      22.20363617       5.76947451
O       24.59125900      21.75275040       6.78971100
C       23.39391518      21.18722153       6.24312210
C       22.65418434      20.59173584       7.44229603
O       21.50213242      19.86763954       6.99856329
C       20.33158684      20.65714073       6.82026196
H       29.42090416      21.65275383       6.06015635
H       29.74403763      23.12409210       5.07199717
H       29.28874397      23.24967766       6.80139828
H       26.81036568      23.02897072       7.32469463
H       27.13034248      21.33566475       6.89013100
H       25.56783295      21.48151970       4.93668461
H       25.15976715      23.16829872       5.35211754
H       23.63069534      20.39358711       5.50701427
H       22.78079987      21.94854164       5.73101139
H       23.31573105      19.86761093       7.94260406
H       22.37072945      21.35601997       8.19550991
H       20.32276917      21.21156502       5.87179232
H       20.16467667      21.37383080       7.63420439
H       19.46370125      19.98973465       6.83277702
C        1.73699689      36.71549988      26.53726959
O        2.63963389      36.13019562      27.45635986
C        3.85973573      35.67842865      26.86657333
C        4.53506231      34.88174438      27.97589874
O        5.72527266      34.26706314      27.46897697
C        6.39367485      33.57412720      28.52990723
C        7.54687262      32.78697968      27.89579391
O        8.11513329      31.87918663      28.86250114
C        8.81260014      32.57355881      29.91142845
H        1.55604112      36.06330109      25.66977310
H        0.78274244      36.85571671      27.06070137
H        2.11139131      37.68685913      26.17837524
H        4.49624014      36.52509308      26.54664040
H        3.67377949      35.04057312      25.98183441
H        3.83971667      34.08744049      28.28782082
H        4.77152348      35.51269913      28.85049248
H        5.68584824      32.88086700      29.00678825
H        6.75811195      34.29081345      29.28687477
H        7.19011688      32.18116760      27.04820824
H        8.32880020      33.46963120      27.52221107
H        8.12901783      32.98436737      30.67290306
H        9.41912842      33.39480209      29.49938583
H        9.46460438      31.85223579      30.41928482
C       13.44469452       1.72558331       9.91087532
O       13.95064259       3.01254964       9.57642174
C       13.58621025       3.41323447       8.23053741
C       14.33199787       4.71604872       8.02069855
O       13.92416573       5.13459492       6.71411657
C       14.80896282       6.12608671       6.20433187
C       14.31369114       6.44065809       4.78635788
O       15.23494148       7.33918571       4.15622663
C       15.05586243       8.71045017       4.48980141
H       13.86105824       0.93474430       9.26589108
H       13.70453453       1.53041375      10.95697308
H       12.34881687       1.68771029       9.81305885
H       12.49137878       3.53148913       8.14668941
H       13.90374947       2.65638781       7.49094439
H       15.41653633       4.53258562       8.07820892
H       14.07314491       5.46080112       8.80290031
H       15.84256363       5.74022579       6.14524555
H       14.82391071       7.02153111       6.85813618
H       14.30623245       5.52933788       4.17003822
H       13.28309631       6.83337879       4.79469776
H       15.20644379       8.92854500       5.55923605
H       14.04257107       9.04608822       4.21025848
H       15.80797291       9.27064991       3.91852903
C       22.39015198      21.56213951       2.58956647
O       22.72953606      22.73358917       3.32191467
C       21.77919388      23.81793976       3.19596481
C       22.24246407      24.83324051       4.22212934
O       21.24397278      25.84971809       4.24042702
C       21.46447372      26.76241875       5.32637501
C       20.28464890      27.72587967       5.28879738
O       20.47331429      28.70230484       6.34426880
C       20.01486015      28.48543549       7.67611551
H       22.29369736      21.77444649       1.51223731
H       23.17733765      20.81853485       2.76455688
H       21.42914963      21.15595245       2.94347262
H       20.75636482      23.50078201       3.44755769
H       21.77415276      24.22223473       2.17097998
H       23.23674774      25.24717331       3.96605515
H       22.31366920      24.35036469       5.21627426
H       22.41560555      27.30505180       5.19285202
H       21.46021652      26.24810600       6.30487919
H       20.25969124      28.28516960       4.33713770
H       19.31641197      27.21362114       5.38377285
H       20.34539223      27.51598740       8.08631516
H       18.91247368      28.51385307       7.75106859
H       20.41803360      29.29888535       8.30077744
C       23.57264137      39.74533081       7.80351877
O       22.56812477      39.11325455       8.60559082
C       22.50909615      37.71806335       8.24433899
C       21.56442833      37.10293961       9.26073265
O       21.32740211      35.74850082       8.83257771
C       20.35515213      35.13300323       9.69316959
C       20.26851845      33.69490433       9.18005657
O       19.28688431      32.97137070       9.94768333
C       19.72574234      32.48403931      11.21979427
H       23.39555550      39.57679749       6.72548866
H       23.53099823      40.82085800       8.01982307
H       24.57143021      39.35521698       8.05570793
H       23.50528908      37.23818970       8.29525471
H       22.12678719      37.59065628       7.21050501
H       20.61063194      37.66337967       9.30729103
H       21.97741508      37.14365005      10.28524017
H       19.37507439      35.63351059       9.57858372
H       20.63411140      35.19766998      10.76338100
H       19.90988731      33.67964172       8.13661575
H       21.25492287      33.20073700       9.20289612
H       20.31110954      33.22359085      11.79026127
H       20.31541443      31.55688477      11.10209179
H       18.83237839      32.25765610      11.82139778
C       26.00629425       9.60941315      14.44119740
O       26.23750305      10.12939358      13.12701035
C       25.12434196      10.25036335      12.20162582
C       25.58342171       9.74607944      10.83710861
O       24.53668022      10.07234383       9.91355991
C       24.93297386       9.63583565       8.60103893
C       23.86085892      10.05156422       7.60162067
O       24.10656929       9.41687107       6.33722019
C       24.96090126      10.08147907       5.40495491
H       24.95503807       9.29226303      14.56100464
H       26.63624382       8.71908092      14.61296272
H       26.20012283      10.35329056      15.23354340
H       24.81447601      11.30392075      12.15124798
H       24.23764610       9.69320583      12.54852581
H       25.75689316       8.65665627      10.85481930
H       26.53622055      10.23189545      10.55466461
H       25.05326080       8.53968811       8.55251884
H       25.89820099      10.08496094       8.32181358
H       22.86511612       9.71918678       7.94155836
H       23.78993988      11.15135193       7.51667881
H       25.95188904      10.27194691       5.83607483
H       24.50641441      11.02028751       5.05482101
H       25.06992149       9.41203976       4.53975105
C       12.67963028      15.59134674      30.74632454
O       11.77767658      15.91589451      29.68856239
C       11.12069130      14.80212879      29.06622505
C       10.10409927      15.45613670      28.15320396
O        9.33844757      14.38998795      27.58069801
C        8.23592091      14.84060764      26.79027748
C        8.18064880      13.92742252      25.55694580
O        7.22740412      14.40384197      24.57575417
C        5.84619236      14.38258171      24.98664284
H       13.67736912      15.35017967      30.34260941
H       12.75883675      16.45099068      31.43201065
H       12.31470585      14.73892307      31.34411240
H       10.60561943      14.16499424      29.80720711
H       11.81840611      14.15373039      28.50344086
H       10.60759068      16.03886604      27.35967445
H        9.47387123      16.14779472      28.73641586
H        8.37379169      15.87392807      26.43122482
H        7.29897833      14.81567669      27.36890793
H        9.14766502      13.96627522      25.02724266
H        7.96197939      12.87710476      25.82094383
H        5.56099033      15.25651169      25.59971428
H        5.57719183      13.46859264      25.53469276
H        5.22372627      14.40741634      24.07739067
C       18.04679108      39.77637863      15.31794453
O       17.78044891      38.97419357      14.17004299
C       17.69752884      39.80695724      12.98695183
C       17.51009369      38.94806290      11.74124718
O       17.47641373      39.91988754      10.69145107
C       17.46573067      39.29096603       9.40241146
C       17.53805733      40.40596771       8.36119747
O       17.67673874      39.87611389       7.02218676
C       18.92525482      39.26813889       6.66588545
H       17.25312614      40.53367233      15.45031071
H       18.04003716      39.13586807      16.21297455
H       19.02232933      40.28339767      15.23845959
H       18.61931610      40.39883041      12.89243507
H       16.84541512      40.49921799      13.12075233
H       16.56607628      38.37226105      11.76056194
H       18.34230804      38.22791672      11.59538174
H       16.54642487      38.70130920       9.25708199
H       18.32810020      38.60749435       9.27215767
H       16.60162354      40.98384476       8.36484051
H       18.36712456      41.08560562       8.60784531
H       19.08757973      38.32114792       7.21256638
H       19.77513885      39.94170761       6.84767628
H       18.87333870      39.00216293       5.60092306
C       27.94708824      18.24730682       8.11073112
O       26.96450615      19.25365067       8.39955139
C       26.07734299      18.99928856       9.51539993
C       25.49860191      20.37302971       9.84597397
O       24.58852577      20.24371719      10.95544243
C       24.08492851      21.54812241      11.33247566
C       23.36983299      21.32049942      12.66304398
O       22.75694466      22.49844170      13.21988964
C       23.57715797      23.58618546      13.64797306
H       27.46946716      17.33183289       7.72089958
H       28.61396217      18.65542221       7.33917093
H       28.52363777      17.98877716       9.01299286
H       26.62208748      18.59934235      10.38989162
H       25.29293060      18.27604675       9.22713184
H       24.97982979      20.77396202       8.96393967
H       26.30530930      21.07919884      10.10306358
H       23.38349915      21.92316818      10.56231594
H       24.89878654      22.27807617      11.45252037
H       22.52823639      20.62840652      12.51100349
H       24.06474495      20.85782242      13.38471794
H       24.21709633      23.96347618      12.83228970
H       24.19620705      23.32195473      14.52208614
H       22.88265419      24.37696648      13.97110844
C       20.65990448      41.57187653      10.46447563
O       20.56221390      40.56457901      11.46435452
C       21.85686493      40.08849335      11.84585953
C       21.65287781      38.90315628      12.78707218
O       22.83559990      38.10760498      12.68344784
C       22.96135902      37.06136322      13.65058517
C       24.41241455      36.59114456      13.46766949
O       24.66829872      35.31657028      14.09219074
C       25.01926231      35.40858459      15.47805500
H       21.05321884      41.15442276       9.52245426
H       19.63598061      41.94211960      10.30373669
H       21.31391335      42.39467621      10.79248428
H       22.44766426      40.88784027      12.32800674
H       22.40482140      39.74598694      10.94870186
H       20.76559258      38.32833862      12.46567059
H       21.46288872      39.22905350      13.82876015
H       22.25575256      36.24877930      13.40620041
H       22.74180794      37.42290115      14.67792606
H       24.57690811      36.41350937      12.38780308
H       25.12174797      37.35354614      13.82651234
H       24.39618874      36.13984680      16.02734375
H       26.08485031      35.67023087      15.61922550
H       24.82942963      34.41234207      15.91952229
C       27.84572792      20.90899849      27.57523727
O       27.48710632      22.25392914      27.26221848
C       28.64120102      23.11701965      27.30772209
C       28.11203766      24.52688789      27.09812927
O       29.22138596      25.33693504      26.71376991
C       28.77614594      26.67154121      26.43639565
C       30.03123093      27.53468704      26.27846718
O       29.62649727      28.89898491      26.13787079
C       29.29517555      29.25331879      24.78756142
H       28.49412537      20.87365913      28.46904373
H       26.91319847      20.36567497      27.77922630
H       28.37192154      20.41176033      26.74053574
H       29.34647369      22.83022499      26.50432014
H       29.16569138      23.01927567      28.27281761
H       27.62491608      24.92900085      28.00968933
H       27.34020996      24.50161171      26.30106735
H       28.14887047      27.05870819      27.26040459
H       28.14268303      26.68273926      25.52645874
H       30.65650749      27.46958351      27.18577194
H       30.62863922      27.19256783      25.41333580
H       28.49086571      28.62154579      24.37145996
H       30.17587852      29.18616676      24.12995148
H       28.92159081      30.28570557      24.82377815
C       41.62913513      24.12091064      17.19145584
O       40.34270859      23.52313232      17.03857231
C       40.32132721      22.16832733      17.50378609
C       38.92355728      21.66868973      17.16310883
O       38.69076920      20.49235916      17.96935081
C       37.34853363      20.06579018      17.72531319
C       37.03355789      18.84125328      18.57720375
O       35.71482849      18.44487572      18.13203049
C       34.89345932      17.76568413      19.10300446
H       42.40479660      23.57706451      16.63107109
H       41.54405212      25.13830376      16.78604889
H       41.93677902      24.17634583      18.24665260
H       40.50091171      22.11703491      18.59044647
H       41.08615875      21.55792046      16.99237633
H       38.80744171      21.41892624      16.09131813
H       38.15806198      22.43963814      17.37389565
H       37.19336319      19.84399796      16.65102386
H       36.63187790      20.87463379      17.96927834
H       37.76224136      18.03514290      18.39702797
H       37.04246140      19.07413292      19.65365219
H       34.10711670      18.42920303      19.48856544
H       35.49341583      17.40469933      19.95244026
H       34.39132309      16.91698265      18.61640739
C        9.86718559      28.05641937      16.03311348
O        8.76678658      27.20108986      16.36630630
C        8.36206436      26.47834587      15.18438721
C        6.97973680      25.95311928      15.52989578
O        6.46152544      25.23516083      14.39855957
C        5.28014517      24.49130249      14.73925591
C        4.78067827      23.87479591      13.43050289
O        3.43676925      23.36513901      13.62588120
C        3.35573339      22.03617096      14.14173126
H        9.58603859      28.67799377      15.16498947
H       10.05863476      28.70814514      16.89416504
H       10.77178097      27.47337532      15.78289890
H        9.07367802      25.66858482      14.94039822
H        8.25349903      27.14141083      14.30749989
H        6.31333733      26.79069328      15.79335213
H        7.00420713      25.32070351      16.43763351
H        4.50704813      25.15460587      15.17592335
H        5.50363159      23.70550728      15.48655033
H        4.68384695      24.65555191      12.66401386
H        5.45906258      23.10473251      13.03210068
H        3.79560494      21.93893242      15.14540005
H        3.82244396      21.29505348      13.47329330
H        2.28663135      21.78506470      14.22396469
C       21.95850754      33.13859940      19.06811142
O       23.08001137      34.01673889      19.14536285
C       22.77968597      35.30193710      18.55822945
C       24.03906822      36.13095856      18.74642372
O       23.78150368      37.39266205      18.10593796
C       24.92250824      38.23973465      18.33048248
C       24.62665939      39.58856964      17.68057251
O       25.72614098      40.45121765      17.98468781
C       25.54356194      41.41535950      19.00664902
H       21.47678375      33.16290283      18.07223511
H       22.30496216      32.11676025      19.27660942
H       21.18803406      33.39002991      19.81475258
H       21.88952446      35.75045395      19.04137421
H       22.52133179      35.17159653      17.48897934
H       24.91246986      35.62575150      18.28314400
H       24.27454948      36.27159119      19.81770897
H       25.83119774      37.78899765      17.88868904
H       25.10556602      38.37803268      19.41185760
H       24.52725220      39.46641541      16.58951378
H       23.66690826      40.01035690      18.03660965
H       25.60068893      40.98316956      20.02475548
H       24.56400871      41.91359711      18.90967560
H       26.34287262      42.16383362      18.90370941
C       32.01331711       8.65818501      17.64187241
O       32.18678665       9.76984024      16.78263092
C       32.29338455       9.48788929      15.36804008
C       32.59567261      10.85872650      14.76236629
O       32.87987518      10.70597076      13.36732006
C       32.95034027      12.01263237      12.76899338
C       33.45024490      11.87131310      11.32101440
O       33.55656815      13.19235706      10.76224995
C       32.50637054      13.61256695       9.89003468
H       32.91977692       8.03828812      17.70553589
H       31.76379585       9.03986549      18.64345741
H       31.16318893       8.03711414      17.31052017
H       31.33919716       9.08940029      14.97575760
H       33.08971786       8.75552845      15.15204239
H       33.42457962      11.33836269      15.31006908
H       31.70517159      11.49487877      14.92206478
H       33.60894394      12.67592335      13.35715389
H       31.94339752      12.46155357      12.77254868
H       34.44667816      11.40528488      11.30578232
H       32.77269363      11.25081062      10.71383667
H       31.58824158      13.86646271      10.44233036
H       32.25169373      12.83623409       9.15417099
H       32.86800766      14.50975323       9.36694622
C       19.53664780      14.09313965      15.80123901
O       18.80834198      13.36866379      16.79660797
C       18.35425377      12.15097141      16.19059753
C       17.50776291      11.42181492      17.21303749
O       17.10634422      10.21831608      16.54801559
C       16.13474846       9.50729752      17.32024956
C       15.59172630       8.42648315      16.37738037
O       14.57308674       7.67028284      17.06994820
C       15.07650280       6.71784210      18.00122643
H       18.87262535      14.40496635      14.97281837
H       19.95527458      14.96867275      16.30539513
H       20.34588242      13.48429966      15.36465359
H       19.19773293      11.51521206      15.87135792
H       17.73988342      12.36325741      15.29526615
H       16.62558365      12.02505589      17.50554085
H       18.06013298      11.20770741      18.14769745
H       15.30270958      10.16939354      17.63031006
H       16.57172966       9.07097626      18.23775482
H       15.08479595       8.89816666      15.51690292
H       16.37742615       7.76814032      15.96247387
H       15.68566227       7.16294003      18.80094337
H       15.65529442       5.93106604      17.48612022
H       14.19617844       6.26231289      18.47471809
C       39.22634125      22.13986588      28.94185448
O       40.06374741      21.05816460      28.56219101
C       40.21478653      20.05948830      29.58464432
C       41.08008957      18.93486214      28.99242401
O       40.69292450      17.71535873      29.63516617
C       40.70917130      16.57106018      28.75942230
C       40.48135757      15.35171890      29.65657425
O       41.14486694      14.19788170      29.11861801
C       40.48551559      13.25237560      28.29598045
H       39.60395813      22.64950562      29.84340477
H       39.18859863      22.84633446      28.10087204
H       38.20111084      21.79038429      29.14689255
H       39.23177338      19.65064812      29.87132072
H       40.68009186      20.50351143      30.48424149
H       42.15298843      19.13102913      29.16099167
H       40.91195679      18.87686539      27.90269279
H       41.68215179      16.46575928      28.25030136
H       39.91335297      16.64808083      27.99621201
H       40.92360306      15.56946278      30.64152145
H       39.40382385      15.18837070      29.81617546
H       40.14750671      13.67758179      27.33924294
H       39.60945892      12.81678391      28.79446983
H       41.18862152      12.43537521      28.09283257
C       14.01093102      40.93550110      12.05747604
O       13.92106819      39.53128052      11.83202553
C       13.36318302      39.18908691      10.55435753
C       13.47324181      37.67808151      10.47732735
O       12.66693115      37.25384903       9.36414719
C       12.74828911      35.83543777       9.18217087
C       12.09627151      35.53650284       7.82894087
O       11.96310997      34.11196136       7.60667706
C       13.16915321      33.41157913       7.28268909
H       13.01088524      41.40131378      12.02217960
H       14.41380978      41.09472275      13.06667995
H       14.66156483      41.40978622      11.30656910
H       13.92418385      39.64604568       9.71716785
H       12.31135654      39.52625656      10.48205853
H       13.14888000      37.21165085      11.42696762
H       14.52683258      37.37275696      10.32453346
H       12.23300838      35.30908585      10.00909996
H       13.80412769      35.50421524       9.16849613
H       11.06945705      35.93260193       7.78079128
H       12.66270638      36.00088882       7.00709677
H       13.82622147      33.27824020       8.15671539
H       13.72352028      33.90868759       6.46838856
H       12.85329533      32.40642166       6.96154737
C       15.65672398      10.20670128      34.39328003
O       14.88958836       9.83051872      33.25869370
C       15.70559120       9.19607735      32.25026703
C       14.79685116       8.64486122      31.16348267
O       15.66120720       8.11624718      30.14365387
C       15.16781902       6.96726274      29.42935944
C       16.36025620       6.47828245      28.58952141
O       15.95495796       5.81426573      27.34568596
C       15.22433186       4.59660482      27.50610161
H       16.50521278      10.85188198      34.11684036
H       14.99939919      10.76262283      35.07469940
H       16.02315140       9.31394768      34.92807007
H       16.32087135       8.39580441      32.68418884
H       16.38248634       9.94799423      31.82839012
H       14.15079021       9.42762756      30.72708321
H       14.11877728       7.87206936      31.56590652
H       14.32194519       7.24709558      28.78191376
H       14.79245663       6.19644690      30.12244225
H       16.94318008       7.34916544      28.25782204
H       17.03225327       5.84135818      29.18055153
H       14.38607788       4.68269587      28.21475410
H       15.88192463       3.77664232      27.84724045
H       14.77935410       4.33940744      26.53292656
C       20.49955559       5.41214943      27.65269089
O       21.88398170       5.71715784      27.74842644
C       22.21184158       6.96681929      28.38124657
C       23.72899246       6.98535728      28.30238533
O       24.22261047       8.16053391      28.96117783
C       25.64406013       8.04236507      29.10230064
C       26.16997719       9.32294273      29.73885918
O       27.60511780       9.17323685      29.88279152
C       28.18150520       9.14485264      31.20548439
H       20.00655365       5.96057177      26.83288956
H       20.43873405       4.33717775      27.43645859
H       19.94446564       5.60046434      28.58545303
H       21.83153152       7.03932428      29.41563797
H       21.74018288       7.79654980      27.82419395
H       24.05981064       6.95982695      27.24398041
H       24.12674332       6.07202291      28.77967644
H       26.09760284       7.88427448      28.09435463
H       25.92253494       7.17200708      29.71879196
H       25.97896767      10.16084671      29.04773521
H       25.68632698       9.55593300      30.70646858
H       28.34597206       8.10391712      31.51972580
H       27.50763893       9.62688541      31.93549156
H       29.13575363       9.69309139      31.19728851
C       25.17341995      36.38124847      33.89026260
O       24.11611557      36.35709381      34.83613586
C       24.24336433      37.25446320      35.94688416
C       22.99877357      36.97809601      36.77849197
O       23.06967354      37.81357956      37.92396545
C       21.84935760      37.80854797      38.67016983
C       22.07217598      38.76018524      39.85620499
O       20.83529854      39.04522705      40.51784897
C       20.06750679      40.11542511      39.98151779
H       26.10358238      35.98970795      34.32397079
H       24.87717438      35.73418808      33.05333710
H       25.34091187      37.39992523      33.51863098
H       24.22179031      38.30451584      35.61074829
H       25.16216087      37.08386993      36.52673340
H       22.95021439      35.90779495      37.04499817
H       22.11301804      37.21421051      36.16672516
H       21.60020828      36.79560471      39.02944183
H       21.02150917      38.16192245      38.03775406
H       22.72101974      38.29762268      40.61557388
H       22.54314995      39.68764114      39.50116730
H       19.75766754      39.92435074      38.94122314
H       20.61865997      41.06135559      40.04557037
H       19.15748215      40.15895081      40.59825897
C       40.56039429      41.49781418      25.80761528
O       39.39376068      40.70235062      25.85328293
C       38.78553391      40.71803284      27.14990425
C       37.60874557      39.76741409      26.99600410
O       36.92670441      39.78594589      28.24466896
C       35.80134964      38.90960693      28.20947456
C       35.13480377      39.10394669      29.57949638
O       34.17862701      38.07057571      29.77420425
C       32.83845520      38.38615417      29.40692711
H       41.37594986      41.06226349      26.41070938
H       40.88992691      41.54660797      24.75962830
H       40.35383224      42.51488113      26.17374611
H       38.44164658      41.73643494      27.40916634
H       39.48754501      40.38938522      27.93382454
H       37.96144104      38.76190948      26.71515083
H       36.95271683      40.10372925      26.17134666
H       36.10026932      37.85917282      28.05208969
H       35.10879517      39.17230988      27.38848877
H       35.89523315      39.02428055      30.36952019
H       34.66749573      40.09589386      29.68872643
H       32.65261841      38.31525421      28.32905769
H       32.54920578      39.38174438      29.77272224
H       32.18685913      37.65132141      29.89402008
C       21.00325203      24.36602592      16.18316841
O       22.08774376      25.29158020      16.15998459
C       21.57179451      26.63621902      15.92442417
C       22.80613136      27.49583817      15.79871559
O       22.41824532      28.86106682      15.94163799
C       23.58597374      29.69099426      15.78367043
C       23.18792343      31.10358238      16.18893623
O       24.33183479      31.95446396      16.03861618
C       25.11365128      32.14299011      17.24405479
H       20.51250076      24.27136230      15.19502735
H       21.37406158      23.37836456      16.49747467
H       20.21904945      24.69806671      16.88828468
H       20.90857506      26.96014595      16.74414825
H       20.94832230      26.64427567      15.00891113
H       23.28581619      27.32467651      14.80760288
H       23.54160881      27.21306610      16.58551979
H       23.93716431      29.64311790      14.73325539
H       24.42058372      29.34066963      16.42739677
H       22.38423347      31.45046234      15.51643276
H       22.75936508      31.18616295      17.20283508
H       25.12872887      31.20660210      17.83572769
H       24.68062973      32.94231415      17.87216187
H       26.13815498      32.39835739      16.93108177
C       15.10475636      22.12620163      14.98416233
O       13.96347332      21.57548904      14.31375313
C       12.93818760      21.15708160      15.24673080
C       11.93444729      20.39117622      14.40847492
O       11.00186157      19.81720543      15.34433460
C        9.82878685      19.38353729      14.65070057
C        8.81954098      19.01776314      15.73908329
O        7.64252949      18.50162697      15.10468483
C        6.75590658      19.49024773      14.58179665
H       15.45890903      21.44571877      15.77956867
H       15.90136623      22.26900291      14.23920631
H       14.86307812      23.08535576      15.47018623
H       12.46821785      22.02544594      15.74455547
H       13.35004807      20.51515388      16.04667854
H       12.41938782      19.59667397      13.81111240
H       11.42746544      21.06416702      13.69732666
H       10.01602173      18.51718521      13.98673248
H        9.39127445      20.18205070      14.02763176
H        9.20284939      18.22392082      16.40153885
H        8.57303715      19.87583923      16.38938522
H        7.16327810      20.00782013      13.69839573
H        6.45032358      20.23137856      15.34692383
H        5.84253359      18.96527672      14.26046467
C        1.68562317      23.08122063      36.85262680
O        1.42435336      21.72195244      37.13470840
C        2.56829214      20.91210556      36.88611221
C        2.11818576      19.46929169      37.07053757
O        3.24462676      18.65795517      36.72455215
C        3.05406141      17.28089333      37.02868271
C        4.36812162      16.59560013      36.62393188
O        4.19811726      15.18012714      36.77994537
C        4.67417812      14.67510605      38.01510239
H        1.97125185      23.21516609      35.79617691
H        0.75616443      23.63155937      37.05966568
H        2.49521971      23.46031761      37.49348450
H        3.40072966      21.17388535      37.56291580
H        2.90973854      21.03487778      35.84141541
H        1.26407599      19.23764229      36.40846634
H        1.79373527      19.29979706      38.11108780
H        2.20748329      16.87092209      36.43519592
H        2.80719995      17.14365959      38.09693909
H        4.57129908      16.77973938      35.55429840
H        5.21718693      16.98111534      37.20922852
H        4.16410398      15.12174988      38.88658905
H        5.76283741      14.82038975      38.11929321
H        4.47103691      13.59529400      38.01435852
C       37.97992706      41.51887131      38.83698273
O       38.28399658      40.52074051      37.88332367
C       37.70527267      39.24913025      38.19435120
C       38.19142914      38.28924179      37.10123062
O       37.87198639      36.99249268      37.56388855
C       38.07843781      35.99335098      36.56722641
C       37.73239517      34.66575623      37.23191833
O       37.95747757      33.61078262      36.31348038
C       36.85090637      33.17312241      35.53247833
H       38.24846268      41.20109177      39.86436844
H       38.56873703      42.41802216      38.59625626
H       36.90895462      41.78821182      38.82333755
H       36.60066605      39.30675507      38.18861771
H       38.02625656      38.91371536      39.19739532
H       39.27988815      38.39968109      36.94876862
H       37.68606567      38.50007248      36.14125824
H       39.11771011      35.97844696      36.20878601
H       37.43059540      36.14350891      35.68830872
H       38.37330627      34.52657318      38.11611557
H       36.69209671      34.69418716      37.58625793
H       36.47061539      33.96580124      34.87558746
H       36.04119110      32.79463196      36.16888428
H       37.18590164      32.33655167      34.90726852
C       12.56628895      10.16154575      18.61158371
O       13.62293339      11.07306957      18.90524673
C       13.82171059      11.21565914      20.33602715
C       15.08800602      12.02461147      20.53795052
O       14.97016048      12.79028606      21.75665855
C       16.15592194      13.61072254      21.84691048
C       16.14466667      14.29996109      23.21094322
O       17.44784546      14.90929699      23.41767693
C       18.50868416      14.07809830      23.91745949
H       11.60079098      10.52404213      19.01149368
H       12.45137310      10.06134605      17.51741600
H       12.74277401       9.16068840      19.03157425
H       13.89219570      10.22461796      20.81614876
H       12.95125103      11.71873665      20.78370667
H       15.22100639      12.69507694      19.66899490
H       15.96923637      11.35162067      20.56304169
H       16.17364311      14.33055019      21.00256538
H       17.05908394      12.98566723      21.75315475
H       15.41119289      15.12198257      23.27460480
H       15.88768959      13.57764816      24.00824356
H       18.56296539      13.13077927      23.35727882
H       18.38767052      13.85553455      24.99081993
H       19.45180130      14.62112713      23.75798035
C       16.05244637      40.70841599      31.63786125
O       16.39064026      39.41614914      31.15841866
C       17.41491508      38.79597855      31.95415306
C       17.68026543      37.46115875      31.27320480
O       18.45934486      36.68082809      32.17902756
C       18.55240631      35.33203888      31.71269798
C       19.50884438      34.63114929      32.66349411
O       19.56066895      33.21941757      32.31452942
C       18.81179428      32.32767868      33.14964294
H       16.95917511      41.30196381      31.82649231
H       15.45808125      41.20243454      30.86036682
H       15.46591473      40.67103577      32.57121277
H       17.07586670      38.65796280      32.99720383
H       18.31974220      39.42436600      31.97927856
H       18.21501160      37.58384705      30.30545044
H       16.72216415      36.95918274      31.03778076
H       18.93614578      35.28782272      30.66875267
H       17.55390739      34.86758804      31.70235062
H       20.52279091      35.03810883      32.53353500
H       19.20831490      34.78478622      33.71593475
H       17.75767326      32.63176346      33.25918198
H       19.22456360      32.21498871      34.16513443
H       18.81628227      31.33799744      32.65932083
C        1.24598670      14.35323524      29.61366272
O        2.40177751      15.12162781      29.94505310
C        2.01862836      16.30672073      30.65491676
C        3.29759073      17.03533173      30.99611664
O        2.93228388      18.09499741      31.87928772
C        4.08566618      18.83638000      32.30206680
C        3.53684902      19.81964302      33.35240555
O        4.51669836      20.79887009      33.72503281
C        5.60340023      20.36803055      34.55663681
H        0.57969350      14.90537834      28.93798256
H        1.55868077      13.41469383      29.13623619
H        0.64423198      14.09982491      30.50216293
H        1.43596447      16.04247665      31.55993843
H        1.34581959      16.93440056      30.04850960
H        3.73849034      17.42304230      30.05988312
H        4.02204609      16.35313988      31.47828293
H        4.53891468      19.36667061      31.44477654
H        4.84524632      18.17409897      32.75017929
H        2.69836116      20.38896370      32.91697693
H        3.15541720      19.27986526      34.23242569
H        6.33445740      19.75692368      34.00036240
H        5.22856283      19.79512787      35.41791916
H        6.11161137      21.27204323      34.91804123
C       30.89583397      26.85135078       1.83991432
O       30.78106689      26.36590385       3.15972137
C       30.18912315      27.28652763       4.09069443
C       30.19665909      26.54328728       5.42128801
O       29.49758530      27.30983543       6.40079212
C       29.42724419      26.61340904       7.65385675
C       28.46792984      27.46048927       8.50814533
O       28.25867844      26.91576958       9.82574749
C       27.48265457      25.71281624       9.83868408
H       31.48844910      27.77994728       1.82070208
H       31.39121628      26.08269691       1.22858107
H       29.90821075      27.05038261       1.39775693
H       29.15361595      27.53058815       3.79696465
H       30.76553535      28.22358513       4.16717196
H       31.23149109      26.34026718       5.74677372
H       29.69889450      25.57330704       5.25899839
H       30.41443253      26.55614853       8.14678097
H       29.03763008      25.59300613       7.51147079
H       28.89883423      28.45684814       8.68941212
H       27.50470352      27.59778023       7.98257256
H       27.99122810      24.85962296       9.36045742
H       26.49918747      25.86848831       9.35719967
H       27.29953766      25.45196915      10.89207554
C        7.51979351      10.68652248      22.05181885
O        6.54331017       9.80069256      22.60810089
C        5.83120346       9.12186813      21.56954575
C        4.94420195       8.10103035      22.25617790
O        4.31122541       7.36034298      21.21197319
C        3.37133217       6.40474319      21.71260262
C        3.07863641       5.51631117      20.49916649
O        2.04027271       4.58135319      20.81887054
C        2.50107145       3.34609413      21.31840324
H        7.02670956      11.43309975      21.40663338
H        8.06612110      11.17566967      22.87105179
H        8.24778175      10.13384056      21.42632103
H        6.51885653       8.61629486      20.86021996
H        5.21327114       9.82418060      20.97141266
H        4.20126772       8.59580994      22.90974426
H        5.55743504       7.45678902      22.90780258
H        2.44221735       6.90301371      22.04672050
H        3.78259158       5.84154844      22.56656837
H        2.69638705       6.13384628      19.67387581
H        3.98388839       5.01951313      20.12180519
H        2.97292089       3.44430161      22.30646133
H        3.19047189       2.85340333      20.61543846
H        1.60676146       2.72569561      21.44218254
C       10.59794521      26.67183113      40.53653336
O        9.99462986      25.39820290      40.64621735
C       10.06952572      24.67247391      39.42201614
C        9.49357700      23.29885674      39.70962143
O        9.46164513      22.60279274      38.46658707
C        9.13102150      21.22228432      38.61268997
C        9.23609924      20.61736107      37.20610046
O        8.70363998      19.28794479      37.15575790
C        9.38199139      18.37421799      38.00623322
H       10.09505367      27.27768326      39.76404190
H       10.49578953      27.17060280      41.51077271
H       11.66555309      26.59747887      40.27034378
H       11.10613346      24.55980110      39.05773544
H        9.47666740      25.15642929      38.62407303
H        8.48219681      23.39331627      40.14632034
H       10.11418629      22.78486824      40.46289062
H        8.09594345      21.11214066      38.98841858
H        9.81616688      20.72803116      39.31982040
H        8.61289024      21.19780731      36.50626755
H       10.27875614      20.63889313      36.84395981
H        9.18370247      18.55222130      39.07707977
H       10.46735382      18.37310410      37.82564545
H        8.99169254      17.37455177      37.76008224
C       15.58570385      26.10000229      21.36317253
O       14.58001328      25.52575111      20.50621986
C       14.05828857      24.32724190      21.12586212
C       13.24488354      23.64090538      20.04925156
O       12.78822994      22.40103722      20.60762405
C       11.81892490      21.82313347      19.71294785
C       11.36661243      20.50691795      20.32519341
O       10.44992065      19.90281487      19.39131355
C        9.13517857      19.60920334      19.85709953
H       16.42976189      25.40502167      21.50642967
H       15.93362236      27.01356888      20.85972214
H       15.18307495      26.36160278      22.36147118
H       13.43566513      24.58093834      22.00922012
H       14.88780022      23.68078232      21.46949577
H       13.84377289      23.45962143      19.13289833
H       12.38531303      24.26490402      19.74106026
H       12.22905254      21.65246773      18.69590378
H       10.94106865      22.48503113      19.59889412
H       12.22019672      19.82229996      20.47794724
H       10.88813972      20.64891052      21.31539154
H        8.55543327      20.52229500      20.05555153
H        9.13660431      18.97694588      20.76232529
H        8.59872246      19.05958748      19.06614304
C       21.90725327      14.68049145      27.48974419
O       20.93773079      13.63801384      27.65091133
C       20.26674271      13.84401989      28.90723038
C       19.35846329      12.65012550      29.12344360
O       18.56696320      13.01019955      30.26368713
C       17.45713043      12.12242889      30.46256638
C       16.58128738      12.91879368      31.43826103
O       15.44480515      12.16348743      31.85890007
C       14.28481388      12.26438904      31.03903961
H       22.66399765      14.63033485      28.29156685
H       22.39233971      14.55198383      26.51149559
H       21.41800880      15.66729259      27.54212761
H       19.64360046      14.75889301      28.87019348
H       20.97570419      13.97288322      29.74513435
H       19.91320610      11.70776367      29.28496742
H       18.71391487      12.49667358      28.23526001
H       17.79466438      11.15423107      30.87897873
H       16.93089294      11.91289997      29.51260567
H       17.14331245      13.17503166      32.35125732
H       16.23989105      13.86771870      30.98727226
H       14.46572495      12.03103256      29.97386932
H       13.83139801      13.26349545      31.13647842
H       13.56286240      11.52020454      31.41716385
C       25.52008438      30.68238068      24.37783623
O       25.41636467      31.17023468      23.03669357
C       26.68079948      31.66479683      22.54071808
C       26.41226578      32.52938461      21.32377815
O       27.73000145      32.92517853      20.92898750
C       27.71570015      33.99841309      19.96656227
C       29.18577003      34.30161667      19.65995979
O       29.23226357      35.40632248      18.72915649
C       28.97720337      35.01727295      17.36458397
H       26.01623344      31.40403366      25.04373741
H       24.49619865      30.52460861      24.74806976
H       26.03944969      29.71224594      24.42395210
H       27.34916115      30.82111549      22.29134369
H       27.18670464      32.27012634      23.31765938
H       25.75932884      33.38136673      21.59799576
H       25.88227272      31.99526405      20.50626755
H       27.18622398      34.87890625      20.38278770
H       27.16292572      33.69217682      19.05612564
H       29.72636795      34.60434723      20.56987953
H       29.68523216      33.41173553      19.24117661
H       27.94237328      34.66832733      17.21162796
H       29.64506912      34.20767593      17.02836609
H       29.13342476      35.90574265      16.73634148
C       29.46443367      37.48577499      13.48975563
O       29.49044609      36.09102249      13.23870468
C       30.36121559      35.70391083      12.15625954
C       30.28232193      34.18455887      12.15167999
O       30.87238884      33.72956848      10.92246914
C       30.83324814      32.29875946      10.78956699
C       31.64369392      31.98903847       9.53217125
O       31.56427574      30.58331871       9.16606712
C       32.34835434      29.75832558      10.02290821
H       29.09840584      38.03827667      12.60260010
H       28.76167297      37.64757538      14.32267380
H       30.46605492      37.85063553      13.78027534
H       31.39327240      36.06774902      12.32752991
H       29.98887062      36.09877396      11.18548489
H       29.22825432      33.86079025      12.22536278
H       30.81230164      33.78868484      13.03639889
H       29.78649712      31.96457100      10.65507507
H       31.23638725      31.81376648      11.69695568
H       31.21033669      32.53474808       8.67920113
H       32.69097137      32.30068588       9.66492462
H       32.12163544      29.89732170      11.09239292
H       33.43133163      29.91360855       9.87870502
H       32.08684158      28.71905327       9.77322292
C       12.07706070      14.86497498      24.81697464
O       11.79720783      13.57579994      25.37403870
C       11.38928795      12.68938541      24.31560898
C       10.80620480      11.46105862      24.96996498
O       10.45291233      10.55263233      23.91401291
C        9.81219387       9.39527225      24.46225548
C        9.87051105       8.30037022      23.40092659
O        9.06074715       7.19375229      23.85698318
C        9.62842560       6.43383121      24.91992188
H       11.17756557      15.23997402      24.28684044
H       12.33659935      15.54766846      25.63657761
H       12.90575695      14.80679893      24.08353996
H       12.23830509      12.41002655      23.65983391
H       10.62867069      13.15113640      23.65871620
H        9.92050171      11.71501732      25.58074951
H       11.53583336      10.99968433      25.65229797
H        8.76256084       9.61650562      24.71971321
H       10.31309414       9.07907104      25.39573288
H        9.42268562       8.62546062      22.44643593
H       10.90449333       7.97483206      23.18490791
H        9.98360538       7.02050018      25.78082848
H       10.48551273       5.81954527      24.55188751
H        8.80858326       5.78517962      25.28631401
C       26.76605225      11.80249882      26.05759239
O       26.40250015      13.17397881      26.24440002
C       26.11135864      13.50718307      27.61953354
C       25.66842079      14.95937538      27.61955452
O       25.23353195      15.24401951      28.95345116
C       24.75953293      16.58301353      29.11639214
C       24.56123924      16.72585487      30.62644577
O       24.12198257      18.04183769      30.99591255
C       25.20951271      18.97736168      31.06735229
H       25.96638107      11.13131428      26.42446709
H       26.92515945      11.60103130      24.98825073
H       27.69223404      11.58247471      26.62415123
H       26.99013329      13.37361526      28.27474785
H       25.29204941      12.88643360      28.02018547
H       24.84126472      15.09351826      26.90021515
H       26.50436401      15.61817932      27.33279800
H       23.80453682      16.72406006      28.58259964
H       25.46854401      17.33193779      28.73771667
H       23.76525116      16.04320145      30.97154427
H       25.48780060      16.45169258      31.16198921
H       25.63340759      19.19965935      30.07127380
H       25.99862671      18.60394287      31.74129105
H       24.79469681      19.90124893      31.49750137
C       12.96156597      35.91914749      23.08661652
O       14.01355648      35.15599823      22.48213577
C       14.62354088      34.20010757      23.38039780
C       15.79983044      33.60846329      22.60415459
O       16.48118019      32.78418350      23.53593826
C       17.55662537      32.04603958      22.94114304
C       18.07343864      31.19393730      24.10463905
O       19.23140907      30.41206169      23.77159309
C       19.02589226      29.26279449      22.96704102
H       13.31868553      36.52062607      23.93595314
H       12.52788830      36.57339478      22.32034874
H       12.14708710      35.26603317      23.44207001
H       13.88752270      33.42742920      23.66972923
H       14.92965221      34.70381927      24.31697845
H       16.44374847      34.41285324      22.19919586
H       15.42996883      33.01916504      21.73639107
H       18.32870293      32.71621704      22.52851677
H       17.18745804      31.41788292      22.10560608
H       18.36355591      31.84373283      24.94955444
H       17.24880981      30.57098198      24.47501755
H       18.45290756      29.48113060      22.04668236
H       18.51804352      28.45064163      23.51362991
H       20.00023842      28.86185646      22.63785172
C       11.19838047      19.39700508      26.20190239
O       10.62857533      18.74807930      25.05430794
C        9.19352722      18.64608765      25.18740082
C        8.67932796      17.83783722      24.00974083
O        7.25697136      17.91483498      24.10531616
C        6.63306379      17.26031113      23.00403595
C        5.14486790      17.54131317      23.22342110
O        4.34684801      16.80731773      22.29496384
C        4.11716223      17.48908234      21.06422043
H       11.08868694      18.77331161      27.10617447
H       12.26829243      19.55340958      25.99937248
H       10.70470238      20.36575317      26.38348007
H        8.72780514      19.64534569      25.20240402
H        8.90976048      18.17283821      26.14495659
H        9.01739120      16.78323746      24.04403496
H        9.00936985      18.27772331      23.04256630
H        6.82196951      16.17111588      23.00874710
H        6.95699739      17.68520355      22.02935791
H        4.86146069      17.23905754      24.24512672
H        4.95470810      18.62406731      23.14663124
H        5.03043461      17.92192459      20.63860130
H        3.37831116      18.29653740      21.19508553
H        3.70922375      16.75162697      20.35788345
C       12.57753754      17.42635155       6.77393389
O       11.49563980      18.35822868       6.67212057
C       11.78870773      19.37515068       5.68134212
C       10.61049366      20.36696053       5.68698502
O       11.07768822      21.49606705       4.93049049
C       10.04258537      22.48273468       4.73807383
C       10.66637897      23.57508469       3.85586905
O        9.78990269      24.69988251       3.76158714
C        8.82733345      24.69103432       2.70646286
H       13.43903351      17.88837051       7.27805614
H       12.22040367      16.58097649       7.37927246
H       12.89248371      17.06825256       5.78116608
H       11.94085026      18.90153503       4.69175911
H       12.72228146      19.90251160       5.95418119
H       10.33028412      20.66774750       6.71999311
H        9.69582844      19.95539284       5.22395086
H        9.70038795      22.90048790       5.70683622
H        9.15007114      22.04405403       4.25446177
H       11.58855438      23.93718529       4.34383106
H       10.93139648      23.18333817       2.85627365
H        8.28240013      23.74210930       2.62136698
H        9.27467728      24.94622040       1.73544192
H        8.07682610      25.44925690       2.95865273
C       23.35683632      16.78185654      37.70059967
O       22.48824310      16.23294258      38.70083618
C       21.37494278      15.54351616      38.13052750
C       20.83736420      14.69220257      39.27658081
O       19.65705681      14.03288364      38.80189514
C       19.16049576      13.16973114      39.83052444
C       18.07978249      12.30285263      39.18558502
O       17.72078323      11.35202503      40.19941711
C       18.01192665       9.98540211      39.94495010
H       22.87697029      17.61644363      37.16701508
H       24.27087021      17.11864662      38.20797729
H       23.61260223      16.01528549      36.94624329
H       21.66984940      14.88494492      37.28727722
H       20.59256554      16.22772789      37.74329758
H       20.61774254      15.29313755      40.17701340
H       21.59969139      13.94341278      39.54562759
H       18.76519394      13.75493813      40.68375015
H       19.97457123      12.52906799      40.20871735
H       17.18754959      12.91141987      38.93974304
H       18.42417717      11.85800648      38.23601913
H       19.09180260       9.78443336      39.96944427
H       17.59706688       9.65286827      38.98340225
H       17.52216339       9.41608047      40.74796677
C       12.32685280      13.12316227      11.81371307
O       11.17781162      13.04466534      12.67980003
C       11.38749790      12.19066238      13.83715916
C        9.97996044      11.80948544      14.26509857
O       10.09935379      11.18030548      15.55315971
C        8.84355164      10.60762596      15.97069836
C        9.11996555      10.37592888      17.45352364
O        7.99665403       9.80100250      18.14934540
C        6.95353127      10.75322723      18.41915321
H       12.64017105      12.13056183      11.46036339
H       12.02963161      13.71795177      10.93907070
H       13.17794037      13.59974575      12.33004570
H       11.90353489      12.73883915      14.64458656
H       11.98049259      11.29534340      13.57453442
H        9.52509594      11.13792992      13.51905823
H        9.30685139      12.68250084      14.34054661
H        8.62999630       9.68167114      15.40466785
H        8.00553036      11.30815029      15.81419754
H        9.94601059       9.65783119      17.56798363
H        9.40660667      11.33702564      17.90808105
H        6.52670908      11.19450092      17.50523186
H        7.30874443      11.56132221      19.07175636
H        6.13266373      10.22460079      18.92651367
C       33.67218781      28.30652237      25.18620682
O       33.32081604      29.64376640      24.88468933
C       33.60033798      30.58189011      25.93716049
C       33.12009811      31.91011620      25.38761139
O       33.37033081      32.85982513      26.42062187
C       33.02053070      34.17581177      25.97491455
C       33.45786285      35.11347961      27.09850121
O       33.00720596      36.43404388      26.81418228
C       33.69508743      37.04307175      25.71158791
H       33.01072311      27.89396858      25.96623611
H       33.52745056      27.71329498      24.27331543
H       34.71693802      28.21928215      25.52673912
H       34.67469406      30.62442589      26.17510796
H       33.05330276      30.34046745      26.86325073
H       32.04560471      31.86969757      25.12419128
H       33.68377686      32.14315033      24.46643066
H       31.94096947      34.23736954      25.78943825
H       33.51702499      34.42843628      25.02420235
H       32.99991989      34.83111954      28.05846786
H       34.55348587      35.09241867      27.21138954
H       33.26577377      36.74814606      24.73896408
H       34.76853943      36.79330444      25.72155762
H       33.57467270      38.12653732      25.84343338
C       37.25519180      14.81833649      36.18890381
O       37.95199203      13.63267040      35.79306030
C       37.65041351      12.48414803      36.59555817
C       38.66576385      11.42548943      36.16809845
O       38.43550873      10.28904247      37.01309967
C       39.14116287       9.13721466      36.55046082
C       38.80902100       8.02794075      37.55046844
O       39.22093201       6.78678274      36.95877457
C       38.20820236       5.83911943      36.70760727
H       37.69844437      15.28991508      37.07759094
H       37.28616714      15.50279617      35.33087158
H       36.19400787      14.61555195      36.40878296
H       36.62940216      12.12392998      36.37942123
H       37.70467377      12.72036648      37.67087555
H       39.70377350      11.78628445      36.27723694
H       38.50654602      11.16311741      35.10744858
H       40.23014069       9.30719376      36.50373077
H       38.78641129       8.83667755      35.54843903
H       39.33053589       8.19474220      38.50897980
H       37.72930527       8.05058384      37.74790573
H       37.54514694       6.14185715      35.88356781
H       37.59494019       5.64538431      37.60713577
H       38.70595551       4.90099907      36.42797089
C       32.14511871      24.28161621      34.08995819
O       31.57964325      23.48560905      33.04559708
C       31.04834938      22.22554207      33.46626663
C       30.62262726      21.58221245      32.15721130
O       30.03536987      20.30329704      32.44594574
C       29.46978951      19.79405975      31.21898460
C       29.15852928      18.31365395      31.39641190
O       29.37829590      17.58582878      30.17894363
C       28.28640366      17.38073540      29.30257225
H       33.02435303      23.81307602      34.55685425
H       32.44492340      25.23431015      33.63467407
H       31.42784119      24.48520088      34.89993668
H       30.18397141      22.35797310      34.14147568
H       31.79664803      21.61722946      34.00093842
H       31.48525620      21.44974899      31.47776031
H       29.89142990      22.23172188      31.64675522
H       30.17960358      19.91213226      30.38544464
H       28.55199432      20.35497284      30.96851921
H       29.82993889      17.90974236      32.16919708
H       28.12880707      18.18268013      31.75259590
H       27.78186035      18.31742287      29.01476288
H       27.53157043      16.70951843      29.75455475
H       28.66178131      16.88553047      28.38753700
C       25.35295868       5.96384478      20.10883141
O       25.21356773       7.14043522      20.90755081
C       24.21413040       7.05481291      21.95012856
C       24.08268738       8.46897888      22.50719833
O       23.07709503       8.37809753      23.52107620
C       22.78898621       9.63590717      24.14364624
C       21.93098068       9.27581596      25.35330582
O       21.60710526      10.44149208      26.13832283
C       22.63861275      10.86465359      27.03202248
H       24.39938545       5.70301914      19.61951065
H       26.11124611       6.14772415      19.33318329
H       25.65162659       5.10158634      20.73249817
H       24.51207542       6.36211681      22.75068665
H       23.24209023       6.72325468      21.54532242
H       23.76627350       9.13573360      21.68978119
H       25.02701187       8.84465981      22.93570137
H       22.24384308      10.28930473      23.44244385
H       23.70339203      10.15086460      24.47641945
H       20.97497749       8.82876110      25.03568649
H       22.47110939       8.51762962      25.94622421
H       23.57603836      11.13044739      26.51377678
H       22.84583473      10.09850693      27.79818726
H       22.26661301      11.76181507      27.54854393
C       25.22150612      41.86649704      12.85246754
O       25.26722527      40.48588562      12.53134632
C       25.81295204      40.14284134      11.24888039
C       25.73537254      38.62171936      11.16567039
O       26.30987167      38.21021271       9.91898251
C       26.50527000      36.78508377       9.84656525
C       27.13241005      36.55157852       8.46540165
O       27.32738304      35.15306473       8.18135643
C       28.27750015      34.52223587       9.05048656
H       24.46330643      42.38733673      12.24720478
H       24.93930626      41.94693756      13.91200638
H       26.19101715      42.35223007      12.68448162
H       26.85288811      40.49192047      11.13976860
H       25.20151711      40.57366562      10.43311024
H       24.67525101      38.32429123      11.22644234
H       26.27778244      38.18064117      12.01993942
H       25.53458786      36.26365280       9.92763233
H       27.16200256      36.43472290      10.66305542
H       26.44805717      36.90455246       7.67495155
H       28.08123779      37.10670471       8.37740993
H       27.88505554      34.36441803      10.07086086
H       29.23015022      35.07726669       9.09940147
H       28.46388626      33.51695633       8.63887119
C       17.52042961       8.31118393      25.60755539
O       16.94114494       9.60454655      25.39896965
C       16.71543694      10.35090733      26.61674118
C       16.06294823      11.64433670      26.16793251
O       15.90819168      12.46301460      27.33412361
C       15.83768845      13.85592937      26.98868942
C       15.98953819      14.62704754      28.30391884
O       16.05481529      16.03483582      28.01780510
C       17.39997292      16.48690033      27.75700760
H       16.78439140       7.60621929      26.03701973
H       17.84655762       7.89438725      24.64395142
H       18.38365173       8.35813904      26.29014015
H       17.66242218      10.56029415      27.14542007
H       16.06179810       9.81450272      27.33335686
H       15.08217335      11.44427681      25.69137573
H       16.72540283      12.10482216      25.40828705
H       14.87297249      14.07701206      26.49119759
H       16.64847183      14.13491058      26.29016113
H       15.11325741      14.47312737      28.95462608
H       16.89609528      14.30983829      28.85421944
H       17.90215111      15.87361336      26.98843384
H       18.00115013      16.49971581      28.68330956
H       17.28348351      17.51359177      27.36738586
C       29.05353355      38.82965469       3.77929235
O       28.23408318      37.72555923       4.13090229
C       28.97162437      36.49269104       4.10997868
C       27.92435074      35.43676758       4.44621515
O       28.64060020      34.21827316       4.65622568
C       27.90012741      33.23381424       5.38048172
C       28.94611931      32.19422150       5.80183601
O       28.28584862      30.96628761       6.19332314
C       28.08086014      30.86603355       7.61159563
H       29.45130348      38.71879959       2.75659323
H       28.40497589      39.71327591       3.84371114
H       29.90001106      38.94000244       4.47353172
H       29.77574348      36.49979019       4.86540937
H       29.42660522      36.31349564       3.11785340
H       27.17859650      35.32106400       3.63172364
H       27.35769272      35.73566437       5.34977245
H       27.13834763      32.77532959       4.72145081
H       27.37122536      33.68516159       6.24175215
H       29.59988213      31.95914841       4.94672680
H       29.56930161      32.58125305       6.62304211
H       27.55529404      31.73815155       8.03391838
H       29.02030754      30.72830963       8.17313290
H       27.42313576      29.99149513       7.75263214
C       21.30925560      29.44537354      26.08145332
O       21.17452240      28.08406639      25.65122223
C       20.79902840      27.25104332      26.76506424
C       20.90333176      25.83872795      26.20940399
O       20.20397949      24.94584656      27.08660698
C       20.30721474      23.62590218      26.53600311
C       19.64252853      22.72153282      27.56385040
O       19.86909485      21.35629463      27.20063400
C       18.98242188      20.80090523      26.22607231
H       22.07782936      29.56293488      26.86423492
H       21.55071259      30.03967667      25.19128227
H       20.35809326      29.83249092      26.48249435
H       19.76891708      27.47506332      27.09564209
H       21.45171547      27.42483711      27.64350510
H       21.96364212      25.51777458      26.10822105
H       20.47842026      25.80210686      25.18471146
H       21.35764313      23.31159973      26.37654305
H       19.79951859      23.54865837      25.54812241
H       20.08761597      22.89806557      28.55806541
H       18.56503677      22.94812012      27.64467430
H       19.27425575      21.01962852      25.18586540
H       17.94488144      21.13442993      26.38937378
H       18.97308350      19.70983315      26.36900711
C       34.30795670      39.35781097      21.53804016
O       35.45667648      38.54866791      21.35646820
C       36.57551575      38.87522507      22.18812370
C       37.48660278      37.68378067      21.96606255
O       38.63255310      37.83077240      22.79986382
C       39.44051361      36.66062164      22.73964119
C       40.64271545      36.94596481      23.63276863
O       41.60628128      35.88942719      23.49381256
C       41.41723251      34.74609375      24.31345940
H       34.50444412      40.40685272      21.26016235
H       33.52374649      38.93597031      20.89612007
H       33.93607330      39.31318283      22.57244110
H       36.27055359      38.98250961      23.24614906
H       37.04826736      39.81613922      21.85941887
H       37.77660751      37.58802414      20.90258789
H       36.92134476      36.77047348      22.21531677
H       39.77897263      36.44617844      21.70653152
H       38.87258530      35.78171539      23.08490944
H       41.13267899      37.86491776      23.28589439
H       40.33975601      37.09060669      24.68637657
H       40.60937500      34.10547256      23.92389107
H       41.17498016      35.02480698      25.35518265
H       42.35593033      34.17620087      24.32290268
C        8.86503220      26.16984940      10.78206253
O        8.13853741      27.35697174      11.10036087
C        7.20528507      27.75261497      10.07903862
C        6.80764532      29.15183258      10.51895142
O        5.62904358      29.49782372       9.78844070
C        4.95619583      30.63193512      10.33257008
C        4.21247530      31.29845619       9.16893005
O        3.31653833      32.29509354       9.70355988
C        1.97868609      31.88756371       9.96750450
H        9.65164566      26.37438965      10.03347301
H        9.30614090      25.79147530      11.71403027
H        8.20491505      25.38174438      10.37794113
H        6.33294296      27.08031082      10.04494190
H        7.65931034      27.72900772       9.07120609
H        7.62874413      29.85576248      10.29313946
H        6.62079763      29.17866516      11.60716629
H        5.67817068      31.34579849      10.77614784
H        4.24179459      30.35762787      11.12746716
H        4.94197893      31.80469131       8.51362228
H        3.68377042      30.55268860       8.55700684
H        1.90160084      31.23230171      10.85104561
H        1.55638409      31.35986519       9.09798050
H        1.38938951      32.79290771      10.17257118
C       17.25875854       5.30780506      22.44770241
O       18.44052315       5.40702152      23.22275543
C       19.62367058       5.11390591      22.44932938
C       20.74934578       4.98478556      23.45743179
O       21.82589149       4.36262846      22.75514984
C       22.89681435       4.13034868      23.67857933
C       23.95785141       3.39518452      22.83861923
O       25.17146111       3.15253305      23.55828285
C       25.80508423       4.25756836      24.19801712
H       17.16097260       4.31852388      21.97156334
H       16.39912987       5.46279526      23.11278915
H       17.23073578       6.06676102      21.64996910
H       19.82358360       5.92820120      21.73048973
H       19.51372910       4.18276358      21.86853218
H       20.40974998       4.39338589      24.32463646
H       21.05089378       5.97462320      23.85427666
H       22.56427956       3.53023911      24.53857231
H       23.26914978       5.08987474      24.07781410
H       23.57320786       2.40290999      22.56387138
H       24.14200020       3.93299079      21.89485741
H       25.17802048       4.68486643      25.00096321
H       26.08300400       5.03909683      23.47093010
H       26.71755981       3.88769364      24.68637848
C       17.46653748       8.94442081       8.19125080
O       17.91913605       7.99941730       9.16833496
C       17.15434647       6.77492285       9.18262291
C       17.80810165       5.99781513      10.32427311
O       17.12849045       4.74763393      10.47993279
C       17.79556847       4.03029060      11.53955555
C       17.01119232       2.73556328      11.71385670
O       17.50718117       2.05375671      12.87492466
C       18.59182739       1.15428650      12.66898346
H       16.37718201       9.09495735       8.28098202
H       17.99651909       9.88221550       8.38504314
H       17.66178131       8.59585571       7.16194105
H       17.22282410       6.26219845       8.20515919
H       16.08589554       6.98200893       9.37388897
H       17.73926163       6.57461643      11.26511383
H       18.88114166       5.83459139      10.11968327
H       17.78774452       4.61786985      12.47825050
H       18.84074402       3.81762624      11.25902843
H       15.95603180       2.98221231      11.90542889
H       17.03349876       2.12208343      10.79998970
H       19.43017197       1.62283373      12.13260460
H       18.26651573       0.26327938      12.10840511
H       18.93317223       0.82117879      13.66023350
C       41.38373184      19.79454041       8.44560909
O       40.67843628      20.96777725       8.83131313
C       39.94816971      21.51938057       7.72993279
C       39.11982727      22.66853905       8.29726410
O       38.03430557      22.82479477       7.39487314
C       37.13022614      23.82333374       7.86556196
C       36.09355164      24.02305031       6.76246309
O       35.23931885      25.10473251       7.15239000
C       33.96387482      24.76956367       7.69054937
H       42.08334351      19.99741936       7.61632824
H       41.94364548      19.45207787       9.32670307
H       40.67739868      19.00781441       8.12640762
H       39.27280045      20.76404762       7.29457664
H       40.64038467      21.84647560       6.92942810
H       39.70637894      23.60178375       8.38320827
H       38.76607513      22.41985130       9.31698895
H       37.64231873      24.77408981       8.08801365
H       36.60612106      23.51371956       8.78938103
H       36.60160446      24.28519821       5.81544161
H       35.52994156      23.09376144       6.58448172
H       33.99742889      24.52379227       8.76435566
H       33.50858307      23.92900467       7.14723921
H       33.29881287      25.63399315       7.56719828
C       17.35539436      36.23239517      40.87682724
O       17.76450157      35.85850525      39.56991577
C       18.16682434      37.03122711      38.83825684
C       18.55489922      36.56267929      37.43218231
O       19.07822418      37.73732376      36.80188751
C       19.40362549      37.50067520      35.42215347
C       20.08476830      38.78733063      34.94139862
O       20.53134537      38.63742065      33.58784866
C       21.67278290      37.81423187      33.30475235
H       16.49128151      36.92205811      40.84813309
H       17.05935287      35.33251572      41.42900085
H       18.15547180      36.74256134      41.43461227
H       18.99553680      37.52394485      39.36955261
H       17.32680321      37.74906540      38.80193710
H       17.66558838      36.20334625      36.88909531
H       19.29963684      35.74383163      37.45153046
H       18.50761032      37.27305984      34.81965637
H       20.09159660      36.64632034      35.29735947
H       19.34416008      39.60538483      34.92626953
H       20.89054680      39.09116364      35.63428879
H       21.53693962      36.77554321      33.64202118
H       22.58676529      38.20766449      33.77638245
H       21.79623795      37.77937698      32.21476746
C       17.91102409      40.92797852      27.66080856
O       17.83137512      41.09510040      26.24900436
C       17.13525772      40.04542923      25.57590675
C       17.25127983      40.36193466      24.09014130
O       16.65944862      39.29131317      23.36719322
C       16.68600082      39.54971313      21.96056175
C       16.15757370      38.30271530      21.23920631
O       16.41036224      38.38348007      19.81237411
C       15.71385193      39.46913910      19.16667175
H       18.47393036      40.01811218      27.93014145
H       18.40941048      41.79996490      28.09908295
H       16.91605568      40.84799576      28.12657547
H       16.07356071      39.99292374      25.88914680
H       17.59061623      39.06024933      25.77846718
H       18.32055283      40.45175171      23.83416176
H       16.77372360      41.33277512      23.86690903
H       17.72200394      39.71939087      21.61291313
H       16.08505440      40.44899368      21.72934914
H       16.69778252      37.40684891      21.59213448
H       15.08178997      38.13795853      21.43108940
H       16.01969147      40.45067978      19.55543900
H       14.62629032      39.33335495      19.28034782
H       15.94869518      39.41450119      18.09554672
C       36.87922668      28.78283882      27.81535912
O       36.40256119      29.87175560      28.56409836
C       37.41883469      30.61982727      29.23399544
C       36.68376541      31.80694199      29.85940170
O       37.67535019      32.52811813      30.56519318
C       37.20263672      33.71758270      31.17625809
C       38.43350601      34.31304550      31.86710930
O       38.09693527      35.23266983      32.89995193
C       37.68396759      36.51792908      32.46950531
H       37.49226379      28.10533714      28.43206024
H       36.00006104      28.22921944      27.46393013
H       37.46136093      29.11114693      26.93448448
H       38.18846512      30.96760178      28.52444077
H       37.90383148      30.02645874      30.02649498
H       35.86932755      31.45984840      30.52366638
H       36.22315598      32.39665222      29.04616547
H       36.40772629      33.53897095      31.91852951
H       36.79319000      34.40715790      30.41648293
H       38.98105240      33.50355530      32.37469101
H       39.11198807      34.77216721      31.12523079
H       36.73093796      36.49549866      31.92433167
H       38.46545792      36.97768021      31.84482193
H       37.55303192      37.10707474      33.38772583
C       21.03763962      37.93531799      26.96647072
O       21.65282249      36.64416885      26.90469933
C       21.22896957      35.81324387      28.00214005
C       22.21656418      34.64624023      28.00012589
O       21.88347816      33.83189011      29.13149261
C       22.87976074      32.81694794      29.31802368
C       22.41017723      32.07399750      30.56895065
O       23.23600388      30.92835426      30.83489227
C       23.01143265      29.80733109      29.97804451
H       21.20216942      38.40483856      27.94994545
H       21.47579002      38.55102921      26.17190933
H       19.95074272      37.84773636      26.80405617
H       20.18892860      35.47140884      27.84497261
H       21.24206543      36.36260986      28.96405411
H       23.24752235      35.02812958      28.09058380
H       22.16917229      34.07159042      27.05340195
H       23.88221550      33.25093842      29.47548103
H       22.92495918      32.14906693      28.43627357
H       22.45767975      32.71419144      31.46437263
H       21.34841347      31.79745483      30.45437813
H       23.26124954      30.01406860      28.92306137
H       21.95550346      29.48651886      30.02202415
H       23.64288330      28.98473167      30.33727646
C       21.19968605      13.87239838       4.58569145
O       21.01799965      12.52444458       4.17903996
C       21.31704521      11.62793732       5.25806427
C       20.84074593      10.26699829       4.76709366
O       20.91718483       9.38813496       5.89373827
C       20.70369148       8.02547550       5.49493790
C       21.05476570       7.22135448       6.73395014
O       21.25026131       5.83981133       6.36834288
C       20.14510345       4.97543955       6.51959181
H       22.22159767      14.07118797       4.94632721
H       21.01624489      14.50360394       3.70544958
H       20.49766731      14.14289379       5.39488554
H       20.80253983      11.92746258       6.18879271
H       22.39922333      11.60380936       5.46992922
H       21.46256065       9.89596462       3.93236089
H       19.80131531      10.33629894       4.39809084
H       21.37241745       7.75095510       4.65861034
H       19.65396309       7.87233782       5.18479395
H       22.01175880       7.58476114       7.14012909
H       20.29254913       7.33885813       7.52498674
H       19.39921951       5.07628059       5.71373796
H       19.60975075       5.14562273       7.46449804
H       20.51493073       3.94026041       6.52997828
C       18.34682083      28.20740700      29.61625862
O       18.58034897      27.12785530      30.53799057
C       17.42784691      26.26923752      30.57196426
C       17.69651985      25.25715256      31.67736244
O       16.46899033      24.53922462      31.86399841
C       16.68683052      23.39402390      32.69642258
C       15.30025768      22.74830627      32.78862000
O       15.36727905      21.51280212      33.50973129
C       15.85118484      20.40946388      32.73325348
H       17.50267601      28.83642578      29.94025993
H       19.26388168      28.80967903      29.57112122
H       18.07681084      27.82116699      28.61604500
H       17.24871063      25.78003502      29.59244919
H       16.50714493      26.84175491      30.79319572
H       18.00806999      25.74651718      32.62068939
H       18.51866913      24.57509613      31.37919998
H       17.06378555      23.66847801      33.70027161
H       17.40489388      22.69976425      32.21609116
H       14.60216427      23.38247490      33.35834503
H       14.84768200      22.60367012      31.79351234
H       16.91265297      20.48587608      32.44837952
H       15.24964046      20.26649094      31.81447220
H       15.71805573      19.50784302      33.35470581
C       13.82469082      18.05558586       1.61709142
O       12.85740757      19.05019951       1.92590749
C       11.69446850      19.01036644       1.08214211
C       10.72989464      19.94726372       1.78783989
O        9.53838634      20.01969337       1.00348866
C        8.58325100      20.78380966       1.75369680
C        7.42035055      21.09125900       0.81589782
O        6.52333260      21.98605347       1.50170505
C        5.57502270      21.40706253       2.38980842
H       14.25920010      18.21864319       0.61429662
H       14.61083508      18.12293434       2.38133359
H       13.38271713      17.04827309       1.63500369
H       11.28111076      17.99293518       1.00270510
H       11.91594505      19.35150719       0.05539524
H       11.18242741      20.94430542       1.92631721
H       10.51065063      19.57132530       2.80520773
H        9.00926590      21.74142456       2.10581017
H        8.21339226      20.24699974       2.64584780
H        7.79645252      21.63184166      -0.06722074
H        6.90947533      20.18087196       0.45910320
H        6.01922703      21.01553535       3.31656551
H        4.97422314      20.62776566       1.89421332
H        4.88166428      22.19801712       2.70344543
C       31.21661186       4.48633099      14.98693466
O       31.09326935       3.43259358      14.05064487
C       30.01328278       3.62140775      13.14187336
C       30.05117989       2.43590283      12.18488693
O       28.92371750       2.57979155      11.33425903
C       28.89944649       1.59760141      10.30194855
C       27.62613487       1.88516605       9.50409412
O       27.52759552       1.00468075       8.38573551
C       28.14914322       1.41982186       7.18529463
H       30.30530930       4.61319256      15.59637737
H       32.04837418       4.25802803      15.67129135
H       31.41069794       5.44442368      14.47976685
H       30.13409805       4.54926729      12.55705166
H       29.04118347       3.68412495      13.66800404
H       30.01685524       1.48733556      12.74460411
H       30.99074936       2.44597507      11.60547829
H       28.85840607       0.57172692      10.70575714
H       29.78820801       1.67272651       9.64937878
H       26.74902153       1.70239103      10.14592075
H       27.60167885       2.94723272       9.21566391
H       29.06519699       1.99934053       7.37475443
H       27.45086288       2.01031780       6.56503725
H       28.40976334       0.50164109       6.63947964
C       28.92282677      31.94601440       2.00119376
O       27.79123878      31.80111694       1.14692342
C       26.54828072      32.02560425       1.82831681
C       25.47883415      31.77355385       0.78252369
O       24.24085045      31.90373230       1.49021685
C       23.10056305      31.75927353       0.63243592
C       21.93226624      31.56550407       1.60374737
O       20.67728996      31.62175941       0.89951628
C       20.05630875      32.89947128       0.88899255
H       28.98103333      31.11534882       2.72718811
H       29.83061028      31.93993187       1.38059926
H       28.87488747      32.88054276       2.58633900
H       26.47512817      33.05103302       2.23380923
H       26.41315269      31.33167267       2.67439079
H       25.58073044      30.76804924       0.34246096
H       25.55292511      32.50278473      -0.04250311
H       23.19734192      30.89526367      -0.04700526
H       22.94655609      32.65829086       0.01111269
H       21.98754883      30.56830406       2.06697583
H       21.96401787      32.29713821       2.43015289
H       20.46601868      33.56909561       0.11600249
H       20.10604477      33.40447998       1.86737752
H       18.98830223      32.73996353       0.67626464
C       22.42713356      41.47665787      34.21367264
O       23.58147240      41.24275970      35.02001572
C       23.34562492      41.20065689      36.43154907
C       24.75887489      41.11851120      37.01326752
O       24.64103699      40.75627518      38.38516998
C       25.90335083      40.55636978      38.99890900
C       25.58834457      40.19506454      40.44959259
O       26.80451012      39.93123627      41.14815903
C       27.08946609      38.55311584      41.36827469
H       21.80339813      42.29020309      34.61851883
H       22.76838684      41.77019119      33.21481323
H       21.81446457      40.57135010      34.10240173
H       22.74589157      40.32645798      36.72868347
H       22.82171631      42.11097336      36.78344727
H       25.27631187      42.09077835      36.91803360
H       25.35510826      40.36952209      36.45912552
H       26.52921867      41.46719360      38.97654343
H       26.45637703      39.74147797      38.49784088
H       25.06149864      41.02321243      40.95709991
H       24.91250992      39.33006287      40.44763947
H       27.26961136      37.99949646      40.43317795
H       26.25837708      38.07387924      41.91016388
H       27.98223495      38.50425339      42.00625610
C       19.65004158      36.71129990      21.63085556
O       18.67689514      36.08715439      22.47683907
C       18.89863777      36.39143372      23.87848663
C       17.64096451      35.86520386      24.54414368
O       17.62960434      36.19583511      25.94758987
C       16.34677315      35.86167145      26.49964905
C       16.39866066      36.34452820      27.94936752
O       15.18264866      35.93846893      28.63782501
C       14.12002563      36.89116287      28.53451729
H       20.67927933      36.48567963      21.94797516
H       19.51594925      36.32516098      20.60881996
H       19.50635529      37.80563736      21.61519814
H       18.97897148      37.48423767      24.04035568
H       19.82016754      35.89900589      24.24560738
H       17.55952263      34.77489471      24.39707375
H       16.75958443      36.31526184      24.04376030
H       16.16427994      34.77242279      26.43900871
H       15.52746487      36.35884094      25.94480133
H       17.22880936      35.86672592      28.49264526
H       16.49803543      37.44283676      28.01029015
H       13.73453903      36.98070526      27.50671959
H       14.44161797      37.88070297      28.89230156
H       13.28627491      36.53282547      29.15685844
