3403
Lattice="38.0099983215332 0.0 0.0 0.0 38.0099983215332 0.0 0.0 0.0 38.0099983215332" Properties=species:S:1:pos:R:3 pbc="T T T"
Na      34.46763611      13.44187546      33.95447540
Na      19.46692276      15.06443787      32.30939484
Na       0.95027065      13.72005367       4.41351748
Na      24.58057976      25.60984802       7.92026186
Na       2.00999498      24.73793411       4.80513191
Na      22.28391075      15.04997349      24.74705887
Na      17.72622299      13.44831657      37.17203140
Na       4.15937185      27.86818886       9.29825783
Na       5.12982225      18.53571892       2.75495863
Na      22.61845207      13.17506599      33.23252869
Na      24.92148972      11.20699978      13.14286232
Na       7.62445068      36.89110565      13.47554207
Na      25.61198044      15.36827469      33.39683533
Na      10.07793331      11.57839298      31.42094612
Na      31.49341965      14.14546776      36.97911072
Na      31.23950577      28.78980064      27.73027039
Na       3.48088074       9.57697010      10.14383888
Na      25.82251549      32.80445862      35.85408020
Na      10.65189648      22.24549484      29.16008377
Na      21.36841774      21.53842163      25.94333839
P        3.89189720      17.06573677      21.12268257
F        2.47688246      16.22239494      21.01636505
F        5.29810619      17.87913132      21.23468018
F        3.03669715      18.46196175      21.23458481
F        4.71816349      15.64647293      21.02947235
F        3.93452621      17.20334435      19.49292755
F        3.85066533      16.92942619      22.75425148
P        6.64184856      21.14793587       4.20566654
F        6.20834255      22.72098160       4.21157885
F        7.07221603      19.52419853       4.14333725
F        7.80593252      21.45365524       3.10597539
F        5.46159506      20.80637932       5.26421022
F        5.56715965      20.83945465       2.92869782
F        7.69403410      21.35578537       5.42355156
P       35.71229172      24.10130882       5.98626947
F       34.56044006      23.14057159       5.28970480
F       36.85464859      25.04961586       6.70783091
F       34.58691406      24.70447922       7.03606176
F       36.84575653      23.52304649       4.97817421
F       35.38351822      25.30542946       4.94352674
F       36.08755875      22.90934944       7.05206776
P       10.15160465      12.67237377      13.90745163
F        8.59776878      12.23976135      13.57474518
F       11.69017601      13.06405258      14.23746586
F        9.98256588      14.01305103      12.97135258
F       10.32167816      11.32292652      14.84051704
F       10.64325237      11.81439400      12.59562302
F        9.64697552      13.49661922      15.21818447
P        5.47521257      12.93968391      28.90966606
F        6.66778564      12.10021591      29.69322395
F        4.28101301      13.74555969      28.17501259
F        5.23734093      13.83721066      30.28867149
F        5.72053814      12.03293228      27.60477829
F        4.38466358      11.84044170      29.47355652
F        6.58370829      14.02917290      28.42267036
P       29.48051262       9.17028332      19.01428223
F       29.09627151       8.36906242      17.65611839
F       29.88906670       9.97945213      20.38498878
F       28.58691978       8.12388325      19.91593170
F       30.37332153      10.23261356      18.13228798
F       28.16339874      10.14655590      18.83408928
F       30.80260086       8.21402740      19.19955063
P       15.31147099      34.62300110       3.48485684
F       15.38327312      33.91189194       2.03336239
F       15.24543953      35.31991959       4.95192003
F       15.83061886      36.02542496       2.83041453
F       14.82754803      33.19367599       4.15045118
F       16.86667252      34.19113159       3.77729058
F       13.76315403      35.04844666       3.20303893
P       35.67089844       7.29938221      29.19771957
F       34.39744186       6.67796183      28.39718246
F       36.92418671       7.90331745      30.03107071
F       35.34003448       8.78689003      28.59759712
F       35.99142456       5.80567932      29.83547974
F       36.62627029       6.97056580      27.94137955
F       34.69634628       7.61004782      30.49227715
P        4.58892298      17.18618393       6.34657097
F        3.45753574      16.12884140       5.76213264
F        5.70080614      18.22019196       6.89595938
F        4.74892521      16.28585243       7.71618843
F        4.40725136      18.06046486       4.93336153
F        3.39527678      18.05648804       7.03126717
F        5.74943209      16.29180145       5.61147928
P       19.23034668       1.39037991      16.96856689
F       20.49570656       0.37906566      17.21014214
F       17.96890259       2.41873622      16.74681664
F       18.45237541       0.22656566      16.13907814
F       20.00498199       2.52444983      17.83204651
F       19.91974831       1.91907656      15.59565830
F       18.52508545       0.85659379      18.36714363
P        7.92547607      23.94228172      27.32592201
F        7.63303041      24.50827980      25.84731865
F        8.26383209      23.36763382      28.86926842
F        7.68523407      22.41995239      26.85215759
F        8.21958447      25.45859337      27.88542557
F        6.36214542      24.10009384      27.74590874
F        9.53237534      23.77308273      26.99566269
P       11.48489475      13.51221657      29.00480461
F       10.15090752      12.47928715      29.20939636
F       12.78136730      14.47998905      28.88279915
F       10.47608566      14.74099350      28.80615234
F       12.45372868      12.22531986      29.30115891
F       11.50633335      13.17476845      27.43314743
F       11.46940613      13.75289059      30.65785217
P       27.55464172      10.03182697       7.63608027
F       29.04213524      10.55659008       7.17848873
F       26.08534431       9.51871109       8.13088226
F       28.11628342       9.86711693       9.17081165
F       27.00580978      10.19350624       6.12204790
F       28.01616859       8.49332809       7.31895781
F       27.11226273      11.58681011       7.97852325
P       33.78624344      19.15478516       5.51962900
F       34.28770828      18.08567810       6.63460732
F       33.27363586      20.26400375       4.40383053
F       33.39788818      20.21603775       6.72314405
F       34.18918228      18.12133598       4.33022165
F       32.27717590      18.50632286       5.56099463
F       35.30210114      19.81270409       5.45853567
P       23.29003906      24.80864525      30.02767181
F       23.35044479      25.88470078      31.24565697
F       23.25501633      23.71537399      28.78869438
F       22.50768089      25.88477516      29.08173180
F       24.06416702      23.70408249      30.95893669
F       21.85010529      24.26221085      30.57709694
F       24.73992920      25.36747742      29.49188995
P       30.43500900       8.90831184       1.71704161
F       32.07368851       8.93236923       1.73585188
F       28.77901840       8.90527439       1.70843625
F       30.45131683       8.38450813       0.19057798
F       30.42084312       9.43770123       3.27079368
F       30.40573311      10.46779919       1.19188166
F       30.46564102       7.36557484       2.24527979
P       15.50361633      31.49067116      15.88162804
F       15.29820347      31.42213631      14.26848793
F       15.69521618      31.52893829      17.52254868
F       14.36391640      30.29815865      16.07173347
F       16.63137627      32.66168976      15.73120022
F       14.32663536      32.62075806      16.00312805
F       16.67668533      30.35764313      15.77979088
P       19.75803566      14.17405891      13.72662926
F       18.69813347      13.93029118      12.50714493
F       20.82353020      14.43783283      14.93986416
F       20.86572838      14.74319649      12.66393948
F       18.68679237      13.60678387      14.82238674
F       20.36618042      12.67488766      13.51087856
F       19.17334557      15.69445610      13.92353153
P        7.55261803      20.81049919      22.67374802
F        7.84719229      19.22471809      22.37699318
F        7.28315687      22.40626144      22.95747566
F        9.03449821      21.17745590      22.06560898
F        6.07334280      20.45531273      23.28278542
F        8.21217918      20.66096687      24.15799904
F        6.89919281      20.96616554      21.15762901
P       36.10284042      25.75391769      31.41581917
F       37.70849991      25.48765182      31.42564583
F       34.46367645      26.03052139      31.41353226
F       36.34312439      27.27307320      31.98852921
F       35.84355545      24.23992348      30.83285332
F       36.00306702      25.21243668      32.94430542
F       36.19206619      26.31952477      29.86502457
C        1.32498610      18.33252525       0.92152929
O        1.88329840      17.58596802       2.01289248
C        2.53898597      16.40676880       1.51923919
C        3.23027587      15.77888680       2.71951556
O        3.66666555      14.47732925       2.33861566
C        4.59675360      13.93870068       3.29931974
C        4.92184067      12.52322674       2.80177355
O        5.24264288      11.66446972       3.90662909
C        6.39972401      12.07451057       4.65337563
H        0.65457231      17.70877457       0.30315545
H        0.72315288      19.14633560       1.35345173
H        2.11509442      18.74289131       0.27085936
H        3.28198624      16.64772606       0.73329461
H        1.81254673      15.71141815       1.05705595
H        2.53092456      15.74708271       3.57651687
H        4.08203936      16.38994026       3.06981611
H        4.16144848      13.92590714       4.31830597
H        5.50330639      14.57010269       3.35210967
H        4.03148270      12.08259106       2.32596469
H        5.72409153      12.52130222       2.04014540
H        6.20893717      12.94333172       5.30104017
H        7.24147606      12.31239891       3.98033595
H        6.68194628      11.23189831       5.29817867
C       12.46448708      20.99998665       4.34191895
O       12.12876511      22.33132362       4.72834921
C       10.76412106      22.65680695       4.43328953
C       10.46818638      23.96790886       5.13866091
O        9.06591511      24.16605568       4.90441799
C        8.55658722      25.35197258       5.50607872
C        7.04558229      25.33067894       5.33274794
O        6.60543966      26.67709541       5.68095064
C        5.84726000      26.85966873       6.87380648
H       12.36942005      20.86117744       3.25012136
H       13.49061298      20.78660202       4.66746140
H       11.77493477      20.29180145       4.82492542
H       10.06462860      21.89707375       4.81151724
H       10.58828735      22.72969246       3.34398007
H       11.06247425      24.79701042       4.71365023
H       10.67903805      23.90604019       6.22405815
H        8.93606472      26.24498367       4.98375607
H        8.82296944      25.45021439       6.57400036
H        6.76230621      25.14243507       4.28560352
H        6.55958080      24.57134819       5.96582031
H        6.36166430      26.47560120       7.77271032
H        4.85658169      26.36672974       6.82469749
H        5.69339323      27.94953918       6.99971771
C       11.30676270      25.60474968      11.60066700
O       11.75210285      24.40911865      12.22365570
C       11.74843025      23.30588150      11.30914879
C       12.44716358      22.18739510      12.06360340
O       12.42119122      21.04619408      11.20272827
C       13.19266605      19.98055458      11.76845169
C       12.99799252      18.79459190      10.80728817
O       13.30921459      17.56810951      11.48193741
C       14.63313389      17.05926704      11.41557407
H       10.22688389      25.56994820      11.38171864
H       11.51173592      26.42797852      12.29986095
H       11.83894920      25.76087952      10.64573002
H       12.29830265      23.53179550      10.37844086
H       10.71453857      23.02234840      11.03075314
H       11.91506004      21.99114037      13.01332951
H       13.47820950      22.48896027      12.31706142
H       12.81141663      19.72393799      12.77644730
H       14.25524712      20.27271652      11.85472584
H       11.92400074      18.72158051      10.55681801
H       13.57324696      18.90463638       9.86735630
H       15.34764290      17.66387749      11.98642063
H       14.98575687      16.96846771      10.37920284
H       14.58416462      16.05648994      11.85915661
C        9.56845188       5.71452379       2.04172421
O        9.63335800       6.90749264       2.81324387
C        9.60226727       8.09022427       2.01048732
C        9.81458282       9.17943192       3.05729032
O        9.80671692      10.41892052       2.36723328
C       10.23330116      11.49125195       3.21718931
C       10.13210106      12.73719978       2.33078551
O       10.44720268      13.91839314       3.06756330
C        9.43330097      14.43482018       3.93557954
H       10.41474152       5.61934757       1.34367979
H        9.56224728       4.88044214       2.75281763
H        8.64055443       5.67529964       1.45329106
H        8.63714695       8.20355892       1.48578191
H       10.39926815       8.09669590       1.24532580
H       10.76792431       9.02273178       3.58971572
H        9.00871277       9.14184666       3.81657910
H       11.27008724      11.35863113       3.56761360
H        9.60374451      11.60289574       4.11499500
H       10.86163521      12.63291740       1.50695586
H        9.12702751      12.79570007       1.87135577
H        9.18217373      13.74417210       4.75697517
H        8.50776196      14.65380478       3.38143611
H        9.78375816      15.36248779       4.39607954
C       30.77943611      11.95659733      24.02001190
O       30.76317596      10.68815994      24.65836525
C       30.87097549       9.58637238      23.73851585
C       30.76774979       8.36297321      24.61988831
O       30.71431351       7.24552011      23.73188210
C       30.52363777       6.02278996      24.44973946
C       30.96200180       4.92672968      23.47112465
O       30.59627914       3.64319515      24.01062965
C       31.48231888       3.13168144      25.00412560
H       29.85228539      12.12861061      23.44225502
H       30.85939598      12.72586250      24.79888344
H       31.62878609      12.05090141      23.32345009
H       31.82468796       9.61392212      23.17733574
H       30.06365204       9.59341431      22.98130989
H       29.86143303       8.44299889      25.24778366
H       31.62079430       8.30547619      25.31752205
H       29.45201111       5.88610744      24.71262932
H       31.11720085       5.99710321      25.37812042
H       30.41842651       5.02255011      22.51850510
H       32.03872681       4.99577332      23.23944283
H       31.37161446       3.60954332      25.98883629
H       32.53824615       3.20020247      24.70245552
H       31.23674393       2.06672478      25.12940788
C       19.09225845      25.60720253       9.45106792
O       18.75718689      26.95679665       9.17654324
C       19.77717209      27.61047363       8.41986465
C       19.27268982      29.04055023       8.30112457
O       20.23765373      29.67903519       7.48870564
C       19.96463585      31.07315636       7.42831612
C       21.11355591      31.68851662       6.62426519
O       21.02766418      33.10716248       6.70814371
C       19.89514732      33.67739105       6.05177975
H       19.81965446      25.53177834      10.27652740
H       18.16583824      25.09511375       9.74809837
H       19.48047066      25.09014320       8.55487251
H       19.89542961      27.14196587       7.42135429
H       20.75814056      27.57536316       8.92797089
H       19.16829872      29.53453255       9.28525066
H       18.27746010      29.04390144       7.82215166
H       19.91491508      31.50252724       8.44785881
H       18.99256516      31.24564743       6.93421698
H       22.07423401      31.41944695       7.08935976
H       21.11453819      31.32241631       5.58089113
H       18.94332314      33.39115143       6.51895857
H       19.85222244      33.39092636       4.99442387
H       20.01474190      34.76232147       6.12637043
C       36.19743347      33.35351944       3.72307515
O       35.20986938      34.09542465       4.42531872
C       34.00207901      34.28435516       3.68970823
C       33.09571075      35.06669235       4.64535379
O       31.92397499      35.32552719       3.90973616
C       30.94349861      36.06467819       4.63690472
C       29.88343620      36.43025589       3.59375596
O       28.90193367      37.25721741       4.23572493
C       27.63204575      36.67661667       4.51231146
H       36.39587402      33.78691483       2.72639322
H       37.11095047      33.38533783       4.33321524
H       35.90024185      32.30226135       3.57410216
H       33.54486084      33.32832336       3.38083076
H       34.18155289      34.88002777       2.77690673
H       33.59263992      36.00206757       4.96682215
H       32.88696671      34.47285461       5.55668259
H       31.36981964      36.97471237       5.09529829
H       30.48974991      35.46603394       5.44248724
H       30.36394310      36.99989319       2.77994752
H       29.45360947      35.52504730       3.14018774
H       27.63385010      36.16007614       5.48467255
H       27.33263397      35.96582413       3.72937512
H       26.88972855      37.48232651       4.54324389
C       27.09447289      19.36547089      36.35110855
O       25.77698517      18.84688568      36.54103851
C       24.80662727      19.90467834      36.61873627
C       23.46268654      19.19904518      36.63507462
O       22.42224503      20.18135262      36.69805527
C       21.15829086      19.51594353      36.63763809
C       20.06130600      20.56275749      36.88214874
O       18.77136421      19.94530487      36.80529404
C       18.20450020      19.82508087      35.50506210
H       27.33246040      20.14268303      37.09626770
H       27.78197670      18.51755905      36.47156525
H       27.21106148      19.80693436      35.34621811
H       24.86172485      20.54273415      35.72172928
H       24.98778534      20.53291512      37.51032639
H       23.38233185      18.48854256      37.47742462
H       23.34869385      18.59639359      35.71206665
H       21.08699989      18.72387505      37.40347672
H       21.02000427      19.02277946      35.65213776
H       20.14830589      20.98257256      37.89719009
H       20.13633537      21.37334633      36.14126968
H       18.71737671      19.08870125      34.86602402
H       18.22053719      20.80016899      34.99364471
H       17.17483711      19.47630692      35.64546585
C       17.27261353      35.92079544      12.92732334
O       16.28009033      36.15256500      13.92836475
C       14.96522331      36.35953903      13.39922619
C       14.06641579      36.17794037      14.61426640
O       12.71808910      36.16434097      14.11540031
C       11.84871483      35.78642273      15.18437576
C       10.44175529      35.98228836      14.61355209
O        9.50065517      36.12705612      15.70602322
C        8.65676498      35.00736237      15.97681141
H       17.32753563      36.76603699      12.22845936
H       18.22366905      35.82016373      13.45741749
H       17.07218170      34.99333191      12.37181473
H       14.72554302      35.64041901      12.59848309
H       14.84672260      37.37902451      12.99413395
H       14.17923927      36.99428558      15.35157299
H       14.30816650      35.24123001      15.14293957
H       11.96312046      36.41150284      16.08892441
H       11.99728394      34.73444748      15.46815491
H       10.41183376      36.92439270      14.04306602
H       10.16183281      35.16030502      13.93161774
H        9.14524174      34.28943253      16.65825653
H        8.38970375      34.48417282      15.03839302
H        7.72730732      35.38168335      16.43205070
C       19.91769028       2.03910828      34.85614014
O       21.07281494       1.68660188      35.59354019
C       22.29275894       1.79953694      34.83855820
C       23.40393066       1.43471146      35.81632996
O       24.57044220       1.21864605      35.01683044
C       25.79277039       1.27634645      35.75627136
C       26.91363716       1.10692859      34.71547318
O       28.13495445       0.71380430      35.34271622
C       28.81081963       1.72127354      36.08541870
H       19.80993271       1.44645023      33.93395233
H       19.04667854       1.82597363      35.49164963
H       19.92029381       3.11005664      34.60053253
H       22.42664337       2.82203412      34.45331192
H       22.27544212       1.10237753      33.98286819
H       23.11250877       0.51920784      36.36149597
H       23.55739021       2.22454500      36.57399750
H       25.82992554       0.45172444      36.49187851
H       25.88162041       2.23381519      36.30733109
H       26.64692116       0.29254732      34.02393723
H       27.00885963       2.01454592      34.09660339
H       28.31764984       1.95873809      37.04772568
H       28.90255356       2.64679694      35.49007034
H       29.82744217       1.35930502      36.30811310
C       28.35233879      27.68090820      10.31569099
O       29.17570877      27.97649956       9.19532204
C       29.31736946      26.88873291       8.27595329
C       30.33937836      27.36826706       7.24499178
O       30.49222565      26.29613686       6.32934189
C       31.25888252      26.61740875       5.16905785
C       31.32998085      25.33226204       4.34011936
O       32.03818512      25.61306000       3.11177087
C       31.25875854      25.78573036       1.93135047
H       28.69627762      26.80653191      10.88764477
H       28.34218979      28.53205299      11.00899029
H       27.30811501      27.47806358      10.01404858
H       28.35863113      26.63543510       7.77284384
H       29.67684174      25.96780777       8.76810932
H       31.28559875      27.61702728       7.75237942
H       29.95482445      28.27335167       6.74281836
H       32.27912521      26.94187927       5.44804716
H       30.77458954      27.41260338       4.57500648
H       31.90109825      24.55821991       4.88123703
H       30.31804276      24.94095421       4.15319014
H       30.54007149      26.61339378       2.02641678
H       30.72223663      24.85419273       1.68560851
H       31.95227051      25.98050308       1.10417140
C       10.69592571       0.97029293      11.23955536
O       11.57600403       1.70030928      12.08903027
C       12.24424553       2.77853084      11.39031410
C       13.43241501       3.15027380      12.26638699
O       14.20924664       4.04415417      11.45939064
C       15.30653477       4.62392378      12.19122696
C       15.96563339       5.64071560      11.23914528
O       17.28368187       5.96136951      11.71652699
C       17.35033226       6.58381414      13.00969601
H       11.21363449       0.58566672      10.34466839
H       10.31744289       0.12548065      11.83160591
H        9.84424686       1.58893871      10.91857433
H       11.55557251       3.62756991      11.24937534
H       12.56659508       2.44213557      10.39329624
H       13.99857521       2.24315333      12.54265404
H       13.11401653       3.63508201      13.21013451
H       16.03941727       3.84671617      12.46408844
H       14.96039963       5.10127306      13.12521267
H       16.08577728       5.19810963      10.23712063
H       15.34440613       6.54789352      11.12466431
H       16.86925316       5.96611500      13.79006290
H       16.84147453       7.56733990      12.98874474
H       18.41114807       6.73003101      13.26953983
C       23.78666306      15.08137321      12.87079811
O       23.37032890      15.78532791      11.70019150
C       22.61853218      16.98837662      11.95184612
C       21.79207611      17.28144646      10.71669388
O       21.12093544      18.48168945      11.10221195
C       20.27552414      19.00742722      10.08271790
C       19.67821503      20.25244713      10.74037933
O       18.83524513      20.94887733       9.81901932
C       19.57212067      21.89568138       9.03561878
H       23.14674759      15.31274128      13.74047470
H       23.66575623      14.00538063      12.65968704
H       24.83899498      15.29009247      13.12704086
H       23.29483795      17.83186150      12.17165375
H       21.93413162      16.86556244      12.80953407
H       21.08454514      16.46004105      10.50107193
H       22.42042542      17.41650200       9.81719780
H       19.47451782      18.30221939       9.80259895
H       20.84629440      19.24870682       9.16845512
H       19.05249596      19.95599174      11.60030842
H       20.47784424      20.90822411      11.12843800
H       20.26172066      21.39768410       8.33115768
H       20.13559723      22.58475304       9.67977810
H       18.82876778      22.45370674       8.44301128
C       36.50321579       8.37276268      21.75650406
O       35.86703873       7.73505020      20.65707016
C       36.45751190       7.93396187      19.36303902
C       35.71836472       6.96745920      18.43809128
O       36.15716553       7.28676414      17.10831451
C       35.55875015       6.39349365      16.16744614
C       36.09252930       6.75235224      14.78992462
O       35.52497101       5.87902975      13.79906654
C       36.26828003       4.72151852      13.48078251
H       36.26173019       9.44709396      21.81402588
H       36.16333771       7.88817787      22.68444633
H       37.59945297       8.26784515      21.71179199
H       37.53712463       7.72202635      19.38317108
H       36.29747009       8.96904373      19.01855469
H       34.63114548       7.11451674      18.53832054
H       35.94991302       5.92237806      18.68474197
H       34.46128464       6.50042486      16.17784691
H       35.80245972       5.34665871      16.39516830
H       35.78924942       7.78206539      14.54880047
H       37.19448090       6.71968889      14.77276802
H       36.33008194       4.01155949      14.32393456
H       37.28471375       4.96609974      13.13319492
H       35.75097656       4.20443249      12.66076946
C       36.25288391      31.09968185      35.38911438
O       35.26248169      32.01935577      34.97148895
C       34.91489792      31.82999229      33.59309006
C       33.74845505      32.77026367      33.36045837
O       33.28634262      32.49512863      32.03630829
C       32.04840469      33.16442108      31.76045990
C       31.56627083      32.73477554      30.36977768
O       30.36157608      33.48611450      30.10542870
C       29.17490959      32.74685669      29.86021233
H       37.20362091      31.25545883      34.84492493
H       36.42630768      31.21912956      36.46771622
H       35.93043137      30.06449127      35.20312119
H       34.60039902      30.79346657      33.39433289
H       35.76788330      32.04039764      32.92463684
H       34.05860519      33.82469940      33.47790909
H       32.96087265      32.58496094      34.11075211
H       32.18192673      34.25581360      31.79220009
H       31.26835442      32.92139435      32.50389481
H       32.32406235      32.96965027      29.59972954
H       31.39329720      31.64736557      30.33674431
H       28.59078598      32.58219528      30.78233719
H       29.37232780      31.76777267      29.39796638
H       28.53378868      33.31482315      29.17193794
C       12.26642895      28.43131828      31.37243462
O       12.69756222      29.77590942      31.60837555
C       13.27668381      30.40691757      30.43189049
C       13.83398819      31.70376587      31.00433731
O       14.49305916      32.39006424      29.93693733
C       14.78794956      33.76655960      30.23547363
C       14.99128342      34.44869614      28.86901283
O       15.75653076      35.64551544      29.06437111
C       15.00883675      36.82808304      29.31770897
H       12.96108055      27.87444878      30.72915459
H       12.18735600      27.92705154      32.34393311
H       11.27715302      28.40066338      30.88223648
H       12.51620483      30.56204224      29.64730835
H       14.05960178      29.77613258      29.98185921
H       14.53555202      31.45863533      31.81838226
H       13.02612400      32.31772995      31.45468903
H       15.70398521      33.85842514      30.84408569
H       13.96657181      34.23310852      30.81389618
H       15.55591106      33.77771378      28.20616341
H       14.03231049      34.64010239      28.36314392
H       14.23821068      36.66619110      30.08375740
H       14.52038193      37.18238831      28.39609718
H       15.71867085      37.58298874      29.68458557
C       19.56258774      11.64876652      35.53684616
O       18.36561966      11.10353851      36.11554718
C       17.88908005      10.03866386      35.26341629
C       16.95426941       9.15888882      36.08525848
O       16.95610619       7.87503719      35.46035767
C       16.50799751       6.81030703      36.30939484
C       17.00472641       5.51237917      35.63370514
O       15.97426605       4.51398849      35.61548996
C       15.94136333       3.68012547      36.75675964
H       19.34224510      12.13076973      34.56897354
H       19.95803070      12.39294434      36.24064255
H       20.31350136      10.86375141      35.36601639
H       18.73007774       9.41975880      34.90807724
H       17.38854218      10.45775318      34.37218094
H       15.93243980       9.57754993      36.11000443
H       17.31155014       9.12280178      37.12874985
H       15.40159225       6.79627371      36.34654236
H       16.89485359       6.95113564      37.33564377
H       17.23432541       5.72317553      34.57554245
H       17.91735077       5.13285255      36.11837769
H       15.64439297       4.21576595      37.67242050
H       16.90309143       3.17372370      36.92350006
H       15.17537308       2.91790748      36.55311203
C        4.63759375      24.09712219      23.30566406
O        4.33496094      24.28899002      21.93548584
C        4.79331350      23.23235512      21.06858253
C        4.16154575      23.51797867      19.73166847
O        4.39237690      22.36174202      18.90481186
C        3.71921730      22.48678970      17.65613556
C        3.93953228      21.20491600      16.86405945
O        3.36618710      21.45824242      15.54574013
C        2.32360506      20.58217621      15.11773396
H        5.71723461      24.20152855      23.49788857
H        4.10452652      24.85912323      23.88968086
H        4.27760077      23.10827065      23.64205360
H        4.46793270      22.24412155      21.43501663
H        5.89578819      23.22298050      21.01620293
H        4.60133410      24.42608643      19.27085114
H        3.07659054      23.69183731      19.86407280
H        4.09833813      23.34993553      17.07771683
H        2.63125587      22.64260292      17.80125618
H        5.01581955      20.98894501      16.74859047
H        3.45379281      20.34052277      17.34329605
H        1.40273523      20.69245911      15.71481514
H        2.62713814      19.52009201      15.16725731
H        2.07170677      20.83706665      14.07582092
C       10.19498825       8.33742809      10.53476810
O        9.70426369       7.33191490       9.64158821
C        8.38749218       7.59140348       9.15336990
C        7.94443035       6.35464287       8.38838005
O        6.54293823       6.55240917       8.18043995
C        5.97142315       5.42798281       7.52087879
C        4.47265196       5.49620962       7.83697605
O        3.88705468       4.24906206       7.46501303
C        3.46933484       4.12194729       6.12047005
H        9.42890263       8.64697647      11.26670074
H       11.04201698       7.92000628      11.09633255
H       10.50108528       9.23320961       9.97569275
H        8.35443592       8.46078491       8.47007179
H        7.68495846       7.79908609       9.98208714
H        8.13003063       5.45355558       8.99386787
H        8.48280239       6.23324156       7.42888641
H        6.36882210       4.48372984       7.92256975
H        6.16038132       5.44124031       6.43410730
H        4.32773352       5.62624264       8.92255306
H        3.96813250       6.34460688       7.34631777
H        4.27119541       4.30711460       5.39565277
H        2.62490559       4.78983784       5.90559387
H        3.13370013       3.08343887       5.99949837
C       10.68039036      36.23453903      34.21886063
O       11.81928253      36.35564423      35.04748535
C       12.62553501      35.16829300      35.10911942
C       13.80070305      35.54756546      35.99662781
O       14.41700268      34.32486725      36.35932922
C       15.67766857      34.50356293      37.01657486
C       16.05615616      33.08703613      37.43745422
O       17.37566566      33.08576202      37.99145889
C       18.41232109      32.98065567      36.99897003
H       10.02213287      35.41032410      34.54806519
H       10.12251854      37.18159103      34.28375244
H       10.95267010      36.04439545      33.16587067
H       12.96665382      34.85741425      34.10003662
H       12.06833267      34.32151794      35.54233170
H       13.47753906      36.10071564      36.89875793
H       14.50491238      36.17660904      35.42473221
H       15.60526085      35.19174576      37.87518692
H       16.40625191      34.90689468      36.29528809
H       15.36015987      32.72381592      38.20626450
H       15.96592140      32.39204788      36.58737183
H       18.28928375      33.69674683      36.17573547
H       18.43790245      31.96974182      36.55889130
H       19.35887527      33.18331528      37.51471710
C       23.45348549       1.29961383       1.62319744
O       22.59335327       2.18593645       0.93274760
C       22.29030800       3.36054230       1.69529462
C       21.09041023       4.01383734       1.02284193
O       20.74319839       5.06217861       1.92692518
C       19.61123657       5.80578995       1.47341073
C       19.34272575       6.83314800       2.57528472
O       18.21468163       7.61980581       2.18244886
C       18.47982979       8.97744656       1.86926520
H       22.89448357       0.74466717       2.39755177
H       23.85341644       0.55618209       0.91949248
H       24.27735519       1.83520174       2.12717271
H       23.14762688       4.05504704       1.72928727
H       22.02227783       3.12010908       2.73900819
H       20.26919365       3.28559494       0.90528536
H       21.35961914       4.38110304       0.01567902
H       18.72430420       5.16568947       1.33356822
H       19.81473160       6.30327654       0.50806528
H       19.09296227       6.30144787       3.51056266
H       20.23492813       7.44960356       2.76021838
H       19.06242561       9.09392071       0.93854010
H       18.99616623       9.48181820       2.70239401
H       17.49558640       9.45308113       1.72512400
C       22.52737808      19.63215446      14.88970089
O       22.81643295      21.03155518      14.95232868
C       23.91741371      21.37709999      14.07575893
C       24.08479309      22.87191963      14.28989792
O       25.25663567      23.27008438      13.57963657
C       25.26746559      24.69682693      13.42575073
C       26.49932671      25.12335205      12.60204601
O       26.68137360      26.53509331      12.76350117
C       25.59461975      27.33658600      12.27681351
H       23.41291618      19.03375816      15.15154648
H       21.72133827      19.43090057      15.60407543
H       22.18854141      19.33691788      13.88358879
H       23.67619324      21.11560440      13.02554417
H       24.82829094      20.81598473      14.34559631
H       24.14834595      23.12501335      15.36674595
H       23.18361092      23.39122391      13.89975452
H       25.25736618      25.19155121      14.41059780
H       24.33687973      25.01258278      12.91531467
H       27.41295052      24.62912178      12.97228718
H       26.36663055      24.87170982      11.53333855
H       24.69789696      27.23967743      12.90542126
H       25.32376480      27.04988861      11.24337769
H       25.93259621      28.38185310      12.29282188
C       20.48885536      10.38882923      18.10680008
O       21.75391197      10.16522026      17.48100281
C       22.59682083       9.26276016      18.21437263
C       23.70035934       8.83977413      17.25112915
O       24.31216431       7.71103525      17.88606262
C       25.46707535       7.21605062      17.18770599
C       25.93912697       6.05263662      18.05192566
O       27.27182770       5.64102650      17.69009399
C       27.48211670       4.83039951      16.54033661
H       20.57542038      10.71931171      19.15102959
H       19.97012138      11.16705799      17.53484917
H       19.87887764       9.47168064      18.08434105
H       22.01771164       8.37493515      18.51293564
H       22.97517776       9.74907589      19.13609695
H       24.42656708       9.64853668      17.07199287
H       23.25791359       8.54163265      16.27988434
H       26.25690460       7.98207378      17.13740540
H       25.20457649       6.88267565      16.16613197
H       26.00112915       6.35579777      19.11148262
H       25.22179413       5.21757030      18.00449944
H       27.30332184       5.37441206      15.59835434
H       26.83084297       3.94256496      16.55625725
H       28.52190590       4.48218489      16.56571388
C        1.05454922      25.72217369      19.03832817
O        0.78916931      25.24638176      20.35606194
C        1.26522768      26.15323639      21.37335587
C        0.87220740      25.56349373      22.72115135
O        1.35822928      26.49248505      23.69766617
C        1.48052168      26.01746941      25.04381752
C        2.34890437      27.08921242      25.72957611
O        2.73650002      26.76224327      27.06855011
C        1.80142939      27.04642105      28.10454750
H        2.09624648      26.06011391      18.92325401
H        0.87860769      24.90392303      18.32324219
H        0.36542112      26.53920174      18.77107811
H        0.81486613      27.15615082      21.25582123
H        2.36364412      26.23932838      21.32025528
H        1.31433702      24.55928612      22.83294106
H       -0.22518556      25.45085335      22.79845047
H        1.98073959      25.03565598      25.06966019
H        0.49113408      25.94115639      25.52997780
H        3.28211808      27.15353775      25.14413452
H        1.86006689      28.08313370      25.69518089
H        0.93831891      26.36691093      28.11337852
H        1.40633643      28.07174873      28.03785515
H        2.30258083      26.93875313      29.07693863
C       18.90053558      21.34578323       5.50931978
O       18.26187134      22.22898865       4.59704351
C       17.97368050      23.47988892       5.22785664
C       17.26712036      24.35463524       4.20989656
O       17.10909081      25.57750320       4.91977644
C       16.25051117      26.52389717       4.28957367
C       16.22052765      27.65651894       5.31825686
O       15.48705292      28.77350235       4.82252598
C       16.33847809      29.66092491       4.08991528
H       18.32608795      21.27070999       6.44709921
H       18.92770576      20.34145164       5.06157398
H       19.92239952      21.67809296       5.76397324
H       18.89237976      23.98157310       5.58145809
H       17.32337952      23.34519577       6.11068344
H       16.29157066      23.92857933       3.92491412
H       17.88573456      24.46486282       3.30259323
H       15.23499012      26.12432480       4.13640738
H       16.65656471      26.85141945       3.31608033
H       15.71592903      27.31202888       6.23836565
H       17.24613190      27.94427681       5.60418510
H       16.77637672      29.19236755       3.19635201
H       17.13109207      30.04706573       4.74719524
H       15.71438885      30.49562073       3.75523829
C       26.67492676      10.52564526      25.37301636
O       25.66262627      11.45768070      25.73004150
C       26.12575531      12.48068905      26.60686493
C       24.88128853      13.27346039      27.00525665
O       25.30482292      14.27534199      27.92048073
C       24.20670319      15.01072884      28.47267151
C       24.73833275      16.09195137      29.41383934
O       23.66361618      16.89742470      29.90629959
C       23.17291451      17.85805702      28.95998955
H       27.08772469      10.03111458      26.26574326
H       26.23305511       9.76321125      24.72037315
H       27.50662422      11.00329494      24.83344841
H       26.83917236      13.14832211      26.09568024
H       26.60521126      12.07386208      27.51289368
H       24.10822868      12.62218285      27.44302559
H       24.45035744      13.72894955      26.09213638
H       23.50838280      14.36803913      29.03077888
H       23.62097168      15.48041821      27.66693687
H       25.19565010      15.61706066      30.30177689
H       25.49633217      16.69549751      28.88694572
H       22.60344505      17.39451408      28.13501549
H       23.98182297      18.46561623      28.52992630
H       22.46386147      18.50455666      29.50086212
C        9.59862614      23.38936234      14.86261559
O        8.30751801      23.73677444      15.36614990
C        7.52971077      24.46003723      14.40437698
C        6.08618307      24.50778198      14.91825390
O        5.43530655      25.53594017      14.16293049
C        4.00661659      25.47838402      14.21341038
C        3.51874542      26.69011307      13.40581322
O        2.09968114      26.66874123      13.17727375
C        1.72422945      25.89862061      12.03217411
H       10.13792038      24.27422523      14.49332333
H       10.14754486      22.89573479      15.67508602
H        9.49330521      22.66406059      14.03430557
H        7.53699493      23.95841408      13.41690922
H        7.91808462      25.48664665      14.27669811
H        6.02038336      24.69939804      16.00923729
H        5.59004450      23.53981400      14.72442055
H        3.61838102      25.51459503      15.24769402
H        3.63311839      24.54788780      13.75274086
H        3.76014972      27.62791061      13.92650223
H        4.05840302      26.69770622      12.44619083
H        2.19727945      24.90692711      11.99926758
H        1.96191478      26.44053459      11.09972382
H        0.63999742      25.72500420      12.07123184
C       20.64195442       9.10419750      13.69990921
O       20.56124878       7.70119667      13.47593594
C       21.68898201       7.16831589      12.77663898
C       21.41398430       5.68405390      12.60684776
O       22.56601906       5.17575884      11.93144417
C       22.48369789       3.79648924      11.55309486
C       23.83640862       3.49852443      10.89297962
O       23.82910347       2.19044757      10.24279022
C       24.16532516       1.09977555      11.10752010
H       20.71949387       9.65698338      12.75024891
H       19.71642303       9.40311146      14.21325684
H       21.48121834       9.37448978      14.35747242
H       22.62566566       7.35552359      13.33669758
H       21.79857826       7.61294699      11.76882553
H       20.49522972       5.53106546      12.00485325
H       21.23434448       5.20921707      13.59024429
H       21.66988373       3.64249635      10.82492924
H       22.29554558       3.16075397      12.43860149
H       23.97609901       4.21164036      10.06787682
H       24.66958237       3.59718299      11.60955238
H       23.29468346       0.76991981      11.70230675
H       24.96440315       1.37061679      11.81710911
H       24.49462128       0.25809374      10.48588562
C       25.68855667      16.37414551       7.48846674
O       25.26172066      15.01833916       7.64098120
C       24.10100365      14.95313740       8.49584675
C       23.69917870      13.48812294       8.43017578
O       22.72875595      13.29711914       9.46494198
C       21.83339310      12.20600796       9.19614124
C       21.03695679      12.07555485      10.49434090
O       20.24570656      10.87811756      10.44598293
C       18.90842628      11.00851440      10.00051117
H       26.03176498      16.79927444       8.44337368
H       26.50407028      16.37538338       6.75089931
H       24.84668350      16.99402237       7.12378025
H       23.28765297      15.59542370       8.09437847
H       24.29346848      15.31198692       9.52389812
H       24.56136131      12.80845737       8.55358315
H       23.26982880      13.26903343       7.43262768
H       22.38086319      11.27306175       8.95904541
H       21.18089676      12.43353176       8.33154202
H       21.72669029      11.97219753      11.34505081
H       20.42249680      12.96102619      10.73498344
H       18.84066010      11.42561913       8.98300934
H       18.32055855      11.64333057      10.68225765
H       18.46235847      10.00696945      10.00831795
C       15.90095520      11.92028618      29.19752502
O       16.85891914      11.14355087      28.49570084
C       16.96082687      11.41092014      27.09965324
C       18.19176292      10.62901974      26.64889908
O       18.44150162      11.00179386      25.29783249
C       19.72302437      10.53313351      24.88367271
C       19.85191154      10.87031078      23.38673592
O       20.93332672      10.14373589      22.78614044
C       22.22571564      10.53682804      23.24788284
H       14.88594151      11.79324627      28.79199791
H       15.87531471      11.56401062      30.23717499
H       16.13773155      12.99455261      29.17595291
H       17.11334801      12.48367882      26.90066528
H       16.06500626      11.07680702      26.54817200
H       18.03842926       9.53993988      26.72996712
H       19.02431679      10.90332603      27.31930733
H       19.79390717       9.43793297      24.98228645
H       20.52578545      10.99961281      25.48428345
H       18.94195366      10.54297256      22.86207199
H       19.95236015      11.96140385      23.25440407
H       22.35861969      10.40484715      24.33216858
H       22.42429543      11.58819294      22.97823906
H       22.95085526       9.87632656      22.74694061
C       12.93439007       4.20601749       7.82047033
O       12.96061230       5.36724043       7.00714779
C       12.67055607       6.55400801       7.76097536
C       12.54795361       7.66158772       6.72421026
O       12.09579086       8.79674053       7.44163370
C       11.91575813       9.89986992       6.56346703
C       11.36568451      11.06351376       7.40431643
O       11.02552223      12.11521053       6.49400425
C       12.12206841      13.00601387       6.25131273
H       11.89575672       3.88139462       8.00694370
H       13.46210003       3.38982821       7.30850220
H       13.41426373       4.36033249       8.79877567
H       13.45860958       6.77137995       8.50406170
H       11.71422863       6.49324036       8.30603695
H       11.82920456       7.35241652       5.94072390
H       13.52500820       7.83374548       6.23449373
H       11.18885040       9.65499783       5.76939487
H       12.86912155      10.17573261       6.07226849
H       10.44269657      10.74553871       7.91868305
H       12.08083248      11.40897655       8.17584801
H       12.97200012      12.49146843       5.77804804
H       12.43748951      13.49242210       7.19102573
H       11.73293018      13.76206017       5.55452633
C        8.76443863       2.01259160      14.44404697
O        8.00615597       1.55615866      13.30504131
C        6.59263086       1.67345631      13.50134087
C        5.97923565       1.34350753      12.14111328
O        4.59560013       1.20429194      12.40172863
C        3.84210396       0.98602855      11.21535683
C        2.38900185       0.97175360      11.70326233
O        1.50122917       0.90099627      10.58619976
C        1.06540871       2.17270923      10.12878609
H        8.57908916       1.36226678      15.31590366
H        9.82819271       1.96755421      14.17615509
H        8.47785378       3.03909922      14.72456455
H        6.30027676       2.67741132      13.85057640
H        6.23901701       0.94915432      14.26273918
H        6.40154505       0.39436579      11.73698044
H        6.21080875       2.13207054      11.40488911
H        4.11978626       0.03309818      10.72375393
H        3.99158001       1.80090594      10.48754692
H        2.21331811       0.07799949      12.31865597
H        2.18188143       1.85126507      12.33695698
H        1.90387964       2.78127789       9.76439381
H        0.52402842       2.70384121      10.92912006
H        0.37479439       1.98690140       9.29493809
C       27.63757133      36.08697891      10.22221279
O       26.58426857      35.87763214      11.15838337
C       25.63589096      34.91004181      10.70800877
C       24.60769653      34.94145203      11.83917618
O       23.78512955      33.79506683      11.69371319
C       22.86084175      33.75520706      12.77548885
C       22.32679558      32.32456970      12.76571655
O       21.38006020      32.25788879      13.84283543
C       21.73476410      31.43377495      14.94374847
H       27.25825119      36.52099991       9.28407383
H       28.33306122      36.79151154      10.69955921
H       28.16207314      35.14686966       9.98811054
H       26.09603500      33.91466522      10.59020329
H       25.17589188      35.19452286       9.74376869
H       24.00721550      35.87168884      11.81819725
H       25.13577843      34.94498444      12.80623245
H       22.02524948      34.46684265      12.63451385
H       23.32596207      33.98761749      13.74987793
H       21.82530975      32.10596085      11.80795002
H       23.15673256      31.60703087      12.86415291
H       22.12036324      32.01591873      15.79406834
H       22.47606850      30.67237663      14.66175365
H       20.83964729      30.89294052      15.27976894
C        0.88183320       5.24064875      32.61691284
O        1.32854486       6.58836269      32.71032715
C        1.55744708       7.03006458      34.06524658
C        1.73517299       8.52842331      33.98733139
O        2.03398252       8.93712711      35.31724930
C        1.98141754      10.34393692      35.52003860
C        2.25447035      10.53922081      37.01617050
O        2.30068970      11.93361759      37.35580444
C        3.57882762      12.53980541      37.09993362
H       -0.00390171       5.06981993      33.24754333
H        0.58044946       5.03766966      31.58197594
H        1.66660893       4.53011656      32.91679764
H        2.45461941       6.55193996      34.48731232
H        0.70206004       6.78320074      34.71224594
H        0.80396283       8.98206139      33.60482025
H        2.53973889       8.78225899      33.27526855
H        0.98236740      10.74541569      35.26287460
H        2.74261713      10.85996056      34.90463257
H        1.42641532      10.11372089      37.60223389
H        3.17941618      10.01895237      37.31170273
H        3.85225701      12.50787067      36.03178787
H        4.37534809      12.06623077      37.69329453
H        3.47981906      13.58910847      37.40947723
C       32.51267242      20.30046463      25.49079704
O       32.44841003      20.17420959      24.06668282
C       31.99977875      21.40575790      23.45073128
C       32.13460159      21.20287514      21.94634628
O       31.73345566      22.42765236      21.33554268
C       31.96096230      22.32392120      19.91617203
C       31.51277924      23.65140533      19.31223679
O       31.45394325      23.56847191      17.87327957
C       32.72594452      23.41110229      17.20993805
H       31.51133919      20.20093536      25.94331741
H       33.13692474      19.49283791      25.89669991
H       32.91610718      21.27812386      25.79031563
H       32.60921478      22.25397301      23.80599403
H       30.95169830      21.61240959      23.73148918
H       31.51705933      20.35662651      21.58223534
H       33.18851852      20.97104263      21.70799828
H       31.37369347      21.49834633      19.47010231
H       33.02996826      22.13567924      19.70274353
H       30.48787498      23.87043953      19.65341949
H       32.16870117      24.47650337      19.63844681
H       33.24179077      22.48716545      17.51321602
H       33.38249588      24.27527237      17.39446449
H       32.52840805      23.32108688      16.13142204
C       32.22683334      21.89199829       1.89863849
O       31.72072983      20.60618782       1.52295673
C       30.69749069      20.15441322       2.43005967
C       30.17504311      18.88868332       1.78461421
O       29.14031982      18.42364120       2.67167377
C       28.45342827      17.32270050       2.07355142
C       27.28134537      17.10474014       3.04313636
O       26.52951050      15.97959137       2.59540462
C       25.57203484      16.27321243       1.59012282
H       32.69036865      21.87034988       2.89835906
H       32.97298431      22.16940308       1.14327061
H       31.42761993      22.65188980       1.91431010
H       29.87585449      20.89174652       2.49601460
H       31.07766914      19.99526024       3.44940877
H       30.94416046      18.11313438       1.61896801
H       29.73108101      19.12526321       0.79874569
H       29.09545898      16.42743301       1.98657882
H       28.07893181      17.56551170       1.05962777
H       27.65791893      16.88364029       4.05361271
H       26.64936447      18.00757599       3.11431837
H       26.00619698      16.82818985       0.74399537
H       24.73017120      16.85124207       2.00408864
H       25.16871834      15.31697464       1.22390687
C        9.75681210      22.71520805      33.08220291
O        9.66961765      24.04008675      33.59718704
C        9.24889278      24.96132851      32.58605194
C        8.97827339      26.26862717      33.32358170
O        8.28088379      27.06068039      32.37697601
C        8.09684944      28.37834358      32.85710907
C        7.40205526      29.14685822      31.73227501
O        7.28098583      30.51037598      32.18080902
C        6.06560612      30.92856216      32.77901840
H       10.50828457      22.65501022      32.27571106
H       10.03624439      22.04078484      33.90332794
H        8.79448986      22.38470078      32.65306473
H        8.33566952      24.60049438      32.08057022
H       10.02573872      25.08630180      31.80416489
H        9.91714668      26.75867462      33.63648987
H        8.37093639      26.08478546      34.23044205
H        9.06898403      28.85661888      33.07442856
H        7.48949909      28.40870857      33.78141022
H        8.02316570      29.11300468      30.81941986
H        6.42640972      28.70292854      31.47492981
H        5.88725519      30.44384193      33.75774002
H        5.20911598      30.72429466      32.11274338
H        6.15156031      32.01123428      32.94489288
C       36.53856277      25.35505295       1.86218297
O       36.21502686      24.02648926       2.23810792
C       36.36336899      23.02343178       1.22328627
C       36.16512680      21.76600647       2.03858256
O       35.99607468      20.63789558       1.15377760
C       35.76168823      19.47472954       1.95605683
C       35.53018570      18.33652496       0.97033173
O       35.30179977      17.08680534       1.68086946
C       36.40845490      16.62099266       2.45097566
H       35.76148224      25.78034019       1.20102215
H       36.58149338      25.94284058       2.78306580
H       37.51596451      25.39874458       1.35005224
H       37.37060165      23.05734253       0.75512576
H       35.60953522      23.12601662       0.41940469
H       35.27942657      21.88604736       2.69179320
H       37.02943420      21.62726974       2.71296453
H       34.87586594      19.60372925       2.60441184
H       36.62252045      19.25797844       2.62299967
H       34.61260986      18.49169350       0.37548295
H       36.35617065      18.21373367       0.24379432
H       36.44874191      17.06227684       3.46218371
H       37.37231827      16.80413628       1.94310737
H       36.27531052      15.53148937       2.57083225
C        9.52162743      28.73913193      15.28025436
O        9.71830273      28.35489464      16.64114952
C        9.00019264      27.17472839      17.02546310
C        9.64378834      26.83997917      18.36386108
O        9.08987808      25.63380241      18.88128471
C        9.93438911      25.28936958      20.00353050
C        9.24723244      24.14505196      20.75049019
O        9.66909504      24.14267540      22.11462975
C       10.95580482      23.61505699      22.39827728
H        8.46446514      28.98268318      15.08224678
H       10.15782928      29.61787415      15.10621262
H        9.80371284      27.92596817      14.59326935
H        9.13699055      26.34963417      16.30540848
H        7.91400290      27.36978531      17.11265182
H        9.52324104      27.66406822      19.09874916
H       10.73382473      26.73476219      18.19747353
H       10.03467178      26.14893913      20.69685936
H       10.94793987      25.00540352      19.66054726
H        8.15522861      24.32138443      20.78296280
H        9.35901451      23.15634346      20.26745605
H       11.77440643      24.25988007      22.03461266
H       11.06332207      22.59585190      21.99271011
H       11.02062130      23.55113411      23.49386215
C       26.81248093       6.38134480      22.35733986
O       25.65707779       6.08290482      21.57939720
C       24.43200874       6.41229725      22.26492310
C       23.31348991       6.25556183      21.25116730
O       22.13069344       6.31569624      22.06387138
C       20.93291092       6.39419842      21.27930832
C       19.84019279       6.43684959      22.35579491
O       18.57044220       6.11078310      21.76690865
C       17.63541222       7.16517878      21.59991264
H       26.80851555       5.82367802      23.30901909
H       27.69900894       6.09551620      21.78099251
H       26.86655235       7.45804405      22.58917999
H       24.46780586       7.45330381      22.64092827
H       24.26088142       5.76069260      23.13816071
H       23.36906624       5.30815840      20.68467903
H       23.33609962       7.06422520      20.49979782
H       20.80941200       5.51283932      20.62121773
H       20.90458107       7.29905176      20.64547348
H       20.06280518       5.67168903      23.11676979
H       19.79471397       7.41499233      22.86405373
H       17.88936615       7.79712200      20.73286629
H       17.56324768       7.79400063      22.50068092
H       16.65310669       6.70004082      21.42019653
C        6.17097044       9.66382790      36.79389191
O        7.43030453       9.88110733      36.16122437
C        7.66147232       9.01246357      35.03541946
C        9.06591797       9.34669971      34.56849289
O        9.22847557       8.63552189      33.33121872
C       10.55756855       8.57654858      32.80223465
C       10.43927097       7.67557430      31.55962753
O       11.69086456       7.54382467      30.86672401
C       11.90459251       8.51906872      29.84070206
H        6.05357838       8.61465359      37.11149216
H        6.08217144      10.32231045      37.66880417
H        5.34977579       9.90139389      36.09390259
H        6.92861843       9.20920086      34.23533630
H        7.57549047       7.95020533      35.31558609
H        9.82124519       9.06431675      35.32190704
H        9.09825420      10.43637657      34.40409851
H       11.25948524       8.16603088      33.54400635
H       10.91801739       9.58416557      32.51440811
H       10.12997150       6.66890669      31.87807655
H        9.64440632       8.04820538      30.89443970
H       12.01918221       9.52847862      30.24812698
H       11.07423210       8.51815701      29.11725426
H       12.84017849       8.26413631      29.32602692
C       22.77881622      18.98457336      32.43210220
O       22.38592529      20.33588219      32.21822357
C       21.65745163      20.89254189      33.33673859
C       21.55866623      22.38491631      33.11326981
O       21.01354980      22.91464424      34.32206345
C       21.01729393      24.33889389      34.36513138
C       20.88399887      24.72093773      35.84722900
O       20.62521935      26.12286758      35.96633911
C       21.73995781      26.97325706      36.17786789
H       21.89896202      18.31022263      32.47061920
H       23.40910530      18.65877724      31.59282112
H       23.32670784      18.86182022      33.38095093
H       22.17148209      20.70992470      34.29380417
H       20.65172386      20.44276428      33.40546417
H       20.92220688      22.60588074      32.23904800
H       22.56324959      22.79391670      32.91255951
H       20.16942215      24.74003220      33.78236008
H       21.95809746      24.74281693      33.94668961
H       20.01265717      24.21603966      36.29971695
H       21.77887344      24.42503548      36.41907120
H       22.47587013      26.90067673      35.36328506
H       22.22674942      26.78059959      37.14840698
H       21.31844330      27.98872757      36.20861816
C        2.48136950       7.77284575       5.06002474
O        1.75277150       8.75055408       5.78777075
C        2.33419633      10.04457855       5.65240812
C        1.46707284      10.95865440       6.52302837
O        2.26607847      12.09248638       6.84590960
C        1.73072696      12.91374683       7.90300560
C        2.76883888      14.01481628       8.15667820
O        2.35959983      14.85862446       9.23138618
C        1.48251045      15.90765285       8.81435204
H        3.51439857       7.69242573       5.42687464
H        1.98142231       6.80883789       5.21315813
H        2.49920726       7.99812031       3.98169446
H        2.35026169      10.36413479       4.58994055
H        3.37311769      10.07282066       6.02339935
H        1.13176787      10.42546749       7.42879009
H        0.54830873      11.26417923       5.98650837
H        1.55896974      12.34643745       8.83260155
H        0.76229155      13.34386349       7.59723616
H        3.72946763      13.56399822       8.44987488
H        2.93285370      14.56693840       7.21725225
H        0.54053587      15.53184414       8.38686657
H        1.96181941      16.56146431       8.07202339
H        1.20345378      16.49601746       9.70063305
C       30.47013664      13.18984413      28.39884949
O       30.73603249      12.04306507      29.18966484
C       30.80590630      10.87031937      28.36458778
C       31.09605789       9.71701431      29.30351639
O       31.04373360       8.55239868      28.48691177
C       31.43341637       7.38375902      29.22535324
C       31.36127663       6.28271389      28.16155434
O       31.43413734       4.99245024      28.79844856
C       32.65932846       4.26398659      28.72620201
H       29.42756653      13.20045662      28.04191589
H       30.64201355      14.07402897      29.02652550
H       31.13196373      13.21681118      27.51707458
H       31.59251976      10.94963741      27.59187698
H       29.85956192      10.69977665      27.81980324
H       30.35344124       9.68446827      30.12176132
H       32.09169388       9.84038734      29.76502228
H       30.72837639       7.18451118      30.05075836
H       32.45042801       7.50338316      29.62831116
H       30.38651657       6.31072998      27.63840485
H       32.16042328       6.40883303      27.41178322
H       33.44271851       4.71148348      29.35192108
H       33.03997421       4.21059227      27.69133377
H       32.43536377       3.24810362      29.08124733
C       17.92714882      34.74968719      26.55637360
O       18.87957001      35.59765625      27.17171478
C       20.13049507      34.92782974      27.36741829
C       21.11498070      36.02097702      27.73098755
O       22.36584282      35.37610626      27.91617203
C       23.43225479      36.31086349      28.06251144
C       24.66716194      35.43241882      28.25811386
O       25.72108650      36.24420547      28.79103851
C       26.78201675      36.52888107      27.86989021
H       17.71445465      33.86075592      27.17445755
H       16.99333954      35.31403732      26.45192337
H       18.26066208      34.40521240      25.56536484
H       20.44068336      34.42129898      26.43469620
H       20.04949379      34.18322372      28.17476082
H       20.79574776      36.57448578      28.63764572
H       21.13936996      36.72743607      26.88495064
H       23.26870346      36.99145508      28.92019653
H       23.53374481      36.92987442      27.15390968
H       24.41984367      34.65134048      28.99941063
H       24.95755959      34.92477036      27.32116890
H       26.44193077      37.18601227      27.05728149
H       27.20848083      35.60715103      27.44889450
H       27.56080818      37.03956604      28.44808388
C       16.10388374       7.64478254      31.85810280
O       15.21131039       6.57245064      32.12648773
C       14.22710609       6.99750090      33.07563400
C       13.37762165       5.76700449      33.32571411
O       12.46678257       6.13520050      34.36215973
C       11.56132030       5.08274937      34.70494843
C       10.56841373       5.77500820      35.65375900
O        9.75029850       4.82444620      36.33845901
C        8.65383530       4.29791212      35.59158325
H       16.55760002       8.00744724      32.79061890
H       16.89380836       7.27820158      31.18581963
H       15.57596970       8.48180103      31.37702179
H       13.58968735       7.79226160      32.65315628
H       14.68268108       7.38444757      34.00647354
H       14.01708412       4.92579889      33.63156128
H       12.83721828       5.48213291      32.40559387
H       12.08461094       4.25693178      35.21246719
H       11.06626225       4.69040012      33.79825974
H       11.11258316       6.33235550      36.43570709
H        9.94814682       6.49200964      35.09275055
H        8.87307072       4.21776152      34.51648331
H        7.75069761       4.92200089      35.69577789
H        8.42975807       3.29978347      35.99510956
C       35.95524597      15.97476768       7.43567419
O       36.01532745      16.80398560       8.58833218
C       36.64693451      18.09987640       8.47851086
C       35.82741165      19.06126022       9.33419514
O       36.63618088      20.22852516       9.45078754
C       35.91760254      21.40356255       9.84844494
C       36.99972916      22.44946289      10.11884594
O       36.45307541      23.61226845      10.76400089
C       35.78623581      24.48869133       9.86025906
H       36.60593796      15.09403610       7.56445360
H       34.92488098      15.59844589       7.30944633
H       36.23371506      16.50161934       6.51026678
H       36.67279816      18.44812012       7.42722464
H       37.68303680      18.05968285       8.85686016
H       35.58901215      18.63633347      10.32955360
H       34.85932159      19.27083778       8.83564091
H       35.32187271      21.24372864      10.76561928
H       35.20240402      21.71381760       9.05892086
H       37.75907898      22.04269600      10.80848408
H       37.50131989      22.73659706       9.17491722
H       35.13968277      23.93947601       9.16085052
H       36.49268341      25.10346794       9.27643490
H       35.12285995      25.13483810      10.44245243
C        6.24927855      31.93561172      12.46397877
O        6.89673519      30.81296158      11.87305737
C        6.07469225      29.65157700      11.77910995
C        6.94617701      28.59469986      11.09588909
O        6.15250540      27.41173172      10.96327591
C        6.96295357      26.26531982      10.66638470
C        6.00452042      25.07610130      10.55087185
O        6.76618671      23.88871765      10.30245590
C        7.03996992      23.65640640       8.90656376
H        5.94515324      31.73697281      13.50616550
H        6.95352650      32.77961731      12.45987701
H        5.34555006      32.20824432      11.89106083
H        5.17451191      29.86188126      11.16828346
H        5.73515177      29.30423546      12.77064133
H        7.84453249      28.40739822      11.70366383
H        7.27206707      28.93820381      10.09786129
H        7.68829727      26.09843445      11.47807693
H        7.49418831      26.39433670       9.70873070
H        5.45657158      24.96606827      11.49593449
H        5.25528288      25.22714043       9.75431347
H        7.56973696      24.49939537       8.44503689
H        6.10108709      23.47513008       8.35371971
H        7.63837337      22.73935318       8.82884502
C       32.04631424       9.64329338      35.09757614
O       30.87222672      10.15804672      35.71705627
C       29.76569748      10.19363689      34.80501556
C       28.61310387      10.78218842      35.60704422
O       27.46838570      10.69799328      34.74849701
C       26.30643845      11.27216625      35.35541153
C       25.20534325      11.19688129      34.28216553
O       24.04803276      11.94994450      34.69283295
C       23.37278557      11.46077633      35.86148071
H       32.38206482      10.31171703      34.28313828
H       32.82398605       9.57735252      35.86702728
H       31.88109398       8.64517212      34.65962219
H       29.52535439       9.18347263      34.42782211
H       29.97630310      10.83118343      33.92630386
H       28.81277466      11.83895397      35.86465454
H       28.45351219      10.24283600      36.55552673
H       26.47119522      12.32824898      35.63724136
H       26.01494980      10.72365189      36.26728058
H       25.57134056      11.65750980      33.35218811
H       24.93227386      10.15711975      34.04609299
H       23.97719574      11.58426571      36.76923752
H       23.07273674      10.41169357      35.73106766
H       22.46414948      12.06580067      35.96642685
C       14.25261879      10.00560951      15.06579781
O       13.74182034       8.81646156      15.65434551
C       14.27573204       7.64625406      15.03141499
C       13.83597279       6.52615213      15.95528316
O       14.42690945       5.31061077      15.47003078
C       14.10697269       4.20302248      16.32409859
C       14.98695469       3.03172302      15.89116192
O       14.39320278       1.85954809      16.51356316
C       15.32569313       1.01926875      17.20435905
H       14.06654263      10.03195095      13.97952461
H       13.71170139      10.83910370      15.52914047
H       15.33482265      10.09166813      15.25022316
H       15.37692642       7.67949104      14.96908760
H       13.87827015       7.50428104      14.00459290
H       12.73430824       6.45350599      15.97595978
H       14.15898705       6.74508953      16.98964310
H       13.03199768       3.95281863      16.22226334
H       14.28958511       4.46614170      17.38633156
H       14.96251011       2.88582444      14.79654217
H       16.03457832       3.16357207      16.18700218
H       15.78293896       1.51926780      18.07403755
H       16.14502144       0.67841256      16.55045891
H       14.74467087       0.14465949      17.53461266
C       15.44366550      21.23562622      28.18922234
O       16.22971916      21.00920868      27.02023315
C       16.75822830      19.67771530      26.90730095
C       17.52548027      19.61544991      25.59309769
O       18.21881676      18.36866570      25.64085007
C       18.94095039      18.05095291      24.45824623
C       19.58943558      16.69592094      24.75129128
O       20.49505997      16.33335114      23.69089890
C       19.90116119      15.81778049      22.48356247
H       15.97362614      20.98896790      29.12393379
H       15.15339375      22.28952599      28.21496964
H       14.51964378      20.63681030      28.15576172
H       15.93920326      18.94131279      26.91760635
H       17.43141937      19.47313309      27.75560570
H       18.23772430      20.45713806      25.54203987
H       16.85007095      19.66152000      24.71949387
H       19.73138618      18.79236031      24.25008583
H       18.27761841      17.97053337      23.57952309
H       20.17978477      16.78490829      25.67610168
H       18.82625198      15.91691399      24.88943100
H       19.37071991      16.60055733      21.92271996
H       19.19919395      15.00876617      22.72980499
H       20.71732712      15.41177940      21.87010574
C       16.14967537      23.72332191      23.67480850
O       15.69257069      24.71969414      22.77680779
C       15.95229530      26.04628944      23.24872017
C       15.17697239      26.98741531      22.33553314
O       15.53135395      28.27621651      22.82311630
C       14.93099785      29.34993172      22.08871269
C       15.55758095      30.58749580      22.73136711
O       14.94408894      31.77559280      22.19824409
C       15.85748672      32.48134232      21.33829117
H       15.63950634      23.78153419      24.65052032
H       15.89834118      22.74982452      23.22894669
H       17.23863029      23.77675629      23.85415077
H       17.03429604      26.26825523      23.21205711
H       15.62184906      26.18225098      24.29563522
H       14.08604336      26.79793739      22.40076065
H       15.45915413      26.83191681      21.27798271
H       13.82658577      29.32982254      22.18292618
H       15.15232754      29.26777458      21.00575066
H       15.43157387      30.56478882      23.82511330
H       16.64297867      30.57617569      22.54212570
H       16.13665390      31.89528847      20.44328499
H       16.78537941      32.75745010      21.86666489
H       15.31469440      33.38121033      21.01194191
C       34.18628693       4.88413191      36.84320831
O       32.95685196       4.99546146      36.14590073
C       31.82262421       5.36134863      36.96048355
C       30.69325638       5.39755964      35.94949722
O       29.51995468       5.79929495      36.64921951
C       28.38569450       5.88718414      35.78982925
C       27.24956131       6.36064243      36.70826721
O       25.99443817       6.18586206      36.04016113
C       25.70808792       7.19684410      35.07910919
H       34.09182739       4.16759634      37.67709732
H       34.94369888       4.49175501      36.14840698
H       34.51218033       5.85351324      37.25162888
H       31.95594978       6.33940458      37.45716858
H       31.63322830       4.61352968      37.74549866
H       30.57324600       4.40920496      35.47141266
H       30.94189453       6.11582422      35.14534760
H       28.12545586       4.90778589      35.34453201
H       28.54815483       6.59439993      34.95468521
H       27.22473717       5.73978996      37.61808395
H       27.40256882       7.40469027      37.04339600
H       26.34175110       7.13388920      34.18069458
H       25.77726364       8.20154285      35.51811600
H       24.66863251       7.02395487      34.75706863
C       31.48073196      28.53909302      12.71270084
O       32.20576477      27.88592339      13.74432468
C       32.60565567      28.78648376      14.79122829
C       33.34297943      27.90968132      15.78417015
O       33.59222031      28.69426727      16.95439148
C       34.46876907      27.98335266      17.83399010
C       34.57638931      28.80871582      19.11630440
O       35.31557083      28.03913307      20.08224869
C       34.61940384      27.48958588      21.20092010
H       32.09859467      29.31364059      12.22955227
H       31.18549538      27.77801132      11.97997761
H       30.55651093      28.99226379      13.10461903
H       31.73838997      29.28941154      15.24482727
H       33.29058456      29.55745506      14.40473080
H       34.27176285      27.53496361      15.32318401
H       32.71675491      27.03139496      16.01883507
H       35.46073914      27.84477997      17.36724091
H       34.06853485      26.97854042      18.05225182
H       35.13240814      29.74151230      18.93296814
H       33.58069229      29.09239578      19.49463081
H       34.26381683      26.46716309      21.00063133
H       33.73522949      28.09274101      21.45704269
H       35.28216934      27.46624947      22.07474136
C       19.58138466      11.98570251       1.34607089
O       19.33300781      13.36069489       1.01542485
C       19.37086296      14.27465725       2.13884163
C       19.60066605      15.63743591       1.52863574
O       19.60559082      16.63043976       2.55660963
C       20.04800034      17.86649704       1.96466768
C       19.83027649      18.96470070       3.00264239
O       20.23519707      20.21580124       2.44681621
C       21.56797409      20.63845253       2.75031710
H       18.67844963      11.54757023       1.79635429
H       19.79903984      11.43129444       0.42436826
H       20.41662979      11.91285324       2.05360889
H       20.18592262      14.02606773       2.83858705
H       18.43839073      14.23771572       2.71953583
H       18.82275391      15.85014057       0.77056718
H       20.56529808      15.59497738       0.99251097
H       19.46435165      18.08831406       1.05367327
H       21.10956383      17.79545212       1.66052604
H       18.75749397      19.04189682       3.23490214
H       20.34486961      18.74993896       3.95260715
H       22.31812859      20.05247498       2.19269896
H       21.78166771      20.58024788       3.82802153
H       21.61649132      21.69327164       2.43758774
C        2.31525159      21.83745193       1.95467758
O        1.49845552      21.71540833       3.12347627
C        2.28033996      21.28986359       4.26328564
C        1.37106574      21.37373734       5.46975565
O        2.17885923      20.97865105       6.57847071
C        1.59438217      21.33327103       7.84120655
C        2.56849003      20.75243187       8.84795666
O        2.14321804      20.98172569      10.21073532
C        2.75745797      22.06367302      10.90003014
H        2.65249395      20.84841347       1.60319948
H        1.69738114      22.28755379       1.16686237
H        3.20296049      22.45718384       2.15476084
H        3.15157223      21.96158409       4.39823914
H        2.67523789      20.26996803       4.09784794
H        0.48136395      20.72753334       5.35653591
H        0.96763182      22.40070152       5.61691856
H        0.58391327      20.90735626       7.97150373
H        1.50011706      22.43248177       7.95324183
H        2.60670018      19.66027260       8.70637321
H        3.59076929      21.13637924       8.67392731
H        2.64741325      23.00963593      10.33979988
H        3.82307076      21.86178780      11.10659122
H        2.24533415      22.17050552      11.87044811
C       34.00336456      36.46994400      36.54006577
O       32.66860962      36.16056061      36.91225052
C       32.21321869      35.05987930      36.12434006
C       30.88447380      34.63329697      36.72931290
O       30.40588188      33.56810760      35.89321518
C       29.23275375      32.99639511      36.45916748
C       28.86015129      31.82871246      35.55265427
O       27.67510986      31.28206444      36.18234634
C       27.64531136      29.86365891      36.28929901
H       34.04856110      36.82557678      35.49401474
H       34.36947250      37.25833893      37.21083832
H       34.65696335      35.58853531      36.62719727
H       32.93384171      34.22543335      36.13759995
H       32.06291199      35.35356522      35.06858063
H       30.15060234      35.45964050      36.74780655
H       31.00988770      34.29636383      37.77051163
H       28.41859627      33.75292969      36.49328613
H       29.39039993      32.66672516      37.49924469
H       28.62564278      32.17311096      34.53059387
H       29.66047859      31.08104706      35.47681808
H       28.23725891      29.54321671      37.16096878
H       28.00651169      29.38560295      35.36369705
H       26.60244942      29.58678055      36.48057938
C       36.72200775      14.83664703      26.16766167
O       35.63789368      15.07432747      25.28507233
C       35.82696533      14.58229637      23.95626450
C       34.49479294      14.88483143      23.29230118
O       34.54381180      14.38198376      21.96644783
C       33.28427124      14.56062508      21.31584167
C       33.43369293      13.99880981      19.89545059
O       32.25587845      14.36002922      19.12912560
C       31.06179428      13.61145878      19.38269806
H       37.57838058      15.50226974      25.96900368
H       36.38109207      14.97274685      27.20416069
H       37.08756638      13.80057049      26.07315254
H       36.03728485      13.49755764      23.94377327
H       36.66298294      15.08071136      23.42995262
H       34.31551361      15.97616577      23.31865883
H       33.67936325      14.42646503      23.87745094
H       33.01146317      15.63096237      21.26585197
H       32.46985245      14.03782368      21.84610367
H       34.29257202      14.46143436      19.38115501
H       33.56689072      12.91049671      19.88418579
H       30.61137962      13.83236790      20.36129951
H       31.21028519      12.53088284      19.26651192
H       30.32466698      13.93044567      18.63662338
C        1.58467269      35.98908615      33.16452789
O        2.04121590      35.15204239      32.11704254
C        2.02735019      35.81635666      30.85721779
C        2.07782984      34.74809265      29.76262093
O        1.95692694      35.49802780      28.55735779
C        1.75708294      34.68030548      27.40802574
C        1.69618714      35.66083908      26.23146439
O        1.46534085      34.97786331      24.99733925
C        2.58987141      34.33730698      24.40778160
H        0.57134926      36.36993408      32.95064163
H        1.54224896      35.40428543      34.09777069
H        2.23734403      36.86108398      33.32413483
H        2.87057209      36.52691650      30.77809143
H        1.08477986      36.37988663      30.72378922
H        1.21383154      34.07598877      29.88803291
H        3.00829291      34.15047073      29.77510452
H        0.79965889      34.13836288      27.46704865
H        2.57159376      33.94986725      27.27213478
H        0.84584796      36.34894943      26.38192749
H        2.61340809      36.26877213      26.21273422
H        3.04820085      33.58222580      25.06476974
H        3.35096431      35.07102203      24.10276413
H        2.22480059      33.80051041      23.52411842
C       19.04731560      23.64020920      29.19461060
O       19.13482285      22.48053932      30.02195168
C       19.53661537      21.34526825      29.24120331
C       19.44774246      20.13815498      30.16537476
O       19.34787750      18.96772575      29.33645058
C       19.22149849      17.79228210      30.13666344
C       19.32947922      16.59633064      29.18970871
O       19.41588211      15.40851784      30.00007629
C       20.37485695      14.40133858      29.58545876
H       18.26791382      23.50991058      28.42631912
H       18.78106308      24.47143173      29.85454941
H       20.00646973      23.85952568      28.70246506
H       20.57447624      21.46572113      28.87693024
H       18.88647270      21.20574760      28.35906410
H       18.56291580      20.24077034      30.82203484
H       20.34178543      20.09126472      30.81260109
H       18.25971413      17.81425095      30.68252563
H       20.03147125      17.74641609      30.89018059
H       18.45783997      16.50732040      28.52676964
H       20.21935463      16.71417427      28.55416298
H       21.26844215      14.48441601      30.23482895
H       20.68449211      14.54127789      28.53621101
H       19.91556549      13.40732098      29.69749451
C        0.96788603       1.94669247      21.18880463
O        0.91460288       1.42546606      22.51243210
C        1.53369987       2.29960990      23.46214867
C        1.41449511       1.58329546      24.80120850
O        2.00227404       2.43922782      25.76969528
C        2.09889102       1.86726248      27.08746338
C        2.60452533       3.04036307      27.93497467
O        3.14991903       2.64746380      29.21318436
C        2.16894460       2.18975115      30.14940071
H        2.00142336       2.10011792      20.85547256
H        0.49182639       1.21229017      20.52475357
H        0.40765002       2.88748550      21.12014198
H        1.03139210       3.28137279      23.51150322
H        2.59645987       2.45744276      23.22422600
H        1.93404293       0.61106163      24.73976517
H        0.35135746       1.39284539      25.03593063
H        2.82563734       1.03738081      27.08753586
H        1.12456036       1.49585843      27.44135284
H        3.42407465       3.52597618      27.38709259
H        1.79748869       3.78707075      28.06610107
H        1.66694701       1.27139485      29.80387688
H        1.37776649       2.94121003      30.30651474
H        2.65033150       1.98376787      31.11540604
C        0.86197567      16.35960770      12.45507336
O        2.26010275      16.55802155      12.53655910
C        2.74753547      17.91447639      12.40671158
C        4.10190344      17.85285759      13.11571693
O        4.60472012      19.17370796      13.18840599
C        5.81379461      19.18523026      13.96883011
C        6.28633308      20.64254570      13.97240448
O        7.57980299      20.71361160      14.59819221
C        7.59909391      20.66241837      16.04057312
H        0.39850977      16.98743820      11.67153454
H        0.68892169      15.29863739      12.21408844
H        0.35796529      16.56553078      13.41608524
H        2.06374526      18.64907455      12.86370945
H        2.84332800      18.19392204      11.33949947
H        4.79327631      17.19910049      12.54168415
H        3.98151088      17.39943314      14.12227249
H        6.56206512      18.51095581      13.50396729
H        5.63677454      18.81959915      14.99920559
H        6.38636398      20.98508072      12.92389011
H        5.53805351      21.29990959      14.45477676
H        6.97518778      19.83659935      16.42161942
H        7.22901535      21.61338234      16.46763229
H        8.62983894      20.49398422      16.38964653
C       19.27589798      34.93487167      17.38398170
O       18.10361290      34.69271469      18.16526794
C       16.94225693      35.44858551      17.75580215
C       15.86674786      34.92719650      18.68957520
O       14.54528141      34.96879959      18.10670662
C       13.72003269      34.04156113      18.83122444
C       12.37674332      33.94478607      18.12191391
O       11.52257633      33.07651901      18.91495323
C       11.54020596      31.68684387      18.59929276
H       19.63894653      35.96293640      17.51590538
H       20.04328918      34.22211075      17.70754433
H       19.08344841      34.76013184      16.31429482
H       16.69365883      35.22621155      16.70213318
H       17.10915947      36.53439713      17.84604645
H       15.85474110      35.44182968      19.67403030
H       16.12631989      33.87269974      18.87900734
H       13.56901455      34.38111115      19.87342834
H       14.18451118      33.04219437      18.86310387
H       11.85036945      34.91297150      18.07305527
H       12.47612762      33.55570221      17.09597588
H       12.14843082      31.13587379      19.33138084
H       11.90676117      31.48508644      17.58455276
H       10.50994492      31.30891800      18.65077209
C       21.33035088      28.29376602      27.00262070
O       22.62822533      28.39430046      26.42923546
C       23.71397591      27.79105186      27.13610458
C       24.91386795      28.20612907      26.31021309
O       26.09146118      27.69024277      26.93551636
C       27.23577309      28.12790108      26.19789124
C       28.46042442      27.57101440      26.91961098
O       29.60157776      27.82788849      26.05548859
C       29.91937447      26.82636642      25.06263161
H       21.29663658      28.69340324      28.02736855
H       20.65777016      28.87822151      26.36601067
H       20.97280312      27.25575066      27.01226425
H       23.61684608      26.69760323      27.16765785
H       23.76167297      28.14020348      28.18376350
H       24.93614578      29.30819511      26.24526024
H       24.81341171      27.80794907      25.28018951
H       27.26506805      29.23197746      26.15833664
H       27.19822502      27.74384308      25.16281319
H       28.64981079      28.10322571      27.86688423
H       28.35676765      26.49796677      27.13135147
H       29.13363075      26.69562721      24.30113792
H       30.07216454      25.85556030      25.56202507
H       30.85805511      27.15874672      24.60147476
C       24.22571564       9.26570511      10.67833614
O       24.31073952       8.16970253       9.78472996
C       25.49454689       7.37442970       9.98030949
C       25.51214600       6.41778278       8.79648876
O       26.54634857       5.49977064       9.14534760
C       26.72752380       4.41197824       8.24695873
C       27.81238747       3.55463600       8.89920139
O       28.37501526       2.64037609       7.94163752
C       27.52177429       1.60689163       7.43544674
H       25.01717567      10.01732540      10.46642113
H       23.24240112       9.73853016      10.55830479
H       24.29507828       8.92825031      11.73688602
H       25.41950989       6.83411074      10.93997860
H       26.39139557       8.01747322       9.98046207
H       25.75343323       6.96741247       7.86396265
H       24.53008461       5.92152834       8.66644955
H       27.06352806       4.74252558       7.24687767
H       25.79865456       3.83417201       8.10217953
H       28.64118195       4.19142151       9.24372482
H       27.38429260       3.02269125       9.76780987
H       26.62153053       2.01155233       6.94834185
H       27.20755959       0.91788197       8.23905277
H       28.09245872       1.04316843       6.68275642
C       36.71742249      23.38195038      17.85890198
O       37.26030350      24.01334572      16.68669128
C       36.31386948      24.94168663      16.10346413
C       36.90073013      25.44665337      14.78781509
O       35.82359314      26.14055252      14.13638783
C       36.22725296      26.59111214      12.82827473
C       35.01689529      27.21531296      12.11611080
O       35.38289642      27.44787979      10.73343563
C       35.44707108      28.81609917      10.31204605
H       35.78135681      22.84690285      17.61092186
H       37.44677353      22.65498543      18.23872375
H       36.46666718      24.11108780      18.64756775
H       36.08351898      25.75276947      16.81567001
H       35.36455917      24.42307854      15.89174652
H       37.23902130      24.59894943      14.16210747
H       37.77416992      26.10425568      14.94851398
H       36.57530212      25.73560524      12.22374535
H       37.05790710      27.31573486      12.91527557
H       34.17575073      26.50238037      12.11437798
H       34.65242767      28.12928391      12.61004448
H       36.28602600      29.33909416      10.78921032
H       34.50925446      29.34461212      10.55258751
H       35.57950974      28.80584908       9.22246170
C       27.37340164       3.12118125      28.48908806
O       26.62052727       4.25237608      28.92754364
C       25.68371964       4.76188278      27.96353340
C       25.17901611       6.03141689      28.63081932
O       24.02705193       6.46404266      27.90343285
C       23.35207558       7.44748926      28.70057487
C       22.13633537       7.94365311      27.92768478
O       21.54964638       8.96700764      28.75439453
C       20.37224007       8.69490528      29.50616455
H       27.80823898       3.28787422      27.49315834
H       28.16109848       2.94383788      29.23117828
H       26.72322464       2.23118234      28.41763878
H       24.85160828       4.05436897      27.80569649
H       26.15595436       4.93578768      26.98123360
H       25.96764946       6.80332232      28.63320160
H       24.92379761       5.83144999      29.68900681
H       24.01559830       8.29859829      28.93492317
H       23.01587486       7.02823400      29.66600609
H       22.43262291       8.38082790      26.95655823
H       21.43523598       7.12000847      27.70857239
H       20.58941841       8.31427670      30.51972198
H       19.73175049       7.96551991      28.99081039
H       19.80062103       9.62696171      29.60062218
C       35.70902252       4.31644773      21.38299370
O       36.08864975       4.46685076      22.75620461
C       35.82999802       3.25343490      23.47893906
C       36.15623093       3.63290548      24.91822052
O       35.81618500       2.48158884      25.68389511
C       35.98799515       2.73635387      27.08121490
C       35.27634048       1.55670655      27.73134804
O       35.05218887       1.80969429      29.12662125
C       36.22579575       1.78630900      29.93772697
H       34.63682938       4.07021141      21.31774330
H       35.88127899       5.27754688      20.89231110
H       36.27750778       3.51450825      20.88966942
H       36.44676590       2.41934299      23.10074425
H       34.76689529       2.96999931      23.39834785
H       35.55439758       4.50009203      25.25212860
H       37.22471237       3.88384008      25.04496956
H       35.52172089       3.69167638      27.38932228
H       37.05476379       2.77216291      27.35684204
H       34.27690125       1.44791281      27.28414726
H       35.82237625       0.61606497      27.55436707
H       36.97100449       2.53441024      29.62255096
H       36.67707825       0.78082138      29.94287109
H       35.91589355       2.01833200      30.96654510
C       28.85770607      33.42043686      14.87675476
O       28.29998970      34.25804138      15.88368416
C       26.87373161      34.37986374      15.78959656
C       26.49093628      35.40072632      16.86180305
O       25.07144547      35.44695663      16.92044067
C       24.65178680      36.27663422      18.00947571
C       23.15899658      36.03988647      18.19737053
O       22.84945107      36.67137146      19.45869637
C       21.73279572      36.20088959      20.20131302
H       28.68576431      33.83384323      13.86888885
H       29.92767525      33.33482742      15.09846592
H       28.41258049      32.41592407      14.91289806
H       26.37516785      33.41738892      15.98569870
H       26.56344986      34.72381592      14.78768253
H       26.91492844      36.38989639      16.61505890
H       26.91303062      35.09378815      17.83533287
H       24.84313011      37.34281158      17.80036545
H       25.16913223      36.02214813      18.94853783
H       22.56766701      36.48411560      17.37401009
H       22.95523834      34.96091461      18.21398926
H       21.98175430      36.14130402      21.27191925
H       21.42584419      35.19560242      19.87192154
H       20.85155869      36.85146332      20.08147240
C       15.38577461       4.30251074      24.42264748
O       15.40802002       3.52231932      23.24259186
C       14.10921192       3.25371742      22.68456078
C       14.31629181       2.56706357      21.33223534
O       12.98307800       2.17115617      20.96383858
C       12.91392803       1.42501438      19.73481750
C       11.40807724       1.27582884      19.55121994
O       11.09146023       0.42408103      18.43493652
C       11.23467922       1.07440674      17.15216446
H       14.89485836       3.77244973      25.25761032
H       16.41653633       4.54417706      24.72080994
H       14.83479404       5.24698353      24.26721573
H       13.53434467       4.18996286      22.55545044
H       13.52064800       2.59576297      23.34419823
H       14.97057724       1.68317711      21.42118835
H       14.76175499       3.24654174      20.58271790
H       13.40729237       0.44021556      19.80555534
H       13.34129333       1.99054766      18.88779831
H       10.95688629       0.82329017      20.44583130
H       10.95347118       2.26799417      19.41125679
H       12.28027439       1.31320941      16.92088127
H       10.62464523       1.98782074      17.10494423
H       10.85323811       0.36258489      16.40630722
C       16.11021996      16.99168205      18.80984497
O       15.40545940      18.17247391      19.16642189
C       16.18925476      19.37371063      19.02622032
C       15.14845181      20.43404198      19.36792564
O       15.75456429      21.71951103      19.30272293
C       14.74416542      22.73957634      19.32555580
C       15.50885582      24.06659508      19.37900543
O       14.58166885      25.13429260      19.61377907
C       13.98167610      25.67647362      18.44793892
H       17.07227898      16.90541840      19.34051132
H       15.45947075      16.15242004      19.09012985
H       16.30289459      16.93897057      17.72748566
H       16.56706810      19.47079277      17.99125290
H       17.04970169      19.38116264      19.71412849
H       14.71943283      20.26781273      20.37198639
H       14.31434631      20.34968758      18.64356232
H       14.07706547      22.65436363      20.20419312
H       14.09009743      22.67288208      18.43069649
H       16.21519852      24.07437897      20.22750854
H       16.07925797      24.22874260      18.44797134
H       13.37624073      24.93038368      17.90345383
H       14.73727894      26.10614204      17.77014351
H       13.29183578      26.46169853      18.78810501
C       36.74472046      30.84010887      25.58463478
O       35.90177917      29.93943405      26.30722618
C       35.69248962      28.72425270      25.57433510
C       34.74680710      27.93834877      26.47214127
O       34.48895264      26.69683838      25.81387901
C       33.64333725      25.85896492      26.61480141
C       33.48666382      24.57435989      25.79839325
O       32.58531952      23.69487381      26.50725937
C       33.20553970      23.01985931      27.60108566
H       36.20878983      31.26271820      24.71846199
H       37.01910782      31.63356972      26.28862190
H       37.64814377      30.32891464      25.21899414
H       36.63620377      28.17330933      25.41211891
H       35.22718430      28.90941620      24.58435059
H       33.80072784      28.50366783      26.60180283
H       35.17277908      27.81540108      27.48318672
H       32.64225006      26.32492828      26.73405266
H       34.06673431      25.69174767      27.61863899
H       33.00965118      24.78470612      24.82587242
H       34.46577072      24.11218643      25.59586906
H       33.43632507      23.66650963      28.45771027
H       34.12381363      22.49282646      27.29907990
H       32.48447037      22.26192665      27.93890572
C       11.93827915      20.66268539      37.26099777
O       11.69924259      19.30988121      36.93484116
C       12.86470127      18.60336113      36.51202393
C       12.38308048      17.18006325      36.25560760
O       13.49652290      16.40129471      35.84313583
C       13.17358875      15.01013184      35.78556442
C       14.51284885      14.27926731      35.65642929
O       14.35437393      12.85236645      35.58979034
C       14.08928013      12.25548077      36.85831833
H       12.35306358      21.19569778      36.39046860
H       10.97166920      21.10854149      37.52785873
H       12.61110401      20.78023338      38.12660217
H       13.65575695      18.64862823      37.28107452
H       13.26518440      19.01675797      35.57089996
H       11.59723759      17.18093300      35.47655487
H       11.91608715      16.79114342      37.17865372
H       12.51957130      14.78099346      34.92559433
H       12.63060188      14.69770718      36.69022369
H       15.02107620      14.56412220      34.72034073
H       15.15443993      14.56462002      36.51300049
H       13.08944702      12.52560902      37.23593140
H       14.83967972      12.52876759      37.62165451
H       14.11068153      11.16649723      36.70898819
C       18.44530678      19.89764977      14.88351917
O       18.50867653      21.31238747      14.96479416
C       17.75520706      21.99110413      13.94390965
C       17.36615944      23.31129646      14.59442806
O       16.69311523      24.06894684      13.59521580
C       16.29891205      25.31547356      14.17599583
C       15.70422649      26.15839005      13.04879951
O       15.33372784      27.43533707      13.58110332
C       14.16673470      27.50334930      14.41216373
H       18.95433807      19.50151443      13.99184799
H       18.90600967      19.48592567      15.79018021
H       17.39283562      19.56305695      14.84109688
H       16.85145187      21.43534470      13.64322758
H       18.36545181      22.14651680      13.03575897
H       18.27214622      23.83333206      14.95089340
H       16.72637939      23.13098526      15.47860813
H       17.15663910      25.85105324      14.62119007
H       15.55335140      25.18490028      14.97786903
H       16.49423409      26.35133934      12.30421638
H       14.86987686      25.65734482      12.52980900
H       14.13177586      26.73240852      15.19507885
H       13.24843884      27.42480278      13.81283283
H       14.17502880      28.47537422      14.91389275
C       23.15918732      23.16248512       6.40690899
O       23.25165749      24.46538734       5.79762030
C       22.02135277      24.84705353       5.15450191
C       22.29691696      26.10666847       4.33718109
O       21.03982735      26.41051865       3.75944376
C       21.13846397      27.49076653       2.83273196
C       19.70115280      27.80273056       2.38592529
O       19.70859909      28.73604202       1.31257498
C       19.94057465      30.08034706       1.74603307
H       23.04274750      22.37647438       5.64482689
H       24.07653046      23.01009560       6.98748159
H       22.28086662      23.11446190       7.07434988
H       21.21543312      25.01066399       5.89188910
H       21.67045784      24.05174446       4.47271013
H       23.06790352      25.88983536       3.57603168
H       22.67406273      26.93340302       4.97288609
H       21.74240875      27.19072914       1.95675349
H       21.60916328      28.36624527       3.31263781
H       19.21826935      26.88853645       2.00801587
H       19.09750175      28.16892052       3.23720384
H       20.97878075      30.24393463       2.06884384
H       19.25926208      30.36780548       2.56024289
H       19.72463417      30.72219086       0.88367683
C       28.12379456      16.67225647      11.57320118
O       27.46942902      17.86647415      12.02920341
C       27.03530121      18.61035728      10.87386322
C       26.67567253      19.98670769      11.40764523
O       26.11229706      20.68754959      10.29421520
C       26.07310867      22.09611511      10.58658409
C       25.46561050      22.75162506       9.34130192
O       24.72631264      23.94477463       9.69215202
C       23.42984962      23.79824638      10.31486607
H       29.00871277      16.91435242      10.95617199
H       28.41467857      16.09078979      12.46118927
H       27.44552994      16.05799103      10.95218086
H       26.16883278      18.11030197      10.39947128
H       27.83985901      18.68610001      10.11916733
H       27.57096481      20.50552177      11.79874611
H       25.94431114      19.92018127      12.23248100
H       27.08607674      22.48227501      10.79835892
H       25.45301056      22.30039787      11.47656727
H       26.26851654      23.07261467       8.65478420
H       24.80339813      22.04342270       8.81919193
H       23.43891525      22.98501015      11.05916786
H       22.64813042      23.57684898       9.57207203
H       23.19414330      24.74314690      10.82053947
C       11.04351616       5.00542641      18.79437447
O       10.01622677       4.27181530      18.11385345
C        8.76301670       4.28960848      18.82954025
C        7.92425013       3.20196223      18.18327332
O        6.71211386       3.17474818      18.94609642
C        5.85086918       2.14106941      18.47826195
C        4.47783661       2.46782732      19.08856964
O        3.58714867       1.42037582      18.70837021
C        2.80714583       1.63632774      17.55520821
H       11.19184875       4.62517643      19.82018852
H       11.97518826       4.88277483      18.22401237
H       10.75626564       6.06300545      18.90049171
H        8.27055454       5.27276659      18.73602676
H        8.91317368       4.10731077      19.90791512
H        8.45193005       2.23389983      18.21760941
H        7.72962332       3.42635751      17.11839867
H        6.19627094       1.14797366      18.81324005
H        5.78898811       2.11929846      17.37307167
H        4.54417324       2.50398636      20.18613052
H        4.10069036       3.44835782      18.76564980
H        3.41036701       1.77170932      16.64635658
H        2.15265942       2.50933862      17.71446228
H        2.16569185       0.75380230      17.43775558
C       10.78757000      17.14071465       7.50887871
O        9.75358582      16.19855499       7.79029226
C        9.40899658      16.16700363       9.20226860
C        8.08686733      15.43675900       9.24968243
O        7.64103508      15.57944965      10.61326885
C        6.40785551      14.91171932      10.86250496
C        6.41263342      14.65732479      12.37654018
O        5.57315493      13.52075386      12.68124390
C        4.17145300      13.78333378      12.70123005
H       11.72339439      16.88533211       8.02879906
H       10.95074844      17.13553047       6.42442131
H       10.48263264      18.14850998       7.83533859
H        9.28899097      17.18698502       9.61020660
H       10.19562531      15.66739082       9.79452133
H        8.18422031      14.37564850       8.96020603
H        7.37289047      15.89513397       8.53599930
H        6.36209440      13.95229626      10.32024956
H        5.53440952      15.50067425      10.50644684
H        7.43362141      14.40297031      12.69839573
H        6.08638763      15.52202702      12.98506165
H        3.71758342      13.73606491      11.69425488
H        3.92417717      14.77041054      13.12410069
H        3.68598819      13.02879715      13.33453941
C       35.99417496      35.62841415      28.83258247
O       35.23633957      36.26580429      29.86926651
C       33.82090759      36.20990372      29.65063095
C       33.24173737      36.84325027      30.90656281
O       31.82772446      36.72566986      30.77858353
C       31.12148094      37.10015488      31.96841049
C       29.67600632      36.74235916      31.63443375
O       28.84078789      37.03473282      32.76572800
C       28.69972610      36.01281738      33.74906540
H       35.65002060      35.95846558      27.83970642
H       37.03862000      35.91987610      28.97192574
H       35.89077759      34.53292084      28.87454033
H       33.47608185      35.17219543      29.54028130
H       33.52946472      36.77186584      28.74760818
H       33.54703140      37.89805603      30.98487854
H       33.59598923      36.30706024      31.80532646
H       31.21398735      38.17443085      32.19647980
H       31.44526482      36.52366257      32.85393906
H       29.30005836      37.35111237      30.79598808
H       29.63173103      35.68873596      31.31747818
H       29.45236588      36.07495499      34.54847336
H       28.72200775      34.99892426      33.31282425
H       27.70647621      36.13290405      34.22031403
C       18.68321419      33.48702240      31.40337181
O       17.77363777      33.58580017      32.51657867
C       17.30552483      32.30120850      32.97459793
C       16.00617027      32.62210846      33.72133255
O       15.48798466      31.35524178      34.13261795
C       14.15025616      31.43228149      34.64070892
C       13.90307808      30.01198578      35.14072800
O       12.59321022      29.93843269      35.71071243
C       12.42628765      30.49321938      37.00693130
H       18.26937103      32.83458710      30.61721802
H       18.79163742      34.49915695      30.99888229
H       19.65913391      33.09261703      31.72281265
H       18.04701042      31.84061241      33.64945602
H       17.11874771      31.62258911      32.11997604
H       15.28215599      33.13708878      33.06453323
H       16.16323090      33.27412033      34.59672546
H       13.43183804      31.67689514      33.83585358
H       14.05307770      32.18750763      35.43767929
H       13.93003082      29.30601501      34.29322433
H       14.68662548      29.73504448      35.86568069
H       12.91535282      31.46988487      37.13840485
H       12.77807999      29.81563377      37.80435562
H       11.34193230      30.61881065      37.16056061
C       35.47433090      12.38889885       1.51602125
O       34.05455017      12.50298977       1.50005078
C       33.48264313      13.18474483       2.63800120
C       31.99814034      12.90355492       2.45171261
O       31.23459816      13.58032990       3.43829799
C       29.86628723      13.12839794       3.36904740
C       29.15568161      13.76725864       4.57817841
O       27.96735573      13.04771709       4.93714237
C       26.83346939      13.17259884       4.08365488
H       35.80400085      11.76046276       2.36043620
H       35.79695129      11.91940880       0.57853585
H       35.94036865      13.38233757       1.60683179
H       33.73165131      14.25923634       2.61871243
H       33.85668564      12.77129269       3.59181309
H       31.84416389      11.81471920       2.47859764
H       31.67576790      13.20952702       1.43453538
H       29.80882835      12.02985287       3.42692590
H       29.39425278      13.41749859       2.40906167
H       29.80809593      13.73113823       5.46825552
H       28.91605568      14.83038998       4.39773512
H       27.03138542      12.98855686       3.01662636
H       26.36449242      14.16325378       4.18286085
H       26.11674118      12.40890408       4.41461325
C        2.60070562      19.77110863      29.70277786
O        2.83405161      18.37685013      29.50588417
C        1.89010763      17.56227112      30.22555351
C        2.26453996      16.12807655      29.87726021
O        1.30960655      15.28202534      30.53761482
C        1.65141988      13.91083431      30.25798225
C        0.60028011      13.05951405      30.96837425
O        1.14966226      11.75627232      31.22931480
C        1.31403112      10.87962246      30.10609245
H        2.83570290      20.07630539      30.73974419
H        3.25619674      20.31694794      29.01341248
H        1.54172409      20.01233864      29.50405693
H        0.86153382      17.80908966      29.90787125
H        1.95964825      17.75940895      31.31989479
H        3.28947878      15.90545082      30.22351265
H        2.26047611      15.95563126      28.78117180
H        2.65619731      13.67256451      30.65152740
H        1.66518354      13.70244789      29.16979408
H        0.33908215      13.48093224      31.95585632
H       -0.34870577      12.99128056      30.40333939
H        1.61029804      11.40450859      29.18880653
H        0.38879275      10.30844879      29.91706657
H        2.10285425      10.16514397      30.36903000
C       24.94085884      26.68409729      21.85514832
O       25.86915207      25.67253494      21.44659042
C       25.59336662      25.17521095      20.11638069
C       26.80918694      24.37769508      19.68840218
O       26.50694275      23.91173744      18.36084557
C       27.64957809      23.26139259      17.76829529
C       27.21602631      22.85102463      16.35687637
O       28.17115784      21.98051071      15.72594738
C       29.37482834      22.65535355      15.31523514
H       23.93078232      26.27385902      22.01949501
H       25.26131248      27.11618233      22.81207275
H       24.86950684      27.48356247      21.09421539
H       25.41962624      26.01432037      19.42536545
H       24.68169785      24.55451012      20.12024689
H       27.03018761      23.54148483      20.37376595
H       27.68655205      25.05080605      19.67229080
H       27.92613602      22.37229729      18.36537552
H       28.51492882      23.94997597      17.73496819
H       26.27196312      22.28615189      16.41621399
H       27.00561142      23.74890518      15.75008678
H       29.89034653      23.15887451      16.14879227
H       29.15294838      23.38171959      14.51378250
H       30.04719162      21.88966751      14.90790176
C        4.48241138      25.83520699       1.12705922
O        5.76092577      25.89943504       1.75262439
C        6.79301071      26.52178955       0.94847971
C        8.01522827      26.43721199       1.85545874
O        9.08157349      27.04477882       1.13869166
C       10.28633976      27.04268837       1.92495000
C       11.30220222      27.84776306       1.10174084
O       12.52485180      28.00637054       1.83074653
C       12.51659775      29.09183693       2.76683688
H        4.54744005      25.32557106       0.15054533
H        3.83738804      25.24006653       1.78222084
H        4.05538893      26.84164429       0.98999870
H        6.52668333      27.56679916       0.73047769
H        6.93426514      25.98580551      -0.00458078
H        8.22505474      25.38556099       2.12115955
H        7.80750370      26.97363663       2.80320239
H       10.64826393      26.01683617       2.10549164
H       10.12805367      27.53502274       2.90465689
H       11.52229977      27.34393501       0.14515510
H       10.85567093      28.82456970       0.85973412
H       11.68487835      29.01931190       3.48766708
H       12.41248512      30.05065346       2.23300600
H       13.46046925      29.08613014       3.33341742
C       19.70241356       4.99384356      26.33535767
O       20.00077248       4.67334175      27.69022369
C       21.14878082       3.81600237      27.81131363
C       21.25101471       3.61655140      29.31331444
O       22.49141693       2.97572899      29.62432098
C       22.85908127       3.28247070      30.97489357
C       24.28651047       2.76281857      31.17866516
O       24.72088242       3.04597068      32.52421188
C       24.91901779       4.40924072      32.90442276
H       19.44851875       4.09861279      25.74892044
H       18.83250809       5.66352415      26.34892464
H       20.55082893       5.49945116      25.85006332
H       22.06445122       4.30820370      27.43582726
H       21.00504875       2.87373757      27.25535965
H       20.39753342       3.01346564      29.66402054
H       21.17852783       4.59460640      29.82344437
H       22.16341209       2.80143499      31.68379211
H       22.81856155       4.36934948      31.15485001
H       24.31006241       1.66590571      31.05851364
H       24.95758057       3.21455002      30.43006134
H       24.04441643       5.04550171      32.69214249
H       25.81338120       4.84603977      32.43138885
H       25.07149887       4.43714619      33.99493027
C       28.81682014      23.50577927      22.45881462
O       28.47468185      22.32480240      21.71933174
C       27.78059959      21.34016609      22.49246788
C       27.99790001      20.01470947      21.76452446
O       27.09947586      19.11489105      22.43776512
C       27.06838989      17.80152321      21.86731529
C       26.16651917      17.06394005      22.85109711
O       26.16794205      15.65142918      22.59577751
C       25.09897423      15.17109585      21.78450203
H       29.41044617      23.27463341      23.35671997
H       29.41350746      24.13262558      21.78312111
H       27.91534424      24.04700279      22.78824806
H       26.69683838      21.57304192      22.54403496
H       28.13898659      21.28966713      23.53775406
H       29.04308128      19.67007828      21.85128021
H       27.75167656      20.08701706      20.68575478
H       28.06925201      17.33444786      21.81216621
H       26.63084221      17.82554817      20.85161018
H       26.56106949      17.24175072      23.86372185
H       25.14436913      17.48145866      22.84171867
H       25.14548492      15.53752708      20.74726868
H       24.12086296      15.48421001      22.19372940
H       25.13661003      14.07588673      21.78971481
C       19.50374413       2.64732289      20.89742088
O       20.72085190       1.96051860      20.66899109
C       21.84284973       2.78338599      20.34911537
C       23.00163841       1.80815291      20.15354347
O       24.20645905       2.58463860      20.12281609
C       25.34621239       1.71550393      20.13395309
C       26.61959076       2.54779339      19.97013283
O       27.70226860       1.68872964      19.53246117
C       28.65546608       1.27964926      20.49880791
H       19.23550415       3.31197405      20.05615807
H       18.71743584       1.88261604      20.97389793
H       19.50430107       3.22580528      21.83152771
H       22.03996849       3.50028419      21.17601013
H       21.65210915       3.37922597      19.42962837
H       22.88774300       1.21359932      19.22403908
H       23.01358795       1.07182002      20.98141479
H       25.28994370       0.99504244      19.29904747
H       25.36954498       1.13472211      21.07913399
H       26.43940926       3.25299454      19.14522743
H       26.87130737       3.13485861      20.87469482
H       28.23446655       0.52292430      21.18337440
H       29.02798080       2.11571860      21.11045647
H       29.51291084       0.82202965      19.98619461
C        1.91714752       7.29818201      28.16783714
O        1.59832072       7.68306351      26.83902740
C        1.67804730       9.11168385      26.67756844
C        1.44045556       9.38177586      25.20330238
O        1.51493156      10.80811596      25.08975220
C        1.30073929      11.18127632      23.71420670
C        1.39554179      12.70633793      23.66178703
O        1.05547655      13.12649918      22.33502579
C        2.20655942      13.27347660      21.47699738
H        1.10764182       7.51921844      28.88387299
H        2.05275965       6.21106672      28.16827202
H        2.82328677       7.80177784      28.54412270
H        2.66795158       9.47918987      26.99805641
H        0.92489219       9.61283302      27.31157303
H        0.45608607       9.00525665      24.86335182
H        2.19804716       8.88148785      24.56878281
H        0.31339508      10.84568691      23.33887672
H        2.05987740      10.72378826      23.04798889
H        0.67383456      13.15828991      24.36618233
H        2.39455986      13.06576061      23.96501160
H        2.71947336      12.31568813      21.30390549
H        2.93174505      13.99368000      21.88212776
H        1.83802557      13.62130928      20.50230980
C       21.87997246      33.41887665      23.65953064
O       21.13806725      32.27745438      23.28388596
C       20.66698265      32.31494522      21.94300079
C       19.90932465      31.00370789      21.76144600
O       19.43138695      30.94512558      20.41744804
C       18.80206299      29.66762161      20.21554947
C       18.39480972      29.54720879      18.74923515
O       17.40311813      28.50315666      18.66555977
C       17.77802086      27.23615837      18.12603760
H       21.25559807      34.32656479      23.60456276
H       22.19829369      33.29850388      24.70682335
H       22.77256203      33.54314423      23.02647972
H       21.49141502      32.36420059      21.20424843
H       19.99190331      33.17411804      21.76808167
H       19.08040237      30.95257950      22.49250221
H       20.58270645      30.15606499      21.97909546
H       17.91027260      29.58695793      20.86034775
H       19.48183060      28.84084892      20.48015213
H       17.92030144      30.47765350      18.39745331
H       19.25236893      29.34759331      18.08470154
H       18.01366615      26.53545380      18.94562340
H       18.60956192      27.29724503      17.40738106
H       16.90309715      26.83436775      17.59103394
C       26.80956268      18.91563988      17.87426186
O       25.62701416      19.70078278      17.76864815
C       25.10052299      20.19553757      19.01647186
C       23.95780945      21.11227798      18.60455513
O       23.34851456      21.53248596      19.82647896
C       22.22309685      22.37463379      19.57866096
C       21.77937698      22.89765358      20.95303917
O       20.65664482      23.76945114      20.77546883
C       21.01514053      25.14072990      20.60727882
H       26.64019585      18.03568459      18.52002525
H       27.08450127      18.56557083      16.87310600
H       27.64506721      19.50218582      18.28925133
H       25.85832977      20.76316261      19.58636665
H       24.72024345      19.37976265      19.65371513
H       23.25564194      20.57256126      17.94721985
H       24.35744667      21.96436882      18.03158188
H       21.39619637      21.83083725      19.08993149
H       22.48428917      23.22172737      18.92632484
H       21.45003319      22.06775665      21.60694122
H       22.61212158      23.42025185      21.45614815
H       21.59425163      25.31355476      19.68240929
H       21.58303833      25.51390457      21.47594833
H       20.05732155      25.68647766      20.52240562
C        1.19308543      31.15612984      20.32565880
O        2.08585930      30.54351044      21.24557304
C        3.28379321      30.03965950      20.64238930
C        3.94065809      29.29040146      21.79016495
O        5.01629686      28.52051735      21.27042198
C        5.61683846      27.79805183      22.36038589
C        6.76056194      27.00342941      21.72347069
O        7.30187988      26.07570648      22.66900253
C        8.37309456      26.58224106      23.46379471
H        0.98649615      30.48643875      19.47602272
H        0.24406889      31.32862091      20.84470940
H        1.62252998      32.09908676      19.94792938
H        3.92416787      30.85284805      20.25835037
H        3.05720615      29.33737946      19.81864166
H        3.16879225      28.64459038      22.24416161
H        4.28502893      29.98571968      22.58093452
H        4.88143587      27.10906219      22.80919075
H        5.98337793      28.48702240      23.14850616
H        6.34093046      26.39533043      20.90206337
H        7.53946733      27.66893959      21.30739021
H        8.07469082      27.45930481      24.06259537
H        9.24025345      26.84029198      22.83320808
H        8.66724396      25.77546692      24.14323044
C       36.01713562      30.58731651      13.45987320
O       36.11074448      31.08344078      14.78506565
C       35.90350723      32.49480057      14.88301277
C       36.30575562      32.81897736      16.31784058
O       36.22966385      34.22700500      16.47377777
C       36.59413528      34.59886932      17.79901123
C       36.50837708      36.12414169      17.85924339
O       36.75667191      36.56795502      19.19658852
C       35.63599396      36.78234863      20.05323792
H       36.57807922      31.20106125      12.74153519
H       36.42820358      29.57122993      13.45325565
H       34.96464920      30.51561928      13.13841724
H       34.84342194      32.75152206      14.70879364
H       36.53080368      33.03755188      14.15613365
H       37.33270264      32.45571899      16.49968338
H       35.62947464      32.30467987      17.02729225
H       37.61751938      34.26766586      18.04451370
H       35.90123749      34.18450546      18.55039787
H       37.29554367      36.53554153      17.20780754
H       35.53103638      36.45775986      17.47772026
H       34.90707779      35.96150970      19.98882866
H       35.11777878      37.72371674      19.81015396
H       36.00811386      36.84413147      21.08501625
C       13.55786896      24.71911812      29.36585426
O       12.80644608      25.89715195      29.08170319
C       12.82364845      26.20653343      27.67018127
C       11.97619247      27.45718193      27.57729721
O       11.91504860      27.80321693      26.19398117
C       11.05734825      28.94456482      26.05119514
C       11.09463120      29.34325981      24.56885529
O       10.45306587      30.61690521      24.42719078
C        9.03890610      30.68152809      24.61294556
H       14.64402485      24.90732956      29.35438347
H       13.25175381      24.37339592      30.36246300
H       13.35216808      23.92845917      28.61987114
H       12.40277576      25.37563515      27.07665825
H       13.85623074      26.37998581      27.31170082
H       12.41644478      28.27025223      28.18602753
H       10.96412182      27.25731277      27.98224068
H       11.42484951      29.77477074      26.68552399
H       10.02598858      28.70972061      26.36427689
H       12.14506817      29.48814392      24.26365852
H       10.65264797      28.58454704      23.89988327
H        8.71076488      30.29024887      25.59036636
H        8.51860714      30.11792374      23.82424355
H        8.76629639      31.74081039      24.54527092
C       28.85627556      14.04975796      15.28853607
O       27.47280121      13.71899605      15.25747395
C       26.78752327      14.35679436      16.34952354
C       25.33722878      13.92779541      16.20170021
O       24.64331055      14.60797310      17.23955917
C       23.22769356      14.55098629      17.07274437
C       22.69075584      15.29249763      18.30469894
O       21.27116394      15.13569641      18.40093994
C       20.50607300      16.16128922      17.79877853
H       29.30626488      13.78102207      16.25378799
H       29.36558914      13.49005795      14.49749184
H       28.99532509      15.12753677      15.12214661
H       26.83983421      15.45799160      16.25857162
H       27.22297287      14.06995296      17.32185936
H       25.22720528      12.82996750      16.27407646
H       24.97555923      14.22055817      15.19930363
H       22.85120010      13.51389885      17.04214859
H       22.90392303      15.04455185      16.13877296
H       23.12644196      14.87034893      19.22719193
H       22.96157837      16.36369324      18.26469994
H       20.59891510      16.19179726      16.70512962
H       20.73967552      17.14593315      18.22698593
H       19.45502663      15.92846680      18.01037216
C        1.12706602      14.03632545      35.04313278
O        2.11973095      15.07000351      35.04615402
C        2.79912782      15.12665081      33.75962067
C        3.87082076      16.18823433      33.92519760
O        4.57351208      16.23843956      32.67680740
C        5.29266310      17.48381042      32.57854080
C        5.93980551      17.56335258      31.17826271
O        7.04852629      18.47159576      31.23779678
C        6.69413233      19.84776497      31.41683578
H        1.55850708      13.05626202      34.78181458
H        0.67943883      13.97582817      36.04364014
H        0.33232555      14.25093174      34.29991913
H        2.09117579      15.38274956      32.94933701
H        3.22099018      14.13940716      33.48691940
H        4.54870987      15.94292355      34.76540756
H        3.40155387      17.16427231      34.16931152
H        6.05985689      17.53399467      33.37631226
H        4.59346962      18.33086586      32.74884796
H        6.35004997      16.58238602      30.88492775
H        5.20870924      17.85525131      30.40295410
H        6.21918869      20.02985573      32.39669418
H        6.01152945      20.17255211      30.61872101
H        7.63595724      20.40501213      31.36294746
C        7.53814745      18.52899551      19.03786087
O        8.74272060      17.94302940      18.50581360
C        9.43941975      17.06253242      19.39974213
C       10.52945137      16.34832954      18.58230782
O       11.16162586      15.42485523      19.48625946
C       12.07819271      14.53481674      18.85766602
C       12.38509846      13.44238567      19.87166405
O       13.27901268      12.51212502      19.23440361
C       12.87947941      11.15551662      19.15366745
H        7.52216911      18.57340622      20.13776588
H        7.45692968      19.55615425      18.65611649
H        6.64084053      17.97050095      18.72032166
H        8.73835850      16.32813263      19.82470894
H        9.85347843      17.63513184      20.25364685
H       11.26519489      17.05429077      18.15059280
H       10.06902122      15.81980801      17.72320366
H       13.00958443      15.05583954      18.56251717
H       11.64548969      14.06994438      17.95044136
H       12.84886074      13.84210396      20.79253387
H       11.43571568      12.96324062      20.16291618
H       12.29228210      10.95552540      18.24727249
H       12.26209545      10.87293053      20.02369118
H       13.77303028      10.51515007      19.13294029
C       36.34458160      30.79557419      29.55753708
O       35.54977798      29.64366722      29.85596848
C       34.18327713      30.02872086      30.02200508
C       33.47201920      28.85682487      30.67785454
O       32.18698502      29.37663841      31.02518272
C       31.41398621      28.55056763      31.89676094
C       30.18775177      29.42918015      32.19493866
O       29.31581688      28.80074883      33.13845062
C       28.28234863      28.01955414      32.56784439
H       36.24119568      31.56096268      30.33994865
H       37.39026642      30.47291946      29.49057198
H       36.02716446      31.23296165      28.59884644
H       33.71971893      30.27824211      29.04328156
H       34.07192993      30.91055298      30.66982269
H       34.02613831      28.52007484      31.56706429
H       33.38964844      27.98781013      29.99862099
H       31.95726013      28.30802345      32.82678986
H       31.13813210      27.60997391      31.38913155
H       30.50269127      30.38519287      32.64400864
H       29.65202141      29.66208267      31.25773811
H       28.64913750      27.06343651      32.17625046
H       27.76842308      28.56693840      31.76352501
H       27.55380630      27.82534027      33.36572266
C       29.45508194      27.06839371      16.37645149
O       28.15047073      27.17638016      16.95923996
C       27.12981987      27.23848724      15.93844128
C       25.81268120      27.15643692      16.68916512
O       24.76430130      27.06622505      15.72498608
C       23.52429581      26.77691269      16.38465691
C       22.48443604      26.51524162      15.29977226
O       21.19665718      26.32723236      15.91801548
C       20.97626114      25.02721786      16.44604683
H       29.61714745      27.86792374      15.63231754
H       30.19917870      27.15557861      17.17854309
H       29.58857155      26.09687614      15.87287235
H       27.20797348      26.39365387      15.23739529
H       27.19232368      28.16139603      15.34223843
H       25.65047073      28.02278709      17.36236763
H       25.83536720      26.25036240      17.31558037
H       23.20514107      27.61719322      17.03322601
H       23.61255074      25.87774467      17.02157211
H       22.38840103      27.38504791      14.63233948
H       22.75493431      25.63758850      14.69012451
H       21.54404259      24.84914589      17.37247467
H       21.18835449      24.22822762      15.71585941
H       19.90545464      24.96673012      16.70055199
C       33.45062637      13.81597137      30.74579430
O       33.41151428      14.69403744      31.87801743
C       32.15028763      15.35492229      32.09811783
C       32.45961761      16.37125206      33.19465256
O       31.32949638      17.19062424      33.42253113
C       31.59783173      18.16755295      34.44818878
C       30.36353874      19.08213615      34.39405823
O       30.53211975      20.33285713      35.06457138
C       31.19308853      20.36152267      36.32672882
H       33.16779709      14.34940720      29.82321739
H       34.47882080      13.43793011      30.65668678
H       32.75571442      12.97520447      30.88003922
H       31.38054657      14.64010239      32.42188644
H       31.81459045      15.84445286      31.16602898
H       33.34605408      16.95747948      32.89499664
H       32.72623062      15.84264946      34.14209747
H       32.50482178      18.75173950      34.20127487
H       31.73141479      17.70399094      35.44643402
H       30.19294739      19.32319832      33.33215714
H       29.46798134      18.54926682      34.75345612
H       32.20996857      19.93648720      36.29882431
H       30.62816238      19.83826447      37.11160278
H       31.28038406      21.41546059      36.63414764
C        3.55879116       1.43558311      36.06502533
O        3.56364918       2.25252247      34.91679382
C        4.86580992       2.78380084      34.62153625
C        4.59225607       4.03807211      33.78959656
O        5.87975407       4.51485968      33.43639755
C        5.82013988       5.67568207      32.60256958
C        7.26791239       5.93051720      32.15073776
O        7.25029087       7.04206657      31.24574852
C        7.09792614       6.65211630      29.87534904
H        4.08348751       1.90584707      36.91399002
H        2.50956416       1.28517532      36.36086273
H        4.00557041       0.44274023      35.87723160
H        5.46663046       2.05123425      34.05508041
H        5.41622543       3.03513503      35.54219818
H        4.02205706       4.77551556      34.38673401
H        3.99129057       3.78523636      32.89466476
H        5.40285969       6.53940582      33.15961075
H        5.15766191       5.50396919      31.73363113
H        7.90314007       6.19868612      33.00951767
H        7.70317602       5.04054117      31.66833687
H        6.19040871       6.05258226      29.72297096
H        7.96356249       6.05565691      29.54000092
H        7.00676823       7.56304598      29.27506256
C       19.30518913      35.74121475       1.40642881
O       20.67732430      35.53392410       1.05827534
C       21.51423264      35.09780121       2.13930154
C       22.79249001      34.60747147       1.46458042
O       23.69287682      34.18782425       2.48580313
C       24.91562843      33.70188141       1.94375241
C       25.62184525      32.93075562       3.06139684
O       27.01051521      32.78469849       2.74756265
C       27.42033958      31.57102585       2.12292814
H       19.19552803      36.33648682       2.31911778
H       18.82073975      36.27322769       0.58247739
H       18.76080894      34.79615784       1.53547907
H       21.02918243      34.28278732       2.69514203
H       21.71134949      35.92033768       2.85149860
H       23.22362328      35.41294479       0.83874923
H       22.54696655      33.77123642       0.78919065
H       25.57633972      34.51538849       1.59514964
H       24.73534966      33.03327179       1.08020175
H       25.54150200      33.48028564       4.00966644
H       25.13506126      31.95443153       3.19194365
H       26.83074760      31.36929703       1.21471107
H       27.33424377      30.71834946       2.81665778
H       28.47291374      31.70482635       1.83741570
C       16.04283333      36.13069153      23.12298584
O       14.68130970      36.01361084      23.56603050
C       13.81805706      36.21633911      22.43074608
C       12.38145638      35.97291946      22.88661003
O       11.60684967      36.03394699      21.69323921
C       10.21098232      35.82743454      21.90683556
C        9.59475136      35.59296799      20.52980614
O        8.17020702      35.54390717      20.73304749
C        7.49530554      34.36870956      20.33481407
H       16.20713425      37.10541534      22.63765335
H       16.71162987      36.00742340      23.98122406
H       16.26558304      35.35009003      22.37596512
H       14.06128597      35.51395416      21.61253548
H       13.90626049      37.24433517      22.03963661
H       12.03213787      36.72266006      23.62444496
H       12.29232597      34.98089600      23.35964775
H        9.74458981      36.69656754      22.40761566
H       10.02934265      34.94430161      22.54272461
H        9.83318806      36.42592621      19.84542847
H        9.98859119      34.67316055      20.07432747
H        7.44544744      33.63551712      21.15564537
H        7.96633673      33.90365982      19.45686531
H        6.46875048      34.65472412      20.06511879
C        6.39225960      31.11850357       1.70602000
O        6.59035397      30.34627724       2.87545228
C        7.97333241      30.23452187       3.24677491
C        7.96283245      29.48627853       4.58510065
O        9.31945038      29.24972153       4.97234392
C        9.48690128      28.89105225       6.35377789
C       10.90709877      28.31614113       6.42498970
O       11.08869553      27.65400124       7.69728613
C       11.95777035      28.30014038       8.62349701
H        6.59381819      30.54509735       0.78713274
H        5.33419943      31.41502762       1.69794679
H        7.03520679      32.01468658       1.73006546
H        8.43274879      31.23073959       3.37708545
H        8.53329277      29.67331123       2.47612166
H        7.41285944      28.53626251       4.47084618
H        7.42414474      30.06942749       5.36425018
H        8.72964191      28.14604568       6.64429617
H        9.36248684      29.77490425       7.00735521
H       10.99712658      27.55813026       5.63012457
H       11.65540218      29.10403061       6.26084232
H       11.47528458      29.15548897       9.12040138
H       12.88606453      28.63798141       8.13715076
H       12.21508217      27.57732582       9.41056824
C       17.47528839      28.66593933      33.85825729
O       17.43675423      27.29188538      33.47187042
C       16.11632156      26.77142334      33.47235870
C       16.31111908      25.26434135      33.51256180
O       15.00849915      24.70314789      33.42090988
C       15.08719444      23.28638458      33.48345566
C       13.65259075      22.83466721      33.23138428
O       13.59745789      21.41753387      33.41634369
C       13.62463856      20.64028931      32.22193527
H       17.10225487      28.82014656      34.88317871
H       18.51418877      29.00816154      33.80931473
H       16.84426498      29.27385521      33.19535828
H       15.54948997      27.04469681      32.56410980
H       15.52235985      27.13102722      34.33552170
H       16.82374573      24.98524666      34.44895172
H       16.95300484      24.92033577      32.67900467
H       15.46051693      22.94328499      34.46396255
H       15.75057602      22.87802315      32.69915771
H       12.96147346      23.31042862      33.94734192
H       13.31616497      23.12704086      32.22494507
H       14.57943344      20.71244240      31.68136787
H       12.82364559      20.97740936      31.54340935
H       13.42087936      19.59953499      32.51327515
C       18.46851540       1.46664774      24.22897339
O       19.70032692       2.17625046      24.20105362
C       20.85897636       1.38100958      24.50126457
C       22.02184677       2.34022427      24.32332039
O       23.15639305       1.72640216      24.93820381
C       24.31607246       2.54148173      24.71081543
C       25.44305992       1.76527095      25.37640953
O       26.63972855       2.55216336      25.29283714
C       27.66390038       2.02236867      24.43885994
H       18.15201378       1.24218714      25.26007080
H       17.70306969       2.08195019      23.73928452
H       18.54447174       0.51562279      23.68141556
H       20.92015648       0.52461880      23.80448723
H       20.81557655       1.00444317      25.53657532
H       21.78504181       3.32092404      24.77415276
H       22.16473007       2.49398732      23.23971367
H       24.17391396       3.54856420      25.14295578
H       24.50146294       2.66664267      23.62849236
H       25.18671989       1.60365140      26.43784332
H       25.56581688       0.78089011      24.90032959
H       27.35241127       2.03839922      23.38201332
H       27.91258430       0.98601717      24.72038651
H       28.55953789       2.64775729      24.56513214
C        5.93456602       9.06358433      19.53809547
O        5.66466188       9.28997421      20.92203331
C        5.84353399      10.68771362      21.28871346
C        5.46238327      10.82546139      22.76703835
O        5.52828741      12.22682190      23.03673935
C        5.25037146      12.66618061      24.38830757
C        5.37043905      14.19110775      24.29381371
O        4.99945641      14.91180801      25.49220276
C        3.61402488      15.15939713      25.69992638
H        6.96688652       9.33322239      19.26741982
H        5.76845646       7.99765301      19.32523727
H        5.25435114       9.65032864      18.89997482
H        5.19294119      11.33595181      20.67094421
H        6.88918686      11.00914669      21.12507057
H        6.13901043      10.25433731      23.43055534
H        4.43325806      10.45292473      22.93655396
H        5.99543953      12.26979828      25.10429764
H        4.24982071      12.33816051      24.72249222
H        6.42893696      14.44549274      24.14327431
H        4.80658340      14.56010151      23.41660690
H        3.06832933      14.27021790      26.05385208
H        3.13278985      15.55192280      24.78507233
H        3.51433587      15.91386032      26.48989105
C        0.77603453       8.04212570       1.70775247
O        2.13771462       7.67652082       1.57319915
C        2.39923167       6.32906914       1.16620541
C        3.91687417       6.18741608       1.28119278
O        4.20797157       4.82316780       1.53881168
C        5.58405209       4.65361786       1.82714701
C        5.80838680       3.14791584       1.92829835
O        7.20032692       2.95684123       2.18437529
C        7.89729834       2.07991719       1.31668139
H        0.25349206       7.35841274       2.39657331
H        0.73469973       9.05834103       2.12224126
H        0.25643510       8.02076054       0.73650873
H        2.04941297       6.15699244       0.13032492
H        1.89287615       5.61441803       1.83318615
H        4.27344799       6.82921124       2.10774422
H        4.40474796       6.52614546       0.34359092
H        5.87986612       5.16637754       2.76297998
H        6.22285032       5.02324247       1.00684559
H        5.21290445       2.74903297       2.76405072
H        5.48338556       2.64640474       1.00195634
H        7.88123703       2.43416357       0.27590311
H        7.49581194       1.05297530       1.35350657
H        8.93475723       2.06449747       1.67573237
C       31.42537498      36.30617523      16.07549667
O       31.68416786      35.09202576      16.76089287
C       32.26282501      35.28794861      18.05315781
C       32.55659866      33.87454605      18.54386902
O       33.17790604      34.00592804      19.81884956
C       33.22855759      32.75366211      20.51299667
C       33.91669464      33.04394913      21.84794235
O       33.99822998      31.81905746      22.59585953
C       33.03017044      31.64337158      23.62513542
H       32.32747650      36.67289352      15.55669498
H       30.62749672      36.10021973      15.34945583
H       31.05588722      37.07463455      16.77256012
H       31.56781197      35.82286835      18.72919464
H       33.19642639      35.86983871      17.98839760
H       33.19203186      33.32033920      17.82161713
H       31.60517693      33.31633377      18.60711479
H       33.79572678      31.99900055      19.93539619
H       32.20716476      32.36029053      20.65854836
H       34.95140076      33.37666702      21.66533852
H       33.40762711      33.82938385      22.43236351
H       32.00728226      31.59505272      23.21986198
H       33.07857513      32.44975662      24.38357353
H       33.24976730      30.68358421      24.11985970
C        2.21109772       8.24225140      21.19309807
O        1.87890232       7.87562943      19.85665512
C        2.06806898       8.97420883      18.94911575
C        1.93073916       8.35981846      17.55458260
O        2.08549380       9.45058346      16.64059448
C        1.68008029       9.05013752      15.33070087
C        2.21600199      10.06989384      14.31504917
O        1.73643517       9.72549438      12.99244022
C        2.10800719       8.47021484      12.42541695
H        1.57853568       9.07086277      21.56316185
H        2.04045820       7.37709236      21.85037422
H        3.25899959       8.57755470      21.27916145
H        3.05896664       9.42872620      19.09986496
H        1.29554486       9.75255108      19.11419868
H        0.93478018       7.89834690      17.44661140
H        2.70139909       7.58489466      17.38079643
H        0.57469547       9.00324917      15.27019691
H        2.06187487       8.04772568      15.07577133
H        1.81781912      11.07763958      14.52410126
H        3.31966138      10.11639309      14.33986187
H        1.83618796       7.58288193      13.01931286
H        3.20554805       8.44388676      12.23414326
H        1.54808176       8.38556671      11.47824192
C       31.98083496      18.60365677      14.70958996
O       31.89442825      19.19311142      13.41930389
C       31.48115730      18.30201912      12.36425018
C       31.35829735      19.21728134      11.15744019
O       30.88673973      18.48827934      10.02571964
C       30.75229645      19.44758224       8.96155167
C       29.99141121      18.84624863       7.77957487
O       29.76415634      19.96350098       6.88722134
C       28.41901207      20.32725143       6.58804989
H       32.53078461      17.64924622      14.67272282
H       32.48844528      19.29820824      15.39072895
H       30.97645760      18.40655518      15.12209320
H       30.50155449      17.85474968      12.59781933
H       32.20781326      17.48500824      12.20936012
H       32.34311295      19.67936516      10.95710182
H       30.65296555      20.03079033      11.42337799
H       31.74684334      19.80104828       8.62231159
H       30.19370651      20.33212852       9.32647038
H       30.56288528      18.07319641       7.23524094
H       29.04111671      18.39044189       8.10142803
H       27.91681480      20.80783653       7.44349337
H       27.80469894      19.46537781       6.28342295
H       28.43808937      21.02951241       5.74227285
C       16.52346230       2.46435165       4.30754328
O       17.72252655       3.08187509       4.74106550
C       18.86824036       2.22623396       4.70849180
C       20.00319290       3.16010213       5.09638739
O       21.16145897       2.36117554       5.26912212
C       22.25921059       3.17411304       5.66166973
C       23.50026131       2.28291655       5.61634064
O       24.64974976       3.13974905       5.73836327
C       25.35836029       3.37798667       4.50548983
H       16.26959991       1.61064637       4.94767809
H       15.72329807       3.20894289       4.38166857
H       16.60183144       2.13720679       3.26246548
H       19.01246452       1.77354646       3.70846272
H       18.77193260       1.42014349       5.44985914
H       19.75422859       3.73890853       6.00641298
H       20.14012146       3.88613939       4.27738094
H       22.08802986       3.61084151       6.66362476
H       22.38622284       4.00128746       4.94270325
H       23.50702667       1.58261263       6.46627903
H       23.52012444       1.71040893       4.67493439
H       24.73751831       3.94202995       3.78893852
H       25.68052292       2.44104648       4.02311707
H       26.24735832       3.96125722       4.77977467
C       15.78034592      20.94405937       8.34294224
O       15.83957672      20.01495934       7.26325369
C       16.64813805      18.85657692       7.51834202
C       16.33344841      17.89965820       6.37220478
O       17.23954582      16.80971146       6.51099348
C       16.96489906      15.75868797       5.59587002
C       17.88358688      14.60054302       5.98366833
O       17.91522789      13.63331890       4.91412354
C       16.75269127      12.87731552       4.60900497
H       16.77198219      21.26974678       8.68890953
H       15.19894314      21.80574417       7.98633146
H       15.23527145      20.53334999       9.20635319
H       16.39200401      18.40430260       8.49358654
H       17.71683311      19.12830544       7.52788877
H       16.46369934      18.40151978       5.39752436
H       15.28254223      17.57201004       6.43896008
H       17.18857002      16.04636574       4.55149698
H       15.90693474      15.44823074       5.65671301
H       18.92422867      14.95538044       6.10087204
H       17.56365776      14.13770008       6.93350601
H       15.91156483      13.50807476       4.28419828
H       16.43242645      12.26554966       5.47045088
H       16.99798203      12.19548893       3.77974844
C        9.24795532       7.70584488      20.61738205
O        9.85496426       6.59179354      21.27434158
C        9.13273907       6.22463512      22.46038437
C        9.97347546       5.07095146      23.01666451
O        9.46750832       4.73230696      24.30997658
C       10.18857288       3.60888052      24.80967331
C        9.80038452       3.46756792      26.28888512
O       10.65649033       2.51037312      26.92461967
C       10.43519783       1.16090548      26.53096390
H        9.17433262       8.57477474      21.29237366
H        9.85052586       7.94152498      19.72649574
H        8.22358227       7.44586182      20.30262947
H        8.10727596       5.89352226      22.20893860
H        9.05020905       7.06487322      23.17424583
H       11.03454876       5.36846876      23.08336067
H        9.93309689       4.20969009      22.31906891
H       11.28063011       3.76920772      24.75965881
H        9.94839668       2.69985914      24.22471046
H        9.96384430       4.41740894      26.82421494
H        8.73169041       3.21983767      26.39754868
H       10.62694931       0.98112673      25.46357918
H        9.39739132       0.85652333      26.73752785
H       11.11325550       0.55122477      27.14395332
C       19.07224274       9.89411259       5.77048969
O       20.10186195      10.83581924       6.05857420
C       20.59676933      11.48225307       4.85638332
C       21.60869598      12.48342228       5.38853168
O       21.90803719      13.40186119       4.32763863
C       22.64033127      14.51983929       4.87516689
C       22.82596016      15.52056694       3.73399448
O       23.71775246      16.54528809       4.19508648
C       23.15049934      17.68534851       4.84989643
H       19.38232422       9.16460991       5.00620508
H       18.84968376       9.35933399       6.70312738
H       18.16115379      10.39235306       5.40502167
H       19.76655006      11.99602222       4.35165691
H       21.01827049      10.73586273       4.15694952
H       22.52056885      11.98067760       5.75487280
H       21.16009712      13.02102375       6.25011873
H       23.61899376      14.20660210       5.27920341
H       22.07165337      14.97968769       5.70910597
H       23.28751945      15.02062130       2.86030650
H       21.85418892      15.92160320       3.40628576
H       22.49136162      17.41600609       5.69136667
H       22.55686760      18.27000237       4.12728214
H       23.98405075      18.29225159       5.22845602
C        5.27593851       0.92230928      23.21850586
O        5.14509153       2.31645203      22.99015236
C        5.31896830       3.13861132      24.16218567
C        4.92510319       4.54448843      23.74415779
O        5.04460430       5.28929520      24.95452118
C        5.02890635       6.70825005      24.76244926
C        5.23577023       7.27030230      26.16752625
O        5.30545712       8.71101093      26.09904480
C        6.64069510       9.22733688      26.22113609
H        4.35813189       0.51219666      23.66706276
H        5.42956877       0.42236802      22.25497437
H        6.12004185       0.70236558      23.88851547
H        6.36282349       3.12222362      24.51148796
H        4.66237164       2.81138158      24.98266792
H        3.87940335       4.54230022      23.37698746
H        5.57153320       4.90771532      22.92780304
H        4.06174278       7.03452301      24.34211922
H        5.82844400       7.03739119      24.07805061
H        4.36493349       7.02668953      26.79703712
H        6.13316917       6.84896564      26.64237595
H        7.27120829       8.90011978      25.37775421
H        7.09226561       8.92466450      27.17696381
H        6.54072952      10.31838417      26.20161247
C        9.33583260      34.49537659      28.01652145
O       10.43365002      34.17166901      27.18700600
C       11.25242329      33.08205795      27.65084076
C       12.26934433      32.85721970      26.53399658
O       13.17579174      31.89855194      27.07205200
C       14.18980789      31.44529724      26.17521858
C       15.05828762      30.53639412      27.03315926
O       16.16244507      30.12744141      26.18197060
C       16.50575256      28.74528885      26.19419670
H        9.65342426      34.88019562      29.00071716
H        8.76331139      35.27994919      27.50255966
H        8.67107773      33.63005066      28.16897583
H       10.64322186      32.17696762      27.78087807
H       11.73176289      33.32639313      28.61291504
H       12.79171276      33.79639435      26.28072739
H       11.76543331      32.46246719      25.63267326
H       14.78919983      32.28038025      25.77117538
H       13.75316906      30.87744904      25.33368683
H       15.40136337      31.06816101      27.93301582
H       14.45157623      29.67727280      27.36219788
H       15.61520195      28.14269257      25.94851303
H       16.89755058      28.42962265      27.17611694
H       17.25255775      28.55867195      25.41055870
C       36.47826767      21.23831940      14.73209381
O       35.09138870      21.55530930      14.58283997
C       34.78341293      22.51691246      13.55440903
C       33.44992828      22.11264610      12.92951107
O       33.11899948      23.17742157      12.02966118
C       32.00633621      22.80722809      11.20791721
C       31.75443840      23.91085243      10.18737793
O       30.56559753      23.55631638       9.44494820
C       30.78553009      23.18784904       8.07565880
H       37.05218887      22.07670021      15.15748596
H       36.54817963      20.36872101      15.40266132
H       36.92252350      20.97424698      13.75537395
H       35.54911804      22.55663681      12.76223373
H       34.70399094      23.53011131      13.99023056
H       32.65869522      21.97221184      13.69171619
H       33.54081345      21.15642166      12.38199711
H       31.09026146      22.63653755      11.81005478
H       32.20750427      21.87111092      10.65412807
H       31.59323311      24.88348579      10.69238281
H       32.62328720      24.02341843       9.51755905
H       31.48879242      22.35334969       7.95621777
H       31.12809944      24.04292679       7.47778368
H       29.82935905      22.82051468       7.67997599
C        3.42367816      28.84355927       4.00719213
O        2.55912352      29.53784180       4.90973854
C        2.56254816      28.96932983       6.22129679
C        1.99297953      30.04757309       7.14166975
O        1.84019041      29.50642586       8.45086384
C        1.49271190      30.51890182       9.40227890
C        1.44795287      29.81877518      10.76988983
O        0.86330050      30.68452644      11.74619961
C        1.73974597      31.42051888      12.57949448
H        3.06741285      27.81515121       3.82872534
H        3.42383623      29.38104630       3.05025339
H        4.45202780      28.78888130       4.39172029
H        3.59145284      28.73893929       6.54592228
H        1.96424639      28.04122925       6.25400925
H        1.01927614      30.40950775       6.76937914
H        2.69269657      30.89697075       7.17053270
H        0.50360513      30.94387054       9.16915131
H        2.22853518      31.33654213       9.41168785
H        0.81647277      28.91927147      10.68484211
H        2.46320415      29.50156593      11.06110859
H        2.39103699      32.09369659      12.00187683
H        2.35729504      30.75956345      13.20976543
H        1.10700786      32.01016617      13.25978947
C       36.48904037      26.41381264      36.50845337
O       36.15055084      25.05124283      36.29385757
C       34.79490280      24.83516502      35.88146973
C       34.77222443      23.44001007      35.27070236
O       33.54840469      23.34224701      34.54717255
C       33.58727646      22.22141457      33.68727493
C       32.25132370      22.15876198      32.97235870
O       32.18349457      20.86389732      32.35393143
C       32.09171295      20.77413750      30.94109344
H       35.85841751      26.86786079      37.29324341
H       37.53420639      26.44526100      36.85437393
H       36.37776184      26.98535538      35.57384109
H       34.50344086      25.54853249      35.09198380
H       34.09800339      24.94113350      36.73621750
H       34.83512878      22.64678574      36.03451920
H       35.63761520      23.32794380      34.58910370
H       33.71905899      21.27952385      34.25260162
H       34.40764618      22.30826187      32.94631195
H       31.42519569      22.24225426      33.69854736
H       32.14939117      22.96572304      32.23204803
H       33.06287003      20.96909332      30.46459770
H       31.34726524      21.47684288      30.53579330
H       31.75772095      19.75229454      30.70741272
C       35.59712982      15.35433197      36.54402924
O       35.96866989      16.62057114      35.98921204
C       36.30140305      16.56477165      34.58614731
C       36.31145096      18.00295448      34.07587433
O       36.24458313      17.85659790      32.65725327
C       36.40554428      19.13656235      32.02260971
C       36.21853638      18.91922188      30.50361061
O       37.03678894      19.83569527      29.77062607
C       36.54088593      21.17684746      29.74075508
H       36.39713669      14.59781742      36.44261551
H       35.32705688      15.50575733      37.60141373
H       34.68588257      14.97320461      36.02746201
H       35.53412628      16.01274872      34.00970078
H       37.26364899      16.05599976      34.40599442
H       37.22730637      18.52820778      34.40694809
H       35.43121719      18.55145836      34.46937180
H       37.42313766      19.52387619      32.22072220
H       35.67464066      19.85972214      32.42775345
H       36.56497192      17.90796280      30.23013687
H       35.15708923      19.00464630      30.20615005
H       36.24139023      21.54902267      30.72992134
H       35.67496872      21.25003052      29.06868744
H       37.35615540      21.80298996      29.36119080
C       28.31782722       6.18202209      31.09780502
O       29.50610352       5.83041906      31.81305122
C       29.92793083       4.45750141      31.68006706
C       31.35204315       4.50730181      32.20264435
O       31.76576233       3.18098402      32.55545044
C       33.10620880       3.27395010      33.05770874
C       33.50970078       1.88065720      33.51821899
O       34.69427490       2.03440714      34.30978394
C       35.89712143       1.39740551      33.87719727
H       27.48269844       5.49904966      31.31538010
H       28.03045273       7.19933176      31.39333153
H       28.47203445       6.13211441      30.00827980
H       29.90810585       4.16310978      30.61203957
H       29.26908875       3.78236175      32.25759888
H       31.41271019       5.17218781      33.08105850
H       32.00161743       4.92581940      31.41621017
H       33.17273712       3.99855828      33.88875580
H       33.78810120       3.60376263      32.25234985
H       32.70200729       1.44266701      34.13687134
H       33.65190887       1.22211897      32.64421844
H       36.41031647       1.98468244      33.10093307
H       35.68662262       0.40178406      33.45493698
H       36.55975342       1.29018176      34.74529266
C       12.02780724      16.07532120      15.25877666
O       10.75328922      16.59982872      14.88783646
C       10.79799938      17.11103249      13.53838348
C        9.49771214      17.85060692      13.23889542
O        9.76286316      18.55613518      12.00252247
C        8.64770031      19.34729958      11.59468269
C        9.00515175      20.06109238      10.28504658
O        7.84946966      20.78922462       9.81945801
C        6.97589302      20.03380775       8.98755550
H       12.76592445      16.88384247      15.39360046
H       11.88694477      15.52865314      16.19701385
H       12.40717125      15.35582829      14.51520348
H       10.96500301      16.27806854      12.82691193
H       11.64980793      17.80168915      13.43390846
H        9.21541786      18.55781364      14.04539871
H        8.63778591      17.16364861      13.09357166
H        8.37643814      20.08107376      12.37890339
H        7.74855518      18.71725273      11.42601871
H        9.81127071      20.79084969      10.46175289
H        9.35024548      19.35015488       9.51134777
H        6.79458761      19.01500702       9.36838627
H        7.33059025      19.97083092       7.94380856
H        5.99265099      20.52296829       8.96572495
C       17.48453140      36.70723724      33.68847275
O       18.64354706      36.87816238      32.88466263
C       19.83563042      36.42873001      33.55214691
C       20.96257401      36.70369720      32.56066895
O       22.16976166      36.31260300      33.21109390
C       23.30836296      36.48991394      32.37036896
C       24.50258636      36.20977402      33.27446365
O       25.68824768      36.33073044      32.47089386
C       26.11533165      35.11007690      31.84603310
H       17.55978775      37.26856613      34.63343811
H       16.61794853      37.06943130      33.12285614
H       17.30123138      35.64401245      33.90586472
H       19.76566124      35.35211182      33.76877975
H       19.95949173      36.95981598      34.51308441
H       20.96938515      37.78026962      32.30224991
H       20.79196167      36.12517166      31.62829399
H       23.37092400      37.51937103      31.98373413
H       23.28378677      35.80270386      31.50748634
H       24.53144836      36.95442200      34.08037186
H       24.40612030      35.21082306      33.73244858
H       25.35171890      34.72373199      31.15520668
H       26.32421494      34.33556366      32.60456085
H       27.03234673      35.31361389      31.27612495
C        1.40667570      20.72494888      20.18185043
O        0.62106371      19.68120384      19.60981178
C        1.26255357      19.02380562      18.49904060
C        0.64919567      17.65303421      18.32723618
O        1.46765959      17.01799011      17.33668709
C        1.23767745      15.61461353      17.18482780
C        2.49169588      15.11243057      16.47703171
O        2.34448743      13.69162083      16.16008568
C        2.89886451      12.81943607      17.15881920
H        1.34703720      21.63905907      19.56307220
H        1.02906168      20.96181870      21.18613815
H        2.46401882      20.44271088      20.29423141
H        2.34404469      18.90717697      18.68460083
H        1.11899805      19.60329247      17.56604195
H       -0.41007814      17.70179749      18.01140785
H        0.67823344      17.13081551      19.29815483
H        0.33586028      15.41238785      16.57784462
H        1.11410928      15.12592411      18.16793442
H        2.60454059      15.61482525      15.50142956
H        3.38477445      15.30072689      17.09457016
H        2.20941353      12.67585087      18.00806427
H        3.86234641      13.18522644      17.54637909
H        3.03136277      11.83408356      16.68950272
C       31.58786583      16.76451302      25.03100777
O       30.57652092      17.22205734      25.93270874
C       29.50148201      17.87158012      25.25689507
C       28.43820572      18.12060165      26.32133293
O       27.46062088      18.96448135      25.69987106
C       26.21171761      18.99204826      26.39451790
C       25.20232201      19.74048424      25.52553749
O       23.92465210      19.56029892      26.17934799
C       22.89338303      18.99361420      25.36907005
H       31.98810959      17.59278107      24.42583466
H       32.38159180      16.29832077      25.62831306
H       31.18837929      16.00915146      24.33585739
H       29.07644463      17.23711777      24.45605087
H       29.81612778      18.82863808      24.80769730
H       28.86249161      18.59025002      27.22716713
H       27.97500992      17.16037178      26.60659599
H       26.30894661      19.47501755      27.38694572
H       25.82834244      17.97129250      26.56016922
H       25.43350983      20.81656837      25.47532463
H       25.20848846      19.34776878      24.49544334
H       23.09018135      17.94172859      25.09723854
H       22.74291611      19.56076813      24.42616463
H       21.96953011      18.99543381      25.97383499
C       28.44683838      22.44901276      28.94654465
O       27.61064529      23.41964340      28.33053398
C       27.10792923      22.98928833      27.05210114
C       26.06196022      24.01535034      26.68610001
O       25.37119865      23.55428886      25.51038361
C       24.22946358      24.40782738      25.33116913
C       23.47797585      24.02532768      24.05715561
O       22.52540588      25.07982826      23.79548073
C       21.14195442      24.86330414      24.11231232
H       29.30932999      22.19340897      28.31193733
H       28.80640984      22.86153412      29.89496422
H       27.88357735      21.52637672      29.15729332
H       26.63141632      21.99888039      27.12105179
H       27.92041206      22.88840675      26.30460739
H       26.50705910      25.00767517      26.51455116
H       25.36019516      24.14124870      27.52754021
H       24.55340958      25.45652771      25.23021317
H       23.56344032      24.35854721      26.21187401
H       24.16394806      23.96278191      23.19161034
H       22.97325516      23.04048157      24.11576462
H       20.93890762      24.85256195      25.19160080
H       20.75769806      23.93399811      23.65707970
H       20.56101799      25.68893814      23.66813469
C       12.79412937      19.97521591      25.58399963
O       12.83909035      19.31660080      24.32491493
C       12.69077969      20.20199966      23.19816208
C       12.07853603      19.42376900      22.03252602
O       11.97972775      20.39653778      20.98183823
C       11.17251110      19.92923355      19.88257790
C       11.23416615      20.97229767      18.75506401
O       10.85751629      20.38637161      17.48945236
C       11.93382454      19.96338844      16.66591072
H       11.96441174      20.69851875      25.63068962
H       12.63862038      19.23627663      26.38717461
H       13.71811390      20.53474426      25.81064796
H       13.66591930      20.63557434      22.90832710
H       12.02130699      21.04322243      23.45741081
H       11.07852268      19.04065132      22.31039619
H       12.68509483      18.55345345      21.70712090
H       10.12297440      19.76620674      20.19713402
H       11.54873085      18.96917915      19.48526192
H       10.52183247      21.80114555      18.93735695
H       12.24352551      21.41595840      18.69110107
H       12.57664394      19.22654724      17.18049049
H       12.54422188      20.81304550      16.30513000
H       11.50536633      19.43370438      15.79957867
C       37.41219711      12.09095955      12.31719685
O       36.98682022      12.42437935      13.64590168
C       35.89574814      11.60437775      14.08837032
C       35.71665955      11.98238468      15.56101418
O       34.75905991      11.07657814      16.10118103
C       34.42597198      11.47035122      17.44025421
C       33.59582520      10.32822132      17.98981667
O       33.14216995      10.65403652      19.31073952
C       33.96223068      10.36451054      20.43323135
H       36.62999725      12.33972549      11.58147335
H       38.32485962      12.66065788      12.10181522
H       37.63261795      11.01768494      12.22689724
H       36.12775421      10.53325272      13.96960545
H       34.96866608      11.81267166      13.52226162
H       35.36841583      13.02833939      15.67511940
H       36.68098068      11.89076138      16.09094238
H       33.83509064      12.40234470      17.45298958
H       35.32312393      11.63682652      18.05995750
H       32.68360138      10.18214798      17.38626671
H       34.15561676       9.38399220      17.94666100
H       35.00376892      10.70230865      20.30710793
H       33.94536591       9.28551960      20.66411972
H       33.54504395      10.88031960      21.30771255
C       12.23252106      32.61230087       6.24793053
O       11.16560078      33.39094925       5.70362282
C        9.88468456      32.83292770       5.99014711
C        8.87539291      33.71044922       5.27009344
O        7.62398481      33.13446808       5.61678267
C        6.55053091      33.77540588       4.94249725
C        5.26016283      33.27252197       5.60472870
O        4.20927811      34.11797714       5.11423016
C        3.36984372      34.71809387       6.07389641
H       12.16174793      31.57531166       5.89060879
H       13.18415451      33.02924728       5.90417433
H       12.20075798      32.61843872       7.35204268
H        9.68954945      32.80599594       7.07820272
H        9.81684589      31.80611229       5.60194874
H        9.05220032      33.66179657       4.18041515
H        8.94879150      34.76277542       5.59577990
H        6.56431627      33.53187180       3.86281037
H        6.60536337      34.87070465       5.06274700
H        5.05573750      32.22628784       5.32379055
H        5.35384560      33.31702042       6.70173168
H        3.92328453      35.35556793       6.79051256
H        2.76475358      33.98144150       6.63256598
H        2.66749692      35.35930634       5.52143717
C       30.82002068      30.70940971      17.49631310
O       30.30018425      30.76301003      18.82942581
C       28.88484573      31.00668907      18.84048080
C       28.49065971      30.94668007      20.30603981
O       27.08910751      31.15758133      20.32888031
C       26.58411026      31.20939827      21.65974617
C       25.07184792      31.36550903      21.46895027
O       24.47761154      31.50065613      22.76441383
C       23.90040970      30.33094406      23.32562256
H       30.58538437      31.63238907      16.94895554
H       31.90061760      30.54940796      17.54938698
H       30.37752914      29.86737633      16.94142723
H       28.34964371      30.24205780      18.25285149
H       28.64242554      31.99997711      18.42636490
H       29.01757431      31.71242523      20.89917755
H       28.74308968      29.95598602      20.71448135
H       26.99531555      32.05772018      22.23786163
H       26.79639244      30.27951431      22.21434021
H       24.85135651      32.27894592      20.88692856
H       24.68288040      30.50218964      20.90787697
H       24.65415192      29.57925987      23.60122681
H       23.16059685      29.87463188      22.64622307
H       23.36135292      30.63137054      24.23141861
C       32.82442474       2.68567896       4.72408533
O       31.84249496       3.57688999       5.20751238
C       30.76634979       3.79778743       4.28131819
C       29.91078758       4.83320999       4.99339104
O       28.85819817       5.15813112       4.09418583
C       28.17204666       6.32816792       4.53681326
C       27.12854767       6.58274317       3.46911383
O       26.42293930       7.76280975       3.88245130
C       25.05394936       7.65132952       4.23966074
H       33.32905197       3.07590675       3.81996536
H       33.56214523       2.53295708       5.52905846
H       32.39960861       1.70571232       4.45785713
H       30.19800568       2.87104750       4.08724070
H       31.10862732       4.19437695       3.30814862
H       30.52492905       5.72533131       5.21269321
H       29.50998497       4.43866587       5.94356012
H       28.85334778       7.19068432       4.63648272
H       27.67348289       6.17231226       5.50787449
H       27.61474991       6.76858044       2.49437904
H       26.46272850       5.72214222       3.31738710
H       24.90232277       6.98334980       5.10226583
H       24.42254066       7.30632305       3.40770340
H       24.70795250       8.64980412       4.52353144
C       35.04898453      12.47673416       8.67223740
O       33.68982697      12.77379417       8.43276024
C       32.94024277      12.93649292       9.64086628
C       31.52503395      13.22097683       9.15627003
O       30.71241188      13.18957043      10.32575226
C       29.31673622      13.14895821      10.00677586
C       28.63890839      12.82245731      11.34083366
O       27.27010727      12.42354202      11.17103291
C       26.39019394      13.48220634      10.79170799
H       35.16275024      11.49950027       9.17291164
H       35.58210373      12.44540691       7.71055412
H       35.51740265      13.23881912       9.31746197
H       33.34734344      13.75713253      10.26441956
H       32.94251633      12.01429939      10.24573231
H       31.24074364      12.44710255       8.42290401
H       31.47084618      14.18808079       8.62407875
H       29.08896637      12.36773014       9.25969887
H       28.96247292      14.10389423       9.58375835
H       29.14351463      11.95963192      11.79958916
H       28.70325661      13.65665340      12.06375122
H       26.63381004      13.90065193       9.79948997
H       26.34727097      14.28214741      11.54820156
H       25.38023567      13.04437256      10.72671127
C       20.41976738       6.62037039       7.20332813
O       19.48264503       5.58284712       7.48380232
C       19.93562317       4.91583824       8.66678429
C       18.93910027       3.79389095       8.94595623
O       19.41650391       3.24018097      10.17380238
C       18.60469055       2.18098187      10.70129967
C       19.25584030       2.00404835      12.07631683
O       18.58495712       1.02264500      12.87580490
C       17.44237328       1.55153501      13.54835606
H       21.42572594       6.21109867       7.01506424
H       20.06248474       7.14577579       6.30762291
H       20.49565506       7.32325459       8.05061436
H       19.97739220       5.60888243       9.53101254
H       20.95537758       4.50451565       8.53918552
H       18.91998482       3.04790711       8.13122368
H       17.90830612       4.17625952       9.05646706
H       18.66539383       1.28116560      10.06098366
H       17.54918671       2.49306703      10.78731060
H       20.29177666       1.65207636      11.94368649
H       19.28710556       2.97540498      12.59837723
H       16.64547920       1.86300135      12.85161209
H       17.68401909       2.40520740      14.20224667
H       17.00114822       0.76132172      14.17593479
C       25.85781479      30.71254349      29.10348320
O       25.42472076      31.47428322      30.23759079
C       24.26850891      30.93609619      30.90532112
C       23.85164261      32.09269333      31.79772758
O       22.71848869      31.69437408      32.56070709
C       22.29210663      32.80702209      33.34595108
C       21.27812386      32.31582260      34.38121033
O       20.79003334      33.44867325      35.11988068
C       21.60806274      33.88376236      36.20806885
H       25.05273247      30.63302422      28.35781670
H       26.72144127      31.22081757      28.66227150
H       26.14019394      29.69039917      29.38502502
H       24.52205276      30.04158020      31.48912239
H       23.46686172      30.68789482      30.19005966
H       23.62192345      32.96360397      31.15985298
H       24.68680573      32.36997223      32.47119141
H       21.82399750      33.58343506      32.71665192
H       23.12350464      33.28824234      33.89334869
H       20.40955162      31.85250282      33.89192581
H       21.73892403      31.57147026      35.04804230
H       22.54940796      34.35689545      35.87325287
H       21.84649849      33.04084015      36.87761688
H       21.05121803      34.62847137      36.79630280
C       17.47836494       6.83332682      17.89276505
O       18.88587952       6.80960941      17.71357918
C       19.33879471       5.74012232      16.85691833
C       20.85618782       5.81840944      16.89577484
O       21.29370880       4.66528940      16.16374779
C       22.71739006       4.49009609      16.17730713
C       22.93741226       3.02548647      15.81304932
O       24.35248756       2.73307371      15.91734791
C       25.06695366       3.02226949      14.70012856
H       17.12348938       5.96781158      18.48204422
H       17.20360184       7.75581074      18.42193985
H       16.94685364       6.81821680      16.92765236
H       18.95023727       5.86081171      15.82223034
H       18.98928070       4.75873423      17.22046852
H       21.21362686       5.79688835      17.94561195
H       21.20475197       6.75611448      16.42014694
H       23.11668968       4.71757936      17.18470764
H       23.19819832       5.17326832      15.44690704
H       22.40868568       2.39403224      16.54365540
H       22.53661346       2.77105165      14.81247139
H       24.95258331       4.07188559      14.38460064
H       24.70550156       2.37934613      13.87665844
H       26.13096809       2.81329322      14.87702465
C       26.95196724      15.01520348      36.21823883
O       25.58615112      14.90908432      35.72298431
C       24.62402916      15.90219879      36.15461731
C       23.31626129      15.15282822      36.39987564
O       22.22257614      16.07634735      36.44648743
C       20.98658180      15.38669205      36.22586441
C       19.82418442      16.38167000      36.18933487
O       18.62593269      15.56927109      36.10689545
C       17.77802849      15.74750137      34.96262360
H       27.09394646      15.95157909      36.77442932
H       27.15460587      14.14800262      36.86662674
H       27.63038063      14.99033833      35.34278488
H       24.45499039      16.61203957      35.32910156
H       24.96263313      16.46813774      37.03012848
H       23.36955643      14.55176258      37.32401276
H       23.17905998      14.43440628      35.57263565
H       20.80244064      14.60855961      36.98725891
H       21.00255013      14.84805298      35.26202011
H       19.76960945      17.02321625      37.07792282
H       19.89820671      17.02072525      35.29549408
H       17.57780266      14.75003719      34.52594757
H       18.25721169      16.38007164      34.18812943
H       16.81041718      16.18648720      35.24559021
C        4.78709126      18.55385399      36.74440384
O        5.96125984      17.83918381      36.35409164
C        6.32952642      16.67948914      37.13447189
C        7.41757870      16.05466652      36.26604843
O        7.96630907      14.89929581      36.90675354
C        9.01134777      14.38427067      36.05831146
C        9.64882183      13.16882515      36.71731186
O       10.93980217      12.95756531      36.12185287
C       11.12523079      11.98555660      35.09333038
H        4.89723539      19.04865456      37.72182846
H        4.58949757      19.31032181      35.97129822
H        3.90831423      17.88595390      36.79447556
H        5.46426582      16.00584793      37.25871658
H        6.68365526      16.97176933      38.14229965
H        8.20264721      16.80994415      36.08176041
H        6.98672438      15.78111267      35.28330231
H        9.78309059      15.15155602      35.87848282
H        8.59895897      14.10530853      35.07620621
H        9.79839802      13.36228180      37.78955078
H        8.99848175      12.28493595      36.60879517
H       10.38962555      12.14271069      34.28522491
H       11.02737045      10.96150684      35.48689651
H       12.14188957      12.10811996      34.69242477
C        6.40233707      13.85158253      15.97960567
O        6.20151949      13.92506886      17.38475800
C        7.45269537      13.79492378      18.10446358
C        7.04822063      14.08507919      19.54225731
O        8.21453762      14.00539875      20.38073349
C        7.87592316      14.35073566      21.73762131
C        9.20636940      14.42536545      22.49487495
O        8.94291973      14.52866268      23.93081474
C        9.38070202      15.71964169      24.57041550
H        6.80145073      12.87142467      15.67053223
H        5.42050028      13.95280457      15.49326038
H        7.08229923      14.63977337      15.61615658
H        8.17217445      14.55308437      17.73486900
H        7.88744020      12.78780937      17.94962883
H        6.26979303      13.36890316      19.86696625
H        6.58062458      15.09319687      19.60182190
H        7.20075035      13.60251331      22.17958450
H        7.34382153      15.32728577      21.77946091
H        9.77769566      13.49273396      22.34408188
H        9.81419849      15.27585793      22.14260674
H        8.78811073      16.59366798      24.26476860
H       10.44045353      15.92216969      24.35449982
H        9.26783943      15.57879257      25.65713692
C       32.36888123      17.54499054      18.30782890
O       33.36264420      17.68849182      19.30944633
C       34.09534454      18.92415810      19.22149086
C       34.92862701      18.94950294      20.49964905
O       35.31835556      20.30993652      20.66469574
C       36.08232498      20.51338768      21.86313057
C       36.43807602      22.00347900      21.86611938
O       37.43676376      22.26927948      22.86849594
C       36.96819687      22.36996078      24.21534920
H       32.78891373      17.68728256      17.29795265
H       31.95457840      16.52906227      18.38719368
H       31.55249023      18.27449036      18.44932747
H       33.41620636      19.79016113      19.20118904
H       34.72030640      18.95809937      18.30608940
H       35.81316757      18.29145432      20.42638206
H       34.31046677      18.60703468      21.35179138
H       37.00088501      19.90217209      21.83773994
H       35.48893356      20.25651550      22.75807381
H       36.86845779      22.24031448      20.88183975
H       35.53319550      22.63371277      21.99146461
H       36.28342438      21.54644966      24.47849846
H       36.41474533      23.31168365      24.36946297
H       37.82342911      22.35194206      24.90677261
C       10.15702534      17.62571716      31.42032433
O        9.53144455      16.37175369      31.15109825
C        9.07845879      15.73022747      32.34506607
C        8.37969303      14.48180199      31.83794022
O        7.84210348      13.82958508      33.00384140
C        7.19845343      12.59265327      32.68432999
C        6.16124010      12.38087082      33.79462051
O        5.51906013      11.10908222      33.65315247
C        4.60510206      10.98619366      32.56372070
H       10.89253902      17.55197716      32.23419952
H       10.67237282      17.91295433      30.49582672
H        9.41074657      18.38458633      31.69168663
H        8.37683868      16.36703873      32.91891098
H        9.92273903      15.48396301      33.01593399
H        9.07732773      13.82395077      31.28657532
H        7.57537603      14.71561337      31.11588860
H        7.92332220      11.75002480      32.67061615
H        6.71214104      12.62951660      31.70027161
H        6.63713789      12.38967037      34.79221344
H        5.42019796      13.20145130      33.78674698
H        4.98616266      11.39823151      31.62216949
H        3.63759565      11.47484493      32.76700592
H        4.40431881       9.91492748      32.41750336
C        9.30728245       7.14927912      15.93536091
O        8.18481445       7.98310804      15.63263226
C        8.27911854       8.36729622      14.25335598
C        7.15698338       9.33025646      13.92135811
O        7.36556101       9.53628540      12.51856613
C        6.68768358      10.65963650      11.95220757
C        7.45668697      10.93522835      10.64297295
O        6.77403879      11.81254959       9.71474552
C        5.54845572      11.34707355       9.14827251
H       10.25073719       7.67461824      15.72512341
H        9.25886631       6.88048124      16.99875259
H        9.28421116       6.21330070      15.35304642
H        8.23672009       7.48234558      13.59362507
H        9.23837376       8.87784863      14.06981468
H        7.24192142      10.27460003      14.48782539
H        6.15658998       8.90590096      14.11738873
H        6.68700647      11.52490234      12.63018990
H        5.62729168      10.40519333      11.76399422
H        8.41218185      11.42817497      10.88538456
H        7.68021297       9.99868298      10.10640144
H        4.68819666      11.67317009       9.77463341
H        5.55053568      10.24227524       9.00955677
H        5.39030027      11.80055714       8.15787888
