388
Properties=species:S:1:pos:R:3 charge=0 spin=1 pbc="F F F"
La       0.00000000       0.00000000       0.00000000
F        1.20000000       2.07846097       0.00000000
F       -2.40000000       0.00000000       0.00000000
F        1.20000000      -2.07846097       0.00000000
O        1.90494094       0.00000000       1.64972725
H        2.34782632       0.75695033       2.03327723
H        2.34782632      -0.75695033       2.03327723
O        1.90494094       0.00000000      -1.64972725
H        2.34782632       0.75695033      -2.03327723
H        2.34782632      -0.75695033      -2.03327723
O       -0.95247047       1.64972725       1.64972725
H       -1.12142676       2.58217019       1.51468732
H       -1.22639956       1.48438428       2.55186715
O       -0.95247047       1.64972725      -1.64972725
H       -1.53175214       2.39018645      -1.46976958
H       -0.81607417       1.67636802      -2.59678488
O       -0.95247047      -1.64972725       1.64972725
H       -1.28710702      -1.47238442       2.52881754
H       -1.06071930      -2.59417005       1.53773692
O       -0.95247047      -1.64972725      -1.64972725
H       -1.78508795      -2.11874644      -1.59494609
H       -0.56273837      -1.94780803      -2.47160837
O       -3.00000000      -3.00000000       0.00000000
H       -3.45854424      -3.65175372      -0.53026985
H       -3.44099546      -3.02810661       0.84909650
O       -3.00000000       0.00000000      -3.00000000
H       -3.32778364      -0.79581274      -3.41889356
H       -3.50155378       0.70801037      -3.40422390
O       -3.00000000       0.00000000       3.00000000
H       -3.55731880       0.03461578       2.22254946
H       -3.39626495       0.62476090       3.60735471
O       -3.00000000       3.00000000       0.00000000
H       -3.53886527       3.55566758      -0.56310710
H       -3.62745089       2.55691181       0.57114803
O        3.00000000      -3.00000000      -3.00000000
H        2.13050206      -2.99675355      -3.40024321
H        2.84951509      -3.29382003      -2.10152578
O        3.00000000      -3.00000000       3.00000000
H        3.00819803      -3.42080691       2.14029879
H        2.29359228      -3.43791319       3.47481787
O        3.00000000       3.00000000      -3.00000000
H        2.12002589       3.37479557      -2.96250757
H        3.49432075       3.48132434      -2.33652000
O        3.00000000       3.00000000       3.00000000
H        3.33252961       3.62020064       2.35114943
H        2.14299650       3.34751623       3.24700063
O       -6.00000000       0.00000000       0.00000000
H       -6.60355959       0.47516549      -0.57110893
H       -6.56602957      -0.54292484       0.54870300
O        0.00000000      -6.00000000       0.00000000
H        0.60368672      -6.55190268      -0.49718972
H        0.39247478      -5.12747652      -0.02996941
O        0.00000000       0.00000000      -6.00000000
H        0.61149793       0.44079414      -6.58991749
H        0.11458059       0.44421982      -5.15989770
O        0.00000000       0.00000000       6.00000000
H        0.56334979       0.52743550       6.56628672
H        0.43407323       0.01662289       5.14704282
O        0.00000000       6.00000000       0.00000000
H        0.41777448       6.58083961      -0.63586293
H       -0.12490585       5.17701311      -0.47257057
O        6.00000000       0.00000000       0.00000000
H        6.55170885       0.54134219      -0.56462184
H        5.14096691       0.01087791      -0.42210859
O       -6.00000000      -3.00000000       0.00000000
H       -6.53218006      -2.58718520      -0.68014717
H       -6.63672009      -3.38099002       0.60470321
O       -6.00000000       0.00000000      -3.00000000
H       -6.68741706      -0.65140904      -3.13912545
H       -6.10291788       0.61614923      -3.72525849
O       -6.00000000       0.00000000       3.00000000
H       -6.54610580       0.54903661       3.56263585
H       -5.54401063      -0.58493725       3.60510657
O       -6.00000000       3.00000000       0.00000000
H       -6.51070094       3.71750915      -0.37496268
H       -6.54972600       2.65666817       0.70438372
O       -3.00000000      -6.00000000       0.00000000
H       -2.39434428      -5.66815087       0.66278891
H       -3.55755349      -6.61820481       0.47242858
O       -3.00000000       0.00000000      -6.00000000
H       -2.59313933       0.63570230      -6.58870945
H       -2.33216697      -0.67454793      -5.87664699
O       -3.00000000       0.00000000       6.00000000
H       -3.38517940      -0.57756874       6.65900154
H       -2.35873318      -0.54722874       5.54662442
O       -3.00000000       6.00000000       0.00000000
H       -2.90222772       6.66074087      -0.68563396
H       -3.52750780       6.42931112       0.67354237
O        0.00000000      -6.00000000      -3.00000000
H        0.64234100      -6.55395613      -3.44357917
H       -0.22201438      -5.32728492      -3.64373588
O        0.00000000      -6.00000000       3.00000000
H        0.11023474      -5.15626918       3.43840443
H        0.58627823      -6.59303103       3.46991901
O        0.00000000      -3.00000000      -6.00000000
H        0.57138059      -3.60298846      -5.52443615
H       -0.48793546      -2.54176085      -5.31577218
O        0.00000000      -3.00000000       6.00000000
H       -0.58309581      -2.52224606       6.58990024
H       -0.41034900      -2.91861564       5.13905742
O        0.00000000       3.00000000      -6.00000000
H       -0.62306840       3.59854617      -6.41201953
H        0.40032348       3.51510603      -5.29954391
O        0.00000000       3.00000000       6.00000000
H        0.51278054       3.64985033       5.51939359
H       -0.59885303       2.63660142       5.34765932
O        0.00000000       6.00000000      -3.00000000
H        0.56953588       5.56760611      -3.63631459
H       -0.56501972       6.56407526      -3.52801861
O        0.00000000       6.00000000       3.00000000
H       -0.57114079       6.48900669       2.40762977
H       -0.53556531       5.26426370       3.29680589
O        3.00000000      -6.00000000       0.00000000
H        3.61333064      -6.65541291      -0.33240229
H        3.44487791      -5.16363638      -0.13715460
O        3.00000000       0.00000000      -6.00000000
H        3.62786960      -0.37661566      -5.38341890
H        3.53783517       0.49562700      -6.61751036
O        3.00000000       0.00000000       6.00000000
H        3.40558455      -0.46712610       6.73042879
H        3.23073646      -0.51590675       5.22745049
O        3.00000000       6.00000000       0.00000000
H        3.42781110       6.84556430      -0.13502041
H        3.49941054       5.38912276      -0.54189478
O        6.00000000      -3.00000000       0.00000000
H        5.14525759      -2.57777107      -0.08584860
H        6.59924503      -2.42861860      -0.48027131
O        6.00000000       0.00000000      -3.00000000
H        5.42912304      -0.54993006      -3.53657084
H        6.81188991       0.06546309      -3.50277351
O        6.00000000       0.00000000       3.00000000
H        5.28141084       0.33021863       2.46072537
H        6.78846245       0.18970736       2.49150229
O        6.00000000       3.00000000       0.00000000
H        5.14006552       3.41901955       0.03416370
H        6.57715595       3.59747591       0.47554746
O       -6.00000000      -3.00000000      -3.00000000
H       -6.69357638      -3.07268235      -3.65566830
H       -5.28689731      -2.55077383      -3.45377554
O       -6.00000000      -3.00000000       3.00000000
H       -6.78709324      -3.50483783       3.20458455
H       -5.33348032      -3.34288895       3.59532388
O       -6.00000000       3.00000000      -3.00000000
H       -5.33961703       3.68728850      -2.91190521
H       -6.75081287       3.43849420      -3.40029328
O       -6.00000000       3.00000000       3.00000000
H       -5.42346574       3.65909047       3.38657448
H       -6.82058614       3.08449554       3.48552109
O       -3.00000000      -6.00000000      -3.00000000
H       -3.53817472      -5.23839014      -3.21575501
H       -3.59637945      -6.59387706      -2.54406861
O       -3.00000000      -6.00000000       3.00000000
H       -2.60623368      -6.86870066       3.08086463
H       -2.47317853      -5.44338275       3.57347033
O       -3.00000000      -3.00000000      -6.00000000
H       -2.99371574      -3.57994616      -6.76148197
H       -3.19058438      -3.57702622      -5.26043920
O       -3.00000000      -3.00000000       6.00000000
H       -3.58696389      -2.65193733       5.32876411
H       -3.55912287      -3.12368939       6.76701655
O       -3.00000000       3.00000000      -6.00000000
H       -2.89785492       3.65564401      -5.31012381
H       -3.45914643       3.46034117      -6.70249726
O       -3.00000000       3.00000000       6.00000000
H       -3.44626579       2.44788165       5.35793769
H       -2.62669733       2.38269903       6.62913946
O       -3.00000000       6.00000000      -3.00000000
H       -2.85912514       5.14761170      -3.41209259
H       -2.96860089       6.62489904      -3.72439432
O       -3.00000000       6.00000000       3.00000000
H       -3.11123640       6.87496796       3.37187278
H       -3.40058317       5.41371540       3.64189978
O        3.00000000      -6.00000000      -3.00000000
H        3.63383266      -5.38340158      -3.36646198
H        3.48412474      -6.82170163      -2.91838199
O        3.00000000      -6.00000000       3.00000000
H        2.95966535      -6.81891586       2.50605490
H        3.66890381      -6.15473360       3.66697605
O        3.00000000      -3.00000000      -6.00000000
H        2.92804862      -2.28673799      -6.63428081
H        3.20060557      -3.77216879      -6.52890888
O        3.00000000      -3.00000000       6.00000000
H        2.22838895      -3.52419486       5.78536550
H        3.71946431      -3.43249113       5.54004960
O        3.00000000       3.00000000      -6.00000000
H        3.09808979       3.63776637      -5.29298919
H        3.52788644       3.35273800      -6.71634046
O        3.00000000       3.00000000       6.00000000
H        3.42128112       2.37227003       5.41288065
H        3.45405486       2.88935583       6.83535854
O        3.00000000       6.00000000      -3.00000000
H        3.14609848       6.94057128      -3.10105815
H        3.46292255       5.60450746      -3.73859340
O        3.00000000       6.00000000       3.00000000
H        2.60020231       6.63137383       3.59813104
H        3.64956625       6.50796416       2.51392600
O        6.00000000      -3.00000000      -3.00000000
H        5.45556655      -3.60067487      -3.50893394
H        6.87289694      -3.08355711      -3.38379810
O        6.00000000      -3.00000000       3.00000000
H        6.91915046      -2.73427976       3.02805409
H        5.56300487      -2.41859553       3.62228284
O        6.00000000       3.00000000      -3.00000000
H        5.43451443       2.36403953      -3.43819195
H        6.80445295       2.51647152      -2.81215031
O        6.00000000       3.00000000       3.00000000
H        6.85749885       3.06945965       3.41964619
H        5.41810464       2.68840411       3.69320821
O       -6.00000000      -6.00000000       0.00000000
H       -6.90256726      -5.92309133       0.30933676
H       -5.95014300      -6.87757802      -0.37894979
O       -6.00000000       0.00000000      -6.00000000
H       -5.69429268       0.38917956      -6.81933763
H       -6.80722835      -0.45627312      -6.23754803
O       -6.00000000       0.00000000       6.00000000
H       -6.93207827      -0.05602790       6.21052984
H       -5.64841666       0.62680837       6.63224384
O       -6.00000000       6.00000000       0.00000000
H       -5.97693023       6.85619935      -0.42734330
H       -6.72580685       6.06122935       0.62103722
O        0.00000000      -6.00000000      -6.00000000
H        0.03733904      -5.89721546      -6.95093269
H       -0.41957544      -6.84996468      -5.86677713
O        0.00000000      -6.00000000       6.00000000
H       -0.22454123      -5.57005804       6.82520481
H        0.18950347      -6.90568444       6.24506320
O        0.00000000       6.00000000      -6.00000000
H       -0.56547887       6.21335806      -6.74225591
H        0.49690235       6.80202834      -5.83853656
O        0.00000000       6.00000000       6.00000000
H       -0.15989904       6.18570671       6.92529841
H        0.05645443       6.86235019       5.58842147
O        6.00000000      -6.00000000       0.00000000
H        6.37681611      -6.78542256      -0.39667728
H        6.73629839      -5.57776811       0.44251187
O        6.00000000       0.00000000      -6.00000000
H        6.14116765      -0.33770311      -6.88445472
H        6.71811295       0.61753355      -5.86144336
O        6.00000000       0.00000000       6.00000000
H        6.13960959      -0.17355924       6.93092330
H        6.86354455       0.24826571       5.67002002
O        6.00000000       6.00000000       0.00000000
H        6.17480718       6.91249194       0.23028841
H        6.62478218       5.80482582      -0.69841686
O       -9.00000000       0.00000000       0.00000000
H       -9.58092128      -0.60498905      -0.46124892
H       -9.56334513       0.43019657       0.64327678
O       -6.00000000      -6.00000000      -3.00000000
H       -6.90057511      -5.93786758      -2.68166703
H       -6.04448410      -6.62220559      -3.72602562
O       -6.00000000      -6.00000000       3.00000000
H       -5.73472167      -6.00941962       3.91965783
H       -6.36728348      -6.87063189       2.84724271
O       -6.00000000      -3.00000000      -6.00000000
H       -5.67688902      -2.72482464      -6.85796833
H       -5.96928500      -3.95631444      -6.02740667
O       -6.00000000      -3.00000000       6.00000000
H       -6.23838655      -2.62700457       6.84869200
H       -6.32058461      -3.90122509       6.03536504
O       -6.00000000       3.00000000      -6.00000000
H       -6.84431505       2.56777869      -5.87135835
H       -6.06604448       3.40280132      -6.86580660
O       -6.00000000       3.00000000       6.00000000
H       -5.59350497       3.73612370       6.45729151
H       -6.92807298       3.05965408       6.22661369
O       -6.00000000       6.00000000      -3.00000000
H       -6.91069670       6.27193304      -2.88635234
H       -5.76227480       6.31573089      -3.87179847
O       -6.00000000       6.00000000       3.00000000
H       -5.71666769       6.90116572       3.15445063
H       -6.88623161       5.96207769       3.35970443
O       -3.00000000      -6.00000000      -6.00000000
H       -3.49500751      -6.12923881      -6.80900972
H       -3.19595551      -6.77429684      -5.47246072
O       -3.00000000      -6.00000000       6.00000000
H       -3.93782853      -5.88226893       6.15115850
H       -2.88303922      -6.94841272       5.94463456
O       -3.00000000       6.00000000      -6.00000000
H       -2.95671828       6.94461419      -6.14853474
H       -3.93242301       5.79083002      -6.05538132
O       -3.00000000       6.00000000       6.00000000
H       -2.97628981       6.90717606       6.30446882
H       -3.48953982       5.53244524       6.67673862
O        0.00000000      -9.00000000       0.00000000
H        0.54139423      -9.49891544       0.61172503
H       -0.51352136      -9.66286662      -0.46166600
O        0.00000000       0.00000000      -9.00000000
H       -0.65626801      -0.67871231      -8.84222252
H        0.05929453       0.05946611      -9.95350919
O        0.00000000       0.00000000       9.00000000
H        0.88390307      -0.33376938       9.15344448
H       -0.27946110       0.33911013       9.85037501
O        0.00000000       9.00000000       0.00000000
H       -0.51895824       9.76526991      -0.24754018
H        0.89748942       9.32751781       0.05896316
O        3.00000000      -6.00000000      -6.00000000
H        2.71842297      -6.59415724      -6.69564603
H        3.93781574      -6.16729957      -5.90648888
O        3.00000000      -6.00000000       6.00000000
H        2.58542174      -5.88061872       6.85446171
H        3.80722180      -6.47819126       6.18962574
O        3.00000000       6.00000000      -6.00000000
H        3.50824235       6.78871571      -6.18933855
H        2.57891979       5.78056804      -6.83112750
O        3.00000000       6.00000000       6.00000000
H        2.67583753       5.65628188       6.83247125
H        3.86306011       6.35794880       6.20792242
O        6.00000000      -6.00000000      -3.00000000
H        6.06547544      -6.93747927      -3.18187202
H        6.90075639      -5.68111268      -3.05639724
O        6.00000000      -6.00000000       3.00000000
H        6.46571720      -5.62155995       3.74573619
H        6.12784357      -6.94422159       3.09128773
O        6.00000000      -3.00000000      -6.00000000
H        5.88039893      -3.94465256      -6.09776992
H        6.85736016      -2.82520770      -6.38808897
O        6.00000000      -3.00000000       6.00000000
H        5.98052026      -2.87968425       6.94940850
H        6.85385434      -3.39597898       5.82574373
O        6.00000000       3.00000000      -6.00000000
H        6.10949547       3.89443013      -5.67714194
H        6.24918635       3.04585715      -6.92305749
O        6.00000000       3.00000000       6.00000000
H        6.30339024       2.61223055       6.82086604
H        5.99851850       3.94269127       6.16602051
O        6.00000000       6.00000000      -3.00000000
H        6.70089137       5.59699069      -3.51241255
H        5.87888102       6.86295261      -3.39607427
O        6.00000000       6.00000000       3.00000000
H        5.96400409       5.75510917       3.92464297
H        6.73903636       6.60542391       2.94067904
O        9.00000000       0.00000000       0.00000000
H        9.76461940       0.48378917      -0.31230924
H        9.35364244      -0.62553368       0.63235787
O       -9.00000000      -3.00000000       0.00000000
H       -9.52898315      -3.08050987       0.79367930
H       -9.45514405      -3.53846452      -0.64740381
O       -9.00000000       0.00000000      -3.00000000
H       -9.14746045       0.92965235      -3.17387860
H       -9.69063152      -0.44799858      -3.48842319
O       -9.00000000       0.00000000       3.00000000
H       -9.57928874       0.47420663       3.59647671
H       -9.17247248      -0.92381126       3.18181816
O       -9.00000000       3.00000000       0.00000000
H       -9.35021914       3.63232464      -0.62749020
H       -9.29271683       3.32100561       0.85293850
O       -3.00000000      -9.00000000       0.00000000
H       -3.19844837      -9.51638449       0.78115116
H       -3.29125776      -9.54689436      -0.72959394
O       -3.00000000       0.00000000      -9.00000000
H       -3.16760394       0.83447628      -9.43793847
H       -3.55075809      -0.62988732      -9.46490787
O       -3.00000000       0.00000000       9.00000000
H       -3.22419618       0.79434925       9.48474445
H       -3.26846651      -0.71617760       9.57554081
O       -3.00000000       9.00000000       0.00000000
H       -3.31365344       9.47965477      -0.76667116
H       -3.28453107       9.52771201       0.74618627
O        0.00000000      -9.00000000      -3.00000000
H       -0.57646484      -9.18345593      -3.74179785
H        0.81144776      -9.46398170      -3.20616824
O        0.00000000      -9.00000000       3.00000000
H        0.67640158      -9.49692735       3.46019122
H       -0.80423426      -9.49853343       3.14458048
O        0.00000000      -3.00000000      -9.00000000
H        0.93026108      -3.22461757      -9.01982693
H       -0.42539978      -3.69474683      -9.50258701
O        0.00000000      -3.00000000       9.00000000
H        0.80488514      -3.33570067       9.39458435
H       -0.65867770      -3.08471439       9.68934680
O        0.00000000       3.00000000      -9.00000000
H        0.65250401       3.66372130      -9.22348241
H       -0.70930836       3.13999647      -9.62730732
O        0.00000000       3.00000000       9.00000000
H       -0.73758289       3.57464388       9.20490909
H        0.76524104       3.45893906       9.34642884
O        0.00000000       9.00000000      -3.00000000
H       -0.48423972       9.59460742      -3.57287499
H        0.90884044       9.29389209      -3.06219588
O        0.00000000       9.00000000       3.00000000
H        0.80435612       9.40787271       3.32075367
H       -0.70276956       9.46860014       3.45028957
O        3.00000000      -9.00000000       0.00000000
H        2.92287532      -9.45857599      -0.83665506
H        3.84243856      -9.28563941       0.35346745
O        3.00000000       0.00000000      -9.00000000
H        2.98174222      -0.90505710      -9.31107900
H        3.07707792       0.52588034      -9.79607833
