390
Properties=species:S:1:pos:R:3 charge=0 spin=1 pbc="F F F"
La       0.00000000       0.00000000       0.00000000
O        1.27500000       2.20836478       0.00000000
P        2.04500000       3.54204390       0.00000000
O        3.39050000       3.35758049      -0.72600000
O        1.21227002       4.61518216      -0.72645996
O        2.30172998       3.98618216       1.45245996
O        1.90494094       0.00000000       1.64972725
H        2.34782632       0.75695033       2.03327723
H        2.34782632      -0.75695033       2.03327723
O        1.90494094       0.00000000      -1.64972725
H        2.34782632       0.75695033      -2.03327723
H        2.34782632      -0.75695033      -2.03327723
O       -0.95247047       1.64972725       1.64972725
H       -1.12142676       2.58217019       1.51468732
H       -1.22639956       1.48438428       2.55186715
O       -0.95247047       1.64972725      -1.64972725
H       -1.53175214       2.39018645      -1.46976958
H       -0.81607417       1.67636802      -2.59678488
O       -0.95247047      -1.64972725       1.64972725
H       -1.28710702      -1.47238442       2.52881754
H       -1.06071930      -2.59417005       1.53773692
O       -0.95247047      -1.64972725      -1.64972725
H       -1.78508795      -2.11874644      -1.59494609
H       -0.56273837      -1.94780803      -2.47160837
O       -2.64000000       0.00000000       0.00000000
H       -3.22588228       0.75695033      -0.00000000
H       -3.22588228      -0.75695033       0.00000000
O        1.32000000      -2.28630707       0.00000000
H        1.11076973      -3.08362480       0.48655829
H        2.11511254      -2.50376721      -0.48655829
O       -3.00000000      -3.00000000       0.00000000
H       -2.44663864      -3.77512384       0.09594833
H       -3.71646271      -3.28531125      -0.56701897
O       -3.00000000       0.00000000      -3.00000000
H       -3.49673134       0.77494607      -3.26258029
H       -2.29431706      -0.06220910      -3.64371846
O       -3.00000000       0.00000000       3.00000000
H       -3.43046056      -0.61506037       3.59383187
H       -3.65648987       0.67781942       2.83933350
O       -3.00000000       3.00000000       0.00000000
H       -3.31630390       3.72365074      -0.54084498
H       -3.47527545       3.09198156       0.82576297
O        3.00000000      -3.00000000      -3.00000000
H        2.43511755      -3.60871335      -3.47603331
H        3.42280728      -2.48032953      -3.68367277
O        3.00000000      -3.00000000       3.00000000
H        3.40849351      -3.25129990       2.17162011
H        2.08797502      -3.27679678       2.91153633
O       -6.00000000       0.00000000       0.00000000
H       -6.58429443      -0.39190118      -0.64903415
H       -6.57436845       0.53460892       0.54820255
O        0.00000000      -6.00000000       0.00000000
H       -0.42359377      -5.35715531       0.56881532
H        0.51994452      -6.54078124       0.59451256
O        0.00000000       0.00000000      -6.00000000
H       -0.57789538       0.57367341      -5.49684239
H        0.51143961      -0.46560652      -5.33828108
O        0.00000000       0.00000000       6.00000000
H        0.11942226      -0.37592589       5.12784755
H        0.52539377      -0.55627978       6.57510524
O        6.00000000       0.00000000       0.00000000
H        5.38348880      -0.43810152      -0.58669655
H        5.44841267       0.53002455       0.57537573
O       -6.00000000      -3.00000000       0.00000000
H       -6.53745467      -3.71374248      -0.34343266
H       -6.54346391      -2.59380240       0.67519059
O       -6.00000000       0.00000000      -3.00000000
H       -6.02801931      -0.66195856      -3.69083835
H       -6.62714961       0.66645158      -3.28063767
O       -6.00000000       0.00000000       3.00000000
H       -6.30251924       0.71109064       3.56485755
H       -6.65126216      -0.69190736       3.11555792
O       -6.00000000       3.00000000       0.00000000
H       -5.57489120       2.53272401      -0.71914359
H       -6.63910546       3.56944804      -0.42837481
O       -3.00000000      -6.00000000       0.00000000
H       -3.34158307      -6.65608779       0.60753737
H       -2.56086394      -6.50928369      -0.68119122
O       -3.00000000       0.00000000      -6.00000000
H       -3.61968028       0.64834364      -6.33448274
H       -2.97903708      -0.68108828      -6.67224338
O       -3.00000000       0.00000000       6.00000000
H       -3.51010804       0.59163186       6.55316668
H       -2.36324482      -0.39570713       6.59513910
O       -3.00000000       6.00000000       0.00000000
H       -2.42886630       6.61074695       0.46586081
H       -3.64911361       6.55782664      -0.42861732
O        0.00000000      -6.00000000      -3.00000000
H       -0.26603693      -5.09735692      -2.82480965
H       -0.51415255      -6.52506904      -2.38666363
O        0.00000000      -6.00000000       3.00000000
H        0.43531276      -5.14753964       2.99321975
H        0.58047895      -6.56181412       3.51345976
O        0.00000000      -3.00000000      -6.00000000
H       -0.52552391      -3.32369263      -5.26837199
H       -0.64118457      -2.66001594      -6.62411941
O        0.00000000      -3.00000000       6.00000000
H        0.36967162      -3.63733428       6.61104807
H        0.40324158      -3.21263591       5.15832665
O        0.00000000       3.00000000      -6.00000000
H        0.00793628       3.50360393      -5.18602707
H       -0.39328711       3.58973514      -6.64324922
O        0.00000000       3.00000000       6.00000000
H        0.57677385       2.46484666       6.54513730
H       -0.12625349       2.48283251       5.20449407
O        0.00000000       6.00000000      -3.00000000
H        0.61191946       5.31153263      -3.26038260
H        0.43578240       6.44642666      -2.27403253
O        0.00000000       6.00000000       3.00000000
H        0.03998363       6.05127272       2.04501086
H        0.25904470       5.10118682       3.20313184
O        3.00000000      -6.00000000       0.00000000
H        3.53488074      -5.21425349      -0.11285768
H        3.40886466      -6.65236975      -0.56874883
O        3.00000000       0.00000000      -6.00000000
H        3.55414671       0.59652643      -6.50329860
H        3.23179405       0.16992457      -5.08696714
O        3.00000000       0.00000000       6.00000000
H        3.53799098      -0.62664757       5.51615047
H        3.60794433       0.41722891       6.61037330
O        6.00000000      -3.00000000       0.00000000
H        6.85781479      -3.38206697       0.18550057
H        5.39609881      -3.47914091       0.56741446
O        6.00000000       0.00000000      -3.00000000
H        6.65586724       0.53227592      -3.45028029
H        5.16110647       0.37312428      -3.27068019
O        6.00000000       0.00000000       3.00000000
H        5.30711338       0.49389166       3.43841874
H        6.80573483       0.27938022       3.43470671
O        6.00000000       3.00000000       0.00000000
H        6.83185299       3.45214759      -0.14076579
H        5.50522386       3.58184822       0.57695846
O       -6.00000000      -3.00000000      -3.00000000
H       -6.34718885      -3.60014543      -3.65993727
H       -5.05301945      -3.13717164      -3.02536969
O       -6.00000000      -3.00000000       3.00000000
H       -5.44675993      -3.49030793       3.60807516
H       -6.88843440      -3.11636689       3.33671190
O       -6.00000000       3.00000000      -3.00000000
H       -5.42130358       3.63601773      -3.42050415
H       -6.85726596       3.15717030      -3.39575801
O       -6.00000000       3.00000000       3.00000000
H       -6.74428423       3.26772676       2.46093117
H       -5.28814410       3.58102325       2.73184892
O       -3.00000000      -6.00000000      -3.00000000
H       -3.24497318      -5.28409145      -3.58625500
H       -3.43320797      -6.77026891      -3.36776148
O       -3.00000000      -6.00000000       3.00000000
H       -2.47899839      -5.31461853       3.41837950
H       -2.53181374      -6.81131251       3.19699104
O       -3.00000000      -3.00000000      -6.00000000
H       -3.49845571      -3.70173278      -5.58125802
H       -3.05538435      -3.19191509      -6.93612660
O       -3.00000000      -3.00000000       6.00000000
H       -2.80532034      -3.38540714       6.85427923
H       -2.52518637      -3.54841397       5.37547941
O       -3.00000000       3.00000000      -6.00000000
H       -3.26396221       3.53229416      -6.75047900
H       -2.60778512       3.62401725      -5.38926127
O       -3.00000000       3.00000000       6.00000000
H       -2.67890498       3.36202702       6.82587303
H       -2.52508312       3.48455140       5.32479948
O       -3.00000000       6.00000000      -3.00000000
H       -3.55358866       5.25686073      -3.23982380
H       -3.59308667       6.75131788      -3.00121762
O       -3.00000000       6.00000000       3.00000000
H       -3.61631374       5.44057696       3.47268919
H       -3.34807534       6.88513719       3.10773837
O        3.00000000      -6.00000000      -3.00000000
H        3.59109234      -6.66201474      -3.35857799
H        2.23877411      -6.49592094      -2.69862083
O        3.00000000      -6.00000000       3.00000000
H        3.66431980      -5.60122023       3.56203713
H        3.21867856      -6.93186662       2.99398848
O        3.00000000      -3.00000000      -6.00000000
H        3.60077705      -2.47595842      -6.52979165
H        2.40137342      -3.39373816      -6.63470333
O        3.00000000      -3.00000000       6.00000000
H        3.73175410      -3.36887481       5.50532925
H        3.31131881      -2.97297567       6.90475528
O        3.00000000       3.00000000      -6.00000000
H        2.59284020       3.56668117      -5.34477089
H        2.38643653       3.00326887      -6.73468430
O        3.00000000       3.00000000       6.00000000
H        3.46613132       3.07937861       6.83225745
H        3.65982651       2.67966799       5.38498112
O        3.00000000       6.00000000      -3.00000000
H        3.34148480       5.29423814      -2.45089148
H        3.23496637       6.80212541      -2.53350511
O        3.00000000       6.00000000       3.00000000
H        2.55921061       6.73555869       3.42531161
H        2.82582445       5.25256065       3.57203946
O        6.00000000      -3.00000000      -3.00000000
H        6.90920179      -2.96543913      -3.29730371
H        5.95905692      -2.37121812      -2.27945239
O        6.00000000      -3.00000000       3.00000000
H        5.37076784      -2.49377653       3.51384484
H        6.68036000      -2.36917657       2.76461963
O        6.00000000       3.00000000      -3.00000000
H        6.75593352       2.95011063      -3.58507042
H        5.26453531       3.20998646      -3.57552516
O        6.00000000       3.00000000       3.00000000
H        6.83200311       3.39053637       3.26736493
H        5.35494378       3.69442943       3.13379867
O       -6.00000000      -6.00000000       0.00000000
H       -6.78205248      -6.32505678       0.44605363
H       -5.71768221      -6.72952680      -0.55165130
O       -6.00000000       0.00000000      -6.00000000
H       -6.66431849       0.56719867      -6.39140574
H       -5.78541774      -0.62902756      -6.68884732
O       -6.00000000       0.00000000       6.00000000
H       -6.73811952      -0.45715026       6.40301991
H       -5.49973797      -0.68974045       5.56384882
O       -6.00000000       6.00000000       0.00000000
H       -5.86469725       6.88444646       0.34011684
H       -5.48478188       5.43865389       0.57937266
O        0.00000000      -6.00000000      -6.00000000
H        0.13663180      -5.80720001      -6.92757305
H       -0.05646865      -6.95465696      -5.95909487
O        0.00000000      -6.00000000       6.00000000
H       -0.66261549      -5.82928920       6.66935071
H        0.45262958      -6.78618940       6.30539243
O        0.00000000       6.00000000      -6.00000000
H       -0.23781067       6.78020573      -5.49904397
H       -0.04951128       6.27777266      -6.91467088
O        0.00000000       6.00000000       6.00000000
H        0.16330120       6.94203383       6.04622571
H        0.33992431       5.65667558       6.82632418
O        6.00000000      -6.00000000       0.00000000
H        6.73733071      -5.90991922       0.60370582
H        5.94999225      -6.93891983      -0.17933383
O        6.00000000       0.00000000      -6.00000000
H        5.85291745      -0.52048431      -6.78974340
H        6.95217408       0.03156762      -5.90726467
O        6.00000000       0.00000000       6.00000000
H        6.77731335       0.55858291       5.99903943
H        6.07816734      -0.51864663       6.80070430
O        6.00000000       6.00000000       0.00000000
H        5.29645485       6.49549440       0.41921516
H        6.53211109       6.66348977      -0.43917076
O       -9.00000000       0.00000000       0.00000000
H       -9.74511798       0.58248236      -0.14746300
H       -9.32630617      -0.65579085       0.61619354
O       -6.00000000      -6.00000000      -3.00000000
H       -6.95221123      -5.90675924      -2.97115962
H       -5.85573192      -6.90852226      -3.26458620
O       -6.00000000      -6.00000000       3.00000000
H       -5.77129035      -6.87927549       3.30132764
H       -6.90138069      -5.87192378       3.29553540
O       -6.00000000      -3.00000000      -6.00000000
H       -6.95595600      -2.98455243      -6.04627451
H       -5.71807364      -3.13440784      -6.90481153
O       -6.00000000      -3.00000000       6.00000000
H       -6.62096471      -3.72326739       6.08671187
H       -5.50643582      -3.00782245       6.82010063
O       -6.00000000       3.00000000      -6.00000000
H       -6.44186736       3.84490576      -6.08437616
H       -5.73997822       2.77489546      -6.89327961
O       -6.00000000       3.00000000       6.00000000
H       -5.83153015       3.41179909       6.84750885
H       -6.94590249       2.85386300       5.98798760
O       -6.00000000       6.00000000      -3.00000000
H       -6.81189217       5.72171904      -2.57618088
H       -6.25675344       6.20550236      -3.89893175
O       -6.00000000       6.00000000       3.00000000
H       -6.93009543       5.86215500       2.82068719
H       -5.98412398       6.48964583       3.82233007
O       -3.00000000      -6.00000000      -6.00000000
H       -3.91718087      -6.21781429      -6.16603623
H       -2.54649279      -6.23875177      -6.80843098
O       -3.00000000      -6.00000000       6.00000000
H       -3.82564235      -5.85437031       6.46188586
H       -2.99599296      -6.93718223       5.80530729
O       -3.00000000       6.00000000      -6.00000000
H       -3.91784203       6.21358921      -5.83213844
H       -2.84130889       6.30775568      -6.89237627
O       -3.00000000       6.00000000       6.00000000
H       -2.59350497       6.73612370       6.45729151
H       -3.92807298       6.05965408       6.22661369
O        0.00000000      -9.00000000       0.00000000
H        0.54174401      -9.64238961       0.45834578
H       -0.59418550      -9.52564876      -0.53560136
O        0.00000000       0.00000000      -9.00000000
H        0.43351843      -0.07553053      -9.85005221
H        0.56208069      -0.48970477      -8.39959482
O        0.00000000       0.00000000       9.00000000
H       -0.30719766       0.51738011       9.74443217
H        0.61649951      -0.62555203       9.38058488
O        0.00000000       9.00000000       0.00000000
H        0.53319233       8.27643219      -0.32922242
H        0.36879083       9.77883512      -0.41670256
O        3.00000000      -6.00000000      -6.00000000
H        2.89383043      -6.95053710      -6.03793523
H        3.88184752      -5.84335076      -6.33769484
O        3.00000000      -6.00000000       6.00000000
H        3.34036646      -5.65703533       6.82629156
H        3.24850766      -6.92437270       6.00330120
O        3.00000000       6.00000000      -6.00000000
H        3.81697507       6.43675250      -5.75910411
H        2.89213512       6.18984099      -6.93196427
O        3.00000000       6.00000000       6.00000000
H        2.92605638       6.02570574       6.95399339
H        3.93747900       6.09092491       5.82941972
O        6.00000000      -6.00000000      -3.00000000
H        6.05051151      -5.63857165      -3.88490111
H        6.89278193      -5.93180360      -2.66158972
O        6.00000000      -6.00000000       3.00000000
H        6.90426419      -5.96346565       3.31177453
H        5.79819503      -6.93474402       2.95804505
O        6.00000000      -3.00000000      -6.00000000
H        6.73717894      -3.08331302      -6.60486197
H        5.72395386      -3.90110235      -5.83253383
O        6.00000000      -3.00000000       6.00000000
H        6.28894291      -3.35085583       6.84240372
H        6.79841496      -2.66238081       5.59407060
O        6.00000000       3.00000000      -6.00000000
H        6.44285060       3.80031199      -6.28216291
H        5.59887962       2.65386163      -6.79719666
O        6.00000000       3.00000000       6.00000000
H        6.03801092       2.84478154       6.94376599
H        5.83973854       3.94008994       5.91766523
O        6.00000000       6.00000000      -3.00000000
H        5.81551858       6.82258793      -3.45337352
H        6.82577971       5.69760564      -3.37799122
O        6.00000000       6.00000000       3.00000000
H        6.93699969       6.09281753       2.82781310
H        5.84664662       6.52744191       3.78391301
O        9.00000000       0.00000000       0.00000000
H        9.55848675      -0.47640887      -0.61429551
H        9.59677036       0.29476359       0.68790363
O       -9.00000000      -3.00000000       0.00000000
H       -9.49307028      -3.28843225      -0.76806274
H       -9.23733147      -3.62413704       0.68582692
O       -9.00000000       0.00000000      -3.00000000
H       -9.46381866      -0.83003337      -2.88977886
H       -9.60220112       0.54616805      -3.50525846
O       -9.00000000       0.00000000       3.00000000
H       -9.64853614      -0.50049794       3.49511062
H       -9.24181339       0.91487165       3.14411103
O       -9.00000000       3.00000000       0.00000000
H       -9.55408784       3.59934318      -0.50000626
H       -9.25239945       3.14421490       0.91199146
O       -3.00000000      -9.00000000       0.00000000
H       -3.11195952      -9.45094052       0.83686890
H       -3.79414356      -9.20740310      -0.49249548
O       -3.00000000       0.00000000      -9.00000000
H       -2.87340155      -0.55868753      -9.76685913
H       -2.97912723       0.89192218      -9.34680109
O       -3.00000000       0.00000000       9.00000000
H       -3.32504454       0.74052851       9.51205021
H       -2.98687348      -0.73135369       9.61739883
O       -3.00000000       9.00000000       0.00000000
H       -2.88784759       9.57551308       0.75659657
H       -3.33430787       9.57306881      -0.68997263
O        0.00000000      -9.00000000      -3.00000000
H        0.67031702      -9.05728109      -3.68090073
H       -0.80918166      -9.26568902      -3.43688238
O        0.00000000      -9.00000000       3.00000000
H        0.71470037      -9.55440336       3.31316471
H       -0.79285134      -9.50363865       3.18430058
O        0.00000000      -3.00000000      -9.00000000
H        0.38471285      -3.86499557      -9.14145857
H       -0.71851702      -2.95088393      -9.63051784
O        0.00000000      -3.00000000       9.00000000
H        0.15839589      -3.71141199       9.62051234
H       -0.95034680      -2.88571469       9.00341526
O        0.00000000       3.00000000      -9.00000000
H       -0.49908780       3.49981573      -9.64600886
H        0.91102090       3.08782810      -9.28028377
O        0.00000000       3.00000000       9.00000000
H       -0.74837920       3.48859563       9.34268751
H        0.73720584       3.27764051       9.54376019
O        0.00000000       9.00000000      -3.00000000
H        0.68260213       9.23269528      -3.62939581
H       -0.80463353       8.97277519      -3.51774080
O        0.00000000       9.00000000       3.00000000
H       -0.66974999       9.11172975       3.67467270
H        0.72149026       9.56193877       3.28268086
O        3.00000000      -9.00000000       0.00000000
H        3.45148884      -9.11681070       0.83590964
H        3.25299259      -9.76398917      -0.51821533
O        3.00000000       0.00000000      -9.00000000
H        3.39996338      -0.86905945      -9.03157218
H        3.49029526       0.51330222      -9.64215514
O        3.00000000       0.00000000       9.00000000
H        3.23470929       0.63025578       9.68111750
H        3.53147666      -0.77208713       9.19402542
O        3.00000000       9.00000000       0.00000000
H        3.64197553       9.37373506      -0.60367323
H        3.43807311       9.00749613       0.85103913
