393
Properties=species:S:1:pos:R:3 charge=-1 spin=1 pbc="F F F"
La       0.00000000       0.00000000       0.00000000
O        1.27500000       2.20836478       0.00000000
C        1.91500000       3.31687730       0.00000000
O        3.06675000       3.39092247      -0.55450000
O        1.40325000       4.35134464       0.55450000
O       -2.55000000       0.00000000       0.00000000
C       -3.83000000       0.00000000       0.00000000
O       -4.47000000       0.00000000       1.10900000
O       -4.47000000       0.00000000      -1.10900000
O        1.90494094       0.00000000       1.64972725
H        2.34782632       0.75695033       2.03327723
H        2.34782632      -0.75695033       2.03327723
O        1.90494094       0.00000000      -1.64972725
H        2.34782632       0.75695033      -2.03327723
H        2.34782632      -0.75695033      -2.03327723
O       -0.95247047       1.64972725       1.64972725
H       -1.12142676       2.58217019       1.51468732
H       -1.22639956       1.48438428       2.55186715
O       -0.95247047       1.64972725      -1.64972725
H       -1.53175214       2.39018645      -1.46976958
H       -0.81607417       1.67636802      -2.59678488
O       -0.95247047      -1.64972725       1.64972725
H       -1.28710702      -1.47238442       2.52881754
H       -1.06071930      -2.59417005       1.53773692
O       -0.95247047      -1.64972725      -1.64972725
H       -1.78508795      -2.11874644      -1.59494609
H       -0.56273837      -1.94780803      -2.47160837
O        1.32000000      -2.28630707       0.00000000
H        1.11076973      -3.08362480       0.48655829
H        2.11511254      -2.50376721      -0.48655829
O       -3.00000000      -3.00000000       0.00000000
H       -3.48853021      -2.70187398       0.76726198
H       -3.54861948      -3.68470015      -0.38266723
O       -3.00000000       3.00000000       0.00000000
H       -3.43046056       2.38493963       0.59383187
H       -3.65648987       3.67781942      -0.16066650
O        3.00000000      -3.00000000      -3.00000000
H        3.56762599      -3.57295642      -2.48448713
H        3.60019104      -2.38891900      -3.42729681
O        3.00000000      -3.00000000       3.00000000
H        2.09520693      -3.28870757       3.11928656
H        3.30381269      -3.47583996       2.22701486
O        3.00000000       3.00000000       3.00000000
H        3.33315501       3.44594910       2.22130303
H        2.06174740       3.18949795       3.00210434
O        0.00000000      -6.00000000       0.00000000
H       -0.31413038      -5.27995294      -0.54688772
H        0.38996553      -6.61826894      -0.61798240
O        0.00000000       0.00000000      -6.00000000
H       -0.10132785       0.27789360      -5.08964861
H       -0.61055062       0.55187974      -6.48876224
O        0.00000000       0.00000000       6.00000000
H       -0.54194344      -0.58781219       6.52631358
H        0.18196778      -0.49320078       5.20007965
O        6.00000000       0.00000000       0.00000000
H        5.62429254      -0.63090644       0.61402997
H        6.56072324       0.55636163       0.54063206
O       -6.00000000      -3.00000000       0.00000000
H       -6.61651120      -3.43810152      -0.58669655
H       -6.55158733      -2.46997545       0.57537573
O       -6.00000000       3.00000000       0.00000000
H       -6.59748846       3.55266264      -0.50378903
H       -6.45939758       2.16448307       0.08424462
O       -3.00000000      -6.00000000       0.00000000
H       -2.33645463      -6.55650279       0.40773034
H       -3.51556335      -6.59822893      -0.54087745
O       -3.00000000       0.00000000      -6.00000000
H       -3.31582914      -0.23829819      -5.12839357
H       -3.58770709      -0.45718801      -6.60150756
O       -3.00000000       0.00000000       6.00000000
H       -3.19566440       0.61262760       5.29103265
H       -3.68767916      -0.66318695       5.94073557
O       -3.00000000       6.00000000       0.00000000
H       -3.46083730       6.57206164       0.61368258
H       -2.22723951       5.70451491       0.48141628
O        0.00000000      -6.00000000      -3.00000000
H        0.48586015      -5.44982697      -3.61439514
H       -0.58798252      -6.51514940      -3.55238527
O        0.00000000      -6.00000000       3.00000000
H       -0.57907859      -5.53670821       2.39480536
H        0.41192657      -5.30694770       3.51597175
O        0.00000000      -3.00000000      -6.00000000
H       -0.54610580      -2.45096339      -5.43736415
H        0.45598937      -3.58493725      -5.39489343
O        0.00000000      -3.00000000       6.00000000
H       -0.50674318      -2.95784880       5.18903362
H       -0.48224164      -3.61504132       6.55262918
O        0.00000000       3.00000000      -6.00000000
H       -0.10020278       3.47780275      -5.17665574
H       -0.49939403       3.51145898      -6.63659026
O        0.00000000       3.00000000       6.00000000
H       -0.28116772       2.86469400       5.09508628
H       -0.55015165       2.40828922       6.51326734
O        0.00000000       6.00000000      -3.00000000
H        0.42320009       6.38300824      -2.23160023
H       -0.04598100       5.06361074      -2.80688670
O        0.00000000       6.00000000       3.00000000
H       -0.10160495       5.05728976       2.86882956
H        0.27806127       6.33245786       2.14654494
O        3.00000000      -6.00000000       0.00000000
H        2.60051880      -5.35403427       0.58255891
H        3.58797257      -5.48974524      -0.55692026
O        3.00000000       0.00000000      -6.00000000
H        2.98590269      -0.59025651      -5.24658752
H        3.61647467      -0.40458098      -6.61033192
O        3.00000000       0.00000000       6.00000000
H        2.39000704      -0.37828830       6.63327592
H        2.78278349      -0.42847628       5.17207675
O        6.00000000      -3.00000000       0.00000000
H        5.16754160      -3.04401085      -0.47043374
H        6.59139382      -2.54642796      -0.60063100
O        6.00000000       0.00000000      -3.00000000
H        5.44396609      -0.54512378      -3.55668501
H        5.38785635       0.45593133      -2.42238541
O        6.00000000       0.00000000       3.00000000
H        5.56886825      -0.65094272       3.55374256
H        6.32467305       0.65944869       3.61314491
O        6.00000000       3.00000000       0.00000000
H        6.57167995       3.63991359       0.42417504
H        5.28755453       2.86352576       0.62452227
O       -6.00000000      -3.00000000      -3.00000000
H       -5.05411865      -2.86947454      -2.93289254
H       -6.35741328      -2.11781909      -3.10121477
O       -6.00000000      -3.00000000       3.00000000
H       -5.69514910      -2.14564629       3.30557733
H       -6.88049283      -3.08546180       3.36559608
O       -6.00000000       3.00000000      -3.00000000
H       -6.83825216       2.55001901      -3.10527235
H       -5.36100198       2.41554904      -3.40783630
O       -6.00000000       3.00000000       3.00000000
H       -6.95428289       2.95219144       3.05736163
H       -5.69839814       2.14161978       3.29740807
O       -3.00000000      -6.00000000      -3.00000000
H       -3.21580096      -6.91752574      -3.16675819
H       -3.63420094      -5.50603076      -3.51963005
O       -3.00000000      -6.00000000       3.00000000
H       -3.56355653      -5.22645094       2.98394591
H       -3.49841606      -6.64979143       3.49556470
O       -3.00000000      -3.00000000      -6.00000000
H       -3.53742334      -3.65913217      -5.56073610
H       -3.08186958      -3.20538828      -6.93131352
O       -3.00000000      -3.00000000       6.00000000
H       -3.59149971      -3.15893610       5.26440551
H       -3.45562497      -3.36648473       6.75784343
O       -3.00000000       3.00000000      -6.00000000
H       -3.17506899       2.71816829      -6.89786055
H       -3.62430978       2.50696416      -5.46766101
O       -3.00000000       3.00000000       6.00000000
H       -3.31458249       3.28507332       6.85790611
H       -3.38983388       3.61970048       5.38336988
O       -3.00000000       6.00000000      -3.00000000
H       -2.73325666       5.24187695      -2.48006802
H       -2.74189775       6.75573293      -2.47228530
O       -3.00000000       6.00000000       3.00000000
H       -2.62285094       5.32580867       3.56520480
H       -2.41229786       6.74948858       3.09541963
O        3.00000000      -6.00000000      -3.00000000
H        2.73505971      -6.89069010      -2.77041424
H        3.78741465      -6.11351483      -3.53228225
O        3.00000000      -6.00000000       3.00000000
H        3.48737109      -6.76191215       2.68664537
H        3.63259449      -5.50983576       3.52516195
O        3.00000000      -3.00000000      -6.00000000
H        2.66347716      -3.32141652      -6.83646616
H        3.41756233      -3.76291663      -5.60021037
O        3.00000000      -3.00000000       6.00000000
H        3.49037169      -3.63547512       5.47852246
H        3.08932747      -3.30930797       6.90143276
O        3.00000000       3.00000000      -6.00000000
H        3.47981818       2.69121150      -5.23145851
H        3.38016879       2.51374695      -6.73161568
O        3.00000000       3.00000000       6.00000000
H        2.42088019       2.40435946       5.52453767
H        2.41934802       3.47678602       6.59308533
O        3.00000000       6.00000000      -3.00000000
H        3.25116153       6.47837830      -2.20987094
H        3.04035450       5.07815421      -2.74543429
O        3.00000000       6.00000000       3.00000000
H        2.93532498       6.08403452       2.04869186
H        3.48884469       6.77504697       3.27670363
O        6.00000000      -3.00000000      -3.00000000
H        6.94309603      -2.98357386      -3.16288613
H        5.64267540      -3.53053930      -3.71209481
O        6.00000000      -3.00000000       3.00000000
H        6.80208859      -2.71615333       3.43853939
H        5.42261172      -3.27691551       3.71145795
O        6.00000000       3.00000000      -3.00000000
H        5.39093984       3.51850979      -2.47423850
H        6.86419712       3.34585919      -2.77689331
O        6.00000000       3.00000000       3.00000000
H        5.32993278       3.50386539       3.46191063
H        6.68481576       3.63816251       2.79998043
O       -6.00000000      -6.00000000       0.00000000
H       -6.02187231      -6.77546640       0.56071856
H       -6.84620171      -6.00340303      -0.44739571
O       -6.00000000       0.00000000      -6.00000000
H       -6.92367986       0.08489883      -6.23630393
H       -6.00324668      -0.08820048      -5.04687778
O       -6.00000000       0.00000000       6.00000000
H       -6.77644932       0.29629978       5.52506345
H       -6.15584480       0.26794320       6.90562171
O       -6.00000000       6.00000000       0.00000000
H       -6.72149393       5.72147802       0.56400696
H       -6.15681722       6.93270708      -0.14730138
O        0.00000000      -6.00000000      -6.00000000
H        0.26563410      -6.91718253      -5.93331736
H        0.46467412      -5.67090282      -6.76941851
O        0.00000000      -6.00000000       6.00000000
H       -0.41676659      -6.79632534       5.67075327
H        0.54867727      -6.29856364       6.72528949
O        0.00000000       6.00000000      -6.00000000
H        0.35913907       6.82606111      -5.67615744
H       -0.17735544       6.16224988      -6.92652677
O        0.00000000       6.00000000       6.00000000
H       -0.20094919       6.08222969       6.93224972
H       -0.45322927       6.73717652       5.59087185
O        6.00000000      -6.00000000       0.00000000
H        6.93010793      -5.80200756       0.10922490
H        5.91184538      -6.90725941       0.29213175
O        6.00000000       0.00000000      -6.00000000
H        6.00603408       0.55266887      -6.78150659
H        6.85453450       0.14789754      -5.59487169
O        6.00000000       0.00000000       6.00000000
H        6.94411025      -0.11878711       6.10381373
H        5.68543643       0.20351815       6.88083027
O        6.00000000       6.00000000       0.00000000
H        6.41136660       6.86279851       0.05087329
H        5.17669096       6.09809165       0.47830126
O       -9.00000000       0.00000000       0.00000000
H       -9.79518755      -0.40079904      -0.35109647
H       -8.29044700      -0.38229472      -0.51634982
O       -6.00000000      -6.00000000      -3.00000000
H       -6.61752421      -5.49899267      -3.53281080
H       -6.15675064      -6.91200629      -3.24475622
O       -6.00000000      -6.00000000       3.00000000
H       -5.90427876      -5.66669426       3.89217519
H       -6.76814273      -5.54490906       2.65491911
O       -6.00000000      -3.00000000      -6.00000000
H       -6.74163109      -3.60321247      -6.04847559
H       -5.86298538      -2.71502992      -6.90346604
O       -6.00000000      -3.00000000       6.00000000
H       -6.09618941      -3.92913410       6.20901977
H       -6.85239247      -2.61762665       6.20844551
O       -6.00000000       3.00000000      -6.00000000
H       -6.12234594       2.96900497      -6.94884278
H       -6.01908906       3.93275490      -5.78590715
O       -6.00000000       3.00000000       6.00000000
H       -6.00961933       3.12609905       6.94880891
H       -6.07865907       3.88330523       5.63969947
O       -6.00000000       6.00000000      -3.00000000
H       -6.94888930       5.92854942      -3.10361346
H       -5.82504167       6.94046907      -3.03375420
O       -6.00000000       6.00000000       3.00000000
H       -6.79747035       6.06487697       3.52541779
H       -5.73978874       6.90812144       2.84560637
O       -3.00000000      -6.00000000      -6.00000000
H       -2.52759314      -5.95053890      -6.83103381
H       -3.66778371      -6.67068513      -6.14310209
O       -3.00000000      -6.00000000       6.00000000
H       -2.50081109      -5.93991973       6.81451374
H       -3.91336482      -6.05203963       6.28158198
O       -3.00000000       6.00000000      -6.00000000
H       -2.78494041       6.88313989      -5.69992476
H       -3.95437406       5.95307320      -5.94343262
O       -3.00000000       6.00000000       6.00000000
H       -3.08487632       5.97806550       6.95317718
H       -3.77247312       6.47986440       5.70125717
O        0.00000000      -9.00000000       0.00000000
H        0.67154920      -8.82916128       0.66035418
H        0.27110469      -9.82074315      -0.41123566
O        0.00000000       0.00000000      -9.00000000
H       -0.59519491      -0.17917714      -9.72792198
H        0.62048356       0.63973721      -9.34923960
O        0.00000000       0.00000000       9.00000000
H       -0.69397990      -0.62357922       9.21394555
H        0.57892167      -0.01440951       9.76215084
O        0.00000000       9.00000000       0.00000000
H        0.45395713       8.24959430      -0.38346583
H        0.41836500       9.76299890      -0.39879223
O        3.00000000      -6.00000000      -6.00000000
H        2.84751829      -6.87915713      -5.65349761
H        2.86605664      -6.08743452      -6.94374055
O        3.00000000      -6.00000000       6.00000000
H        2.83496442      -6.85475709       5.60202335
H        3.07506510      -6.18189878       6.93675499
O        3.00000000       6.00000000      -6.00000000
H        3.70026017       6.65251452      -5.99039135
H        2.82798992       5.84622912      -6.92897733
O        3.00000000       6.00000000       6.00000000
H        3.95264578       6.00730221       6.09297597
H        2.70615335       6.77472892       6.47925054
O        6.00000000      -6.00000000      -3.00000000
H        6.76843252      -5.55902137      -2.63767259
H        6.33591263      -6.83169777      -3.33417564
O        6.00000000      -6.00000000       3.00000000
H        6.87065124      -5.62333027       2.87225741
H        6.16409530      -6.85224014       3.40372183
O        6.00000000      -3.00000000      -6.00000000
H        5.98646064      -3.69826052      -6.65458442
H        6.88698060      -2.64334079      -6.04786921
O        6.00000000      -3.00000000       6.00000000
H        6.82111608      -3.46291421       6.16646518
H        5.73138339      -2.67167049       6.85806567
O        6.00000000       3.00000000      -6.00000000
H        6.92139041       3.09279711      -5.75780124
H        5.77887927       3.82878382      -6.42479978
O        6.00000000       3.00000000       6.00000000
H        5.88766482       3.81949633       6.48170365
H        6.94391657       2.84159731       6.01272506
O        6.00000000       6.00000000      -3.00000000
H        5.79632519       6.38060742      -3.85433389
H        6.86607748       6.34546947      -2.78368430
O        6.00000000       6.00000000       3.00000000
H        5.96931017       6.94127258       2.82883951
H        6.25079111       5.93164469       3.92122918
O        9.00000000       0.00000000       0.00000000
H        8.53075484      -0.50494064      -0.66413535
H        9.79901727       0.29068425      -0.43966568
O       -9.00000000      -3.00000000       0.00000000
H       -9.59626504      -3.67725692      -0.31941025
H       -9.18205325      -2.94291173       0.93799221
O       -9.00000000       0.00000000      -3.00000000
H       -8.63704945      -0.26516887      -3.84509420
H       -9.20553085       0.92863424      -3.10783020
O       -9.00000000       0.00000000       3.00000000
H       -9.26490984      -0.71219868       3.58208905
H       -9.49911896       0.75761673       3.30517042
O       -9.00000000       3.00000000       0.00000000
H       -9.14818119       3.14589704       0.93433839
H       -9.87643422       2.99983225      -0.38483097
O       -3.00000000      -9.00000000       0.00000000
H       -3.20346914      -9.61292138      -0.70651223
H       -3.01007935      -9.53596807       0.79301228
O       -3.00000000       0.00000000      -9.00000000
H       -3.62656072      -0.58329407      -9.42827740
H       -3.28589418       0.88025302      -9.24423550
O       -3.00000000       0.00000000       9.00000000
H       -3.29045760       0.87250971       9.26569350
H       -3.72351456      -0.57794285       9.24236457
O       -3.00000000       9.00000000       0.00000000
H       -3.43891225       9.59828972       0.60467949
H       -3.32811616       9.24869589      -0.86413077
O        0.00000000      -9.00000000      -3.00000000
H        0.89128913      -9.15693292      -3.31178132
H       -0.47609818      -9.80034299      -3.22138984
O        0.00000000      -9.00000000       3.00000000
H       -0.87253075      -9.24538063       3.30775035
H        0.59949292      -9.49319909       3.55999530
O        0.00000000      -3.00000000      -9.00000000
H       -0.76589871      -3.26795980      -9.50776820
H        0.74705098      -3.32152536      -9.50474559
O        0.00000000      -3.00000000       9.00000000
H       -0.51171406      -3.67932817       9.43919677
H        0.89215898      -3.12463455       9.32365169
O        0.00000000       3.00000000      -9.00000000
H       -0.87546356       3.01555533      -9.38672137
H        0.54341032       3.49087488      -9.61642430
O        0.00000000       3.00000000       9.00000000
H        0.73623462       3.42522780       9.43974053
H       -0.66366551       2.90267219       9.68286692
O        0.00000000       9.00000000      -3.00000000
H       -0.88317096       9.07365502      -3.36168472
H        0.57727049       9.23386076      -3.72684232
O        0.00000000       9.00000000       3.00000000
H       -0.76276591       9.55600614       3.15898802
H        0.73705716       9.49617024       3.35608100
O        3.00000000      -9.00000000       0.00000000
H        3.70500414      -9.42529018       0.48818978
H        3.21587142      -9.15716072      -0.91920176
O        3.00000000       0.00000000      -9.00000000
H        3.25221519      -0.55213630      -9.74011137
H        3.47580516       0.81895017      -9.13842656
O        3.00000000       0.00000000       9.00000000
H        3.42538786      -0.84748922       9.13053362
H        3.61181382       0.63540227       9.37172523
O        3.00000000       9.00000000       0.00000000
H        3.44668290       9.71825550      -0.44812415
H        3.30919443       9.05213900       0.90438497
O        9.00000000      -3.00000000       0.00000000
H        9.46937283      -2.93662024       0.83180766
H        9.46744671      -3.67771024      -0.48829729
O        9.00000000       0.00000000      -3.00000000
H        9.22060070       0.85503324      -3.36943922
H        9.17856220      -0.62017414      -3.70691684
O        9.00000000       0.00000000       3.00000000
H        9.67661278      -0.67194052       3.08320413
H        9.46912553       0.82748773       3.10685101
O        9.00000000       3.00000000       0.00000000
H        9.58499699       3.13046506       0.74631711
H        9.46100785       3.39759502      -0.73866217
O       -9.00000000      -3.00000000      -3.00000000
H       -9.87588592      -2.61401255      -2.99167003
H       -9.01612346      -3.61591641      -3.73254273
