397
Properties=species:S:1:pos:R:3 charge=0 spin=1 pbc="F F F"
La       0.00000000       0.00000000       0.00000000
O        1.27500000       2.20836478       0.00000000
N        1.90500000       3.29955679       0.00000000
O        3.03825000       3.37273594      -0.54550000
O        1.40175000       4.31756965       0.54550000
O       -2.55000000       0.00000000       0.00000000
N       -3.81000000       0.00000000       0.00000000
O       -4.44000000       0.00000000       1.09100000
O       -4.44000000       0.00000000      -1.09100000
O        1.27500000      -2.20836478       0.00000000
N        1.90500000      -3.29955679       0.00000000
O        3.03825000      -3.37273594      -0.54550000
O        1.40175000      -4.31756965       0.54550000
O        1.90494094       0.00000000       1.64972725
H        2.34782632       0.75695033       2.03327723
H        2.34782632      -0.75695033       2.03327723
O        1.90494094       0.00000000      -1.64972725
H        2.34782632       0.75695033      -2.03327723
H        2.34782632      -0.75695033      -2.03327723
O       -0.95247047       1.64972725       1.64972725
H       -1.12142676       2.58217019       1.51468732
H       -1.22639956       1.48438428       2.55186715
O       -0.95247047       1.64972725      -1.64972725
H       -1.53175214       2.39018645      -1.46976958
H       -0.81607417       1.67636802      -2.59678488
O       -0.95247047      -1.64972725       1.64972725
H       -1.28710702      -1.47238442       2.52881754
H       -1.06071930      -2.59417005       1.53773692
O       -0.95247047      -1.64972725      -1.64972725
H       -1.78508795      -2.11874644      -1.59494609
H       -0.56273837      -1.94780803      -2.47160837
O       -3.00000000      -3.00000000       0.00000000
H       -3.45854424      -3.65175372      -0.53026985
H       -3.44099546      -3.02810661       0.84909650
O       -3.00000000       3.00000000       0.00000000
H       -3.62995197       2.44386983       0.45837930
H       -3.53491462       3.53764492      -0.58398299
O        3.00000000      -3.00000000       3.00000000
H        2.09520693      -3.28870757       3.11928656
H        3.30381269      -3.47583996       2.22701486
O        3.00000000       3.00000000       3.00000000
H        3.33315501       3.44594910       2.22130303
H        2.06174740       3.18949795       3.00210434
O        0.00000000       0.00000000      -6.00000000
H       -0.12348291       0.45849254      -5.16887522
H        0.57052879       0.57570035      -6.50921297
O        0.00000000       0.00000000       6.00000000
H        0.59282335       0.54750657       6.51480954
H        0.01717505       0.38549656       5.12402668
O        6.00000000       0.00000000       0.00000000
H        6.57577248      -0.49832722       0.57998954
H        5.21662662       0.16614482       0.52436045
O       -6.00000000      -3.00000000       0.00000000
H       -6.63169252      -3.42555433      -0.57974125
H       -6.01272704      -2.08029962      -0.26499260
O       -6.00000000       3.00000000       0.00000000
H       -6.61651120       2.56189848      -0.58669655
H       -6.55158733       3.53002455       0.57537573
O       -3.00000000      -6.00000000       0.00000000
H       -2.32202293      -5.71071672       0.61065057
H       -3.64848306      -6.43795306       0.55127007
O       -3.00000000       0.00000000      -6.00000000
H       -2.38850207       0.44079414      -6.58991749
H       -2.88541941       0.44421982      -5.15989770
O       -3.00000000       0.00000000       6.00000000
H       -2.59667193       0.00569324       5.13194131
H       -2.43268811      -0.56504057       6.52451713
O       -3.00000000       6.00000000       0.00000000
H       -3.49519892       6.58878344       0.56951201
H       -2.16379472       6.44532763      -0.13665969
O        0.00000000      -6.00000000      -3.00000000
H       -0.29745807      -6.15687488      -2.10381877
H        0.05275132      -5.04696995      -3.07199210
O        0.00000000      -6.00000000       3.00000000
H       -0.43830220      -5.15400097       2.90830118
H       -0.03504266      -6.38461899       2.12417348
O        0.00000000      -3.00000000      -6.00000000
H       -0.53037275      -2.49192925      -6.61384094
H       -0.46860641      -2.93588242      -5.16781684
O        0.00000000      -3.00000000       6.00000000
H       -0.53756326      -3.48669013       6.62481221
H       -0.51499170      -2.99500084       5.19316024
O        0.00000000       3.00000000      -6.00000000
H        0.26590605       3.32223885      -5.13878694
H        0.40722441       3.60584304      -6.61915614
O        0.00000000       3.00000000       6.00000000
H       -0.66923266       3.47783553       6.48993132
H       -0.36673093       2.90716366       5.12072662
O        0.00000000       6.00000000      -3.00000000
H        0.51039172       5.19722097      -2.89380226
H       -0.18103142       6.28935619      -2.10572238
O        0.00000000       6.00000000       3.00000000
H        0.33264528       6.37470728       2.18441836
H       -0.08402986       5.06413953       2.81741851
O        3.00000000       0.00000000      -6.00000000
H        3.65922701      -0.63269925      -6.28520739
H        3.47520052       0.59826952      -5.42338064
O        3.00000000       0.00000000       6.00000000
H        3.57677385      -0.53515334       6.54513730
H        2.87374651      -0.51716749       5.20449407
O        6.00000000      -3.00000000       0.00000000
H        5.33386777      -2.62057701       0.57318224
H        6.45440580      -3.63829263       0.54984518
O        6.00000000       0.00000000      -3.00000000
H        5.27484382       0.37280639      -3.50139381
H        6.43367138      -0.59511886      -3.61155091
O        6.00000000       0.00000000       3.00000000
H        5.32169489       0.62038304       3.26694362
H        6.68001776       0.08571845       3.66817665
O        6.00000000       3.00000000       0.00000000
H        5.44396609       2.45487622      -0.55668501
H        5.38785635       3.45593133       0.57761459
O       -6.00000000      -3.00000000      -3.00000000
H       -6.18830356      -2.08928127      -3.22663848
H       -5.08498386      -2.99312852      -2.71905501
O       -6.00000000      -3.00000000       3.00000000
H       -5.04727485      -2.97578284       3.08921971
H       -6.26905829      -2.08272282       3.04941721
O       -6.00000000       3.00000000      -3.00000000
H       -5.18122855       3.43330234      -3.24102746
H       -5.81737828       2.06628290      -3.10513574
O       -6.00000000       3.00000000       3.00000000
H       -5.10536224       3.09624465       3.32648445
H       -6.27434874       2.13456491       3.30329311
O       -3.00000000      -6.00000000      -3.00000000
H       -3.21636888      -5.15054781      -2.61549080
H       -3.25566110      -6.63737832      -2.33320309
O       -3.00000000      -6.00000000       3.00000000
H       -2.72840757      -6.84765533       3.35206509
H       -3.55019751      -5.62065840       3.68528424
O       -3.00000000      -3.00000000      -6.00000000
H       -3.30286680      -2.53466119      -5.22027996
H       -3.47112292      -2.58735601      -6.72387842
O       -3.00000000      -3.00000000       6.00000000
H       -3.51059961      -3.37408643       5.28196154
H       -3.51469050      -3.18928781       6.78453531
O       -3.00000000       3.00000000      -6.00000000
H       -3.39475402       3.13343673      -6.86173995
H       -3.57523786       3.47088077      -5.39700370
O       -3.00000000       3.00000000       6.00000000
H       -3.32699519       2.42125802       6.68874067
H       -3.41009013       2.67484334       5.19854440
O       -3.00000000       6.00000000      -3.00000000
H       -2.93600483       6.87652042      -3.37927354
H       -2.44420842       5.45591926      -3.55794598
O       -3.00000000       6.00000000       3.00000000
H       -2.43410358       6.77198292       2.99404533
H       -2.53622716       5.36669420       3.54778678
O        3.00000000      -6.00000000      -3.00000000
H        2.84327521      -6.25002285      -2.08941900
H        3.22264311      -5.06997460      -2.95859178
O        3.00000000      -6.00000000       3.00000000
H        3.52296205      -6.12668355       2.20836005
H        2.70572017      -6.87959288       3.23653243
O        3.00000000      -3.00000000      -6.00000000
H        2.68821462      -3.50398129      -5.24831884
H        2.63656820      -3.45363875      -6.76050053
O        3.00000000      -3.00000000       6.00000000
H        2.38763273      -3.57737814       5.54406947
H        2.52086645      -2.70564562       6.77460853
O        3.00000000       3.00000000      -6.00000000
H        3.49857707       3.34810569      -6.73923959
H        3.19505867       3.59616067      -5.27696721
O        3.00000000       3.00000000       6.00000000
H        2.76146428       2.77101220       6.89827453
H        2.51134056       2.38158061       5.45685983
O        3.00000000       6.00000000      -3.00000000
H        2.89587789       6.92493716      -2.77665793
H        3.28029517       5.58608602      -2.18370246
O        3.00000000       6.00000000       3.00000000
H        3.12574802       6.82463883       3.46945721
H        3.33803885       6.17038569       2.12083546
O        6.00000000      -3.00000000      -3.00000000
H        6.84078279      -3.04847474      -2.54506447
H        5.40797391      -3.53109255      -2.46738602
O        6.00000000      -3.00000000       3.00000000
H        5.43077322      -2.72577094       3.71903486
H        6.69048021      -2.33756605       2.97450115
O        6.00000000       3.00000000      -3.00000000
H        6.68839530       3.57525801      -3.33379930
H        5.21995649       3.24544091      -3.49751656
O        6.00000000       3.00000000       3.00000000
H        5.50724662       3.79025018       3.22120264
H        6.75130608       3.31793300       2.49931086
O       -6.00000000      -6.00000000       0.00000000
H       -6.70375130      -5.85649377       0.63274949
H       -6.27778475      -6.76908309      -0.49757277
O       -6.00000000       0.00000000      -6.00000000
H       -5.69970420       0.41053021      -5.18912441
H       -6.89605399       0.31739933      -6.11214608
O       -6.00000000       0.00000000       6.00000000
H       -6.16470140       0.26448951       6.90506938
H       -6.81987895       0.18639494       5.54252074
O       -6.00000000       6.00000000       0.00000000
H       -6.70350742       5.87649261      -0.63722450
H       -6.06245659       6.92164164       0.25081408
O        0.00000000      -6.00000000      -6.00000000
H       -0.28251948      -5.78717209      -6.88944863
H        0.13338793      -6.94779792      -6.01089077
O        0.00000000      -6.00000000       6.00000000
H        0.50940144      -5.97743029       6.81008186
H        0.41204142      -6.68729555       5.47647490
O        0.00000000       6.00000000      -6.00000000
H        0.23693390       6.32927715      -6.86698946
H       -0.34129953       6.76546033      -5.53759655
O        0.00000000       6.00000000       6.00000000
H        0.18222872       6.85868745       5.61831898
H       -0.38410731       6.19404101       6.85500965
O        6.00000000      -6.00000000       0.00000000
H        5.07095444      -5.97740108      -0.22933706
H        6.16290484      -6.90890571       0.25215919
O        6.00000000       0.00000000      -6.00000000
H        5.89252042       0.62900393      -6.71346621
H        6.88732990      -0.34097524      -6.11230925
O        6.00000000       0.00000000       6.00000000
H        5.74935241       0.47742971       6.79086566
H        6.87827194      -0.33108517       6.18775741
O        6.00000000       6.00000000       0.00000000
H        6.87049589       5.61536087       0.10257428
H        6.08657471       6.88657606       0.35031351
O       -9.00000000       0.00000000       0.00000000
H       -9.69236777      -0.53838715       0.38340317
H       -8.19059998      -0.46778215       0.20562905
O       -6.00000000      -6.00000000      -3.00000000
H       -5.71293048      -6.18897332      -3.89337115
H       -6.95325583      -5.93927047      -3.06202484
O       -6.00000000      -6.00000000       3.00000000
H       -6.02828688      -6.91457278       3.28104862
H       -6.47349228      -5.52443466       3.68255001
O       -6.00000000      -3.00000000      -6.00000000
H       -6.32662110      -2.81272678      -6.88004502
H       -6.49205325      -3.77205989      -5.72064544
O       -6.00000000      -3.00000000       6.00000000
H       -6.35310401      -2.66211706       6.82303373
H       -6.21716670      -3.93218133       6.01041268
O       -6.00000000       3.00000000      -6.00000000
H       -6.26837258       3.00216783      -6.91880536
H       -6.69362911       3.47877410      -5.54625353
O       -6.00000000       3.00000000       6.00000000
H       -6.94817463       3.11159721       5.93113221
H       -5.66966670       3.87469871       6.20497297
O       -6.00000000       6.00000000      -3.00000000
H       -5.62947153       6.86447764      -2.82218295
H       -5.91361543       5.89207163      -3.94716472
O       -6.00000000       6.00000000       3.00000000
H       -5.75788706       6.87414651       3.30574670
H       -6.54066258       5.64088819       3.70353004
O       -3.00000000      -6.00000000      -6.00000000
H       -3.77560791      -5.75196674      -6.50313388
H       -2.93003177      -6.94728371      -6.11827870
O       -3.00000000      -6.00000000       6.00000000
H       -2.66008504      -6.86716380       6.22071840
H       -3.88485564      -5.98907072       6.36488750
O       -3.00000000       6.00000000      -6.00000000
H       -3.87816562       6.38086269      -6.00077387
H       -2.78505971       5.89056573      -6.92631347
O       -3.00000000       6.00000000       6.00000000
H       -3.17494532       5.67471911       6.88307322
H       -3.43881667       6.85001073       5.96603630
O        0.00000000      -9.00000000       0.00000000
H       -0.25237259      -9.83558967      -0.39284835
H       -0.48643419      -8.34365109      -0.49881832
O        0.00000000       0.00000000      -9.00000000
H       -0.57271090      -0.55241509      -8.46795523
H       -0.24748955      -0.19756773      -9.90329826
O        0.00000000       0.00000000       9.00000000
H        0.44309775      -0.57276781       9.62596586
H       -0.51519102       0.59631349       9.54334177
O        0.00000000       9.00000000       0.00000000
H        0.57923557       9.51040321       0.56586797
H       -0.57407456       9.65022874      -0.40481208
O        3.00000000      -6.00000000      -6.00000000
H        2.94674348      -6.40124524      -6.86740869
H        3.76005449      -6.41343755      -5.59058774
O        3.00000000      -6.00000000       6.00000000
H        3.27039909      -6.22321735       6.89066839
H        3.82071069      -5.90675646       5.51629404
O        3.00000000       6.00000000      -6.00000000
H        2.95888868       6.01077628      -6.95625602
H        3.67446782       6.64311255      -5.78152519
O        3.00000000       6.00000000       6.00000000
H        3.88830459       5.65593211       6.09361671
H        3.02090146       6.84422425       6.45064440
O        6.00000000      -6.00000000      -3.00000000
H        5.77157659      -6.92779605      -2.94299934
H        6.79256010      -5.98048853      -3.53637639
O        6.00000000      -6.00000000       3.00000000
H        6.93808211      -5.80970382       3.00460021
H        5.92525903      -6.84922833       3.43526644
O        6.00000000      -3.00000000      -6.00000000
H        5.80352206      -3.08145419      -6.93327031
H        6.28371276      -3.87559034      -5.73716837
O        6.00000000      -3.00000000       6.00000000
H        5.77180336      -2.80340988       6.90857606
H        6.54913654      -3.78213179       6.05432098
O        6.00000000       3.00000000      -6.00000000
H        5.87757211       3.94715002      -5.93557882
H        6.94889920       2.88331555      -6.04697757
O        6.00000000       3.00000000       6.00000000
H        6.93617849       3.16537113       5.88840226
H        5.72939755       3.60743123       6.68850088
O        6.00000000       6.00000000      -3.00000000
H        6.80939080       6.37597380      -2.65393342
H        5.93928055       6.34106040      -3.89231317
O        6.00000000       6.00000000       3.00000000
H        5.70301440       6.90914366       2.96140979
H        6.88020663       6.05067980       3.37269249
O        9.00000000       0.00000000       0.00000000
H        9.40711066      -0.57993405       0.64355983
H        9.72476305       0.52061562      -0.34627984
O       -9.00000000      -3.00000000       0.00000000
H       -9.91349430      -2.90802779      -0.27074178
H       -8.87663983      -3.94258141       0.11204642
O       -9.00000000       0.00000000      -3.00000000
H       -9.94371536       0.06034344      -3.14829643
H       -8.63389007      -0.19896506      -3.86174722
O       -9.00000000       0.00000000       3.00000000
H       -8.04534888       0.03810673       2.94151114
H       -9.17448027      -0.27615533       3.89973702
O       -9.00000000       3.00000000       0.00000000
H       -9.84641810       2.55891094      -0.07244777
H       -9.18512067       3.91249791      -0.22205796
O       -3.00000000      -9.00000000       0.00000000
H       -2.95438005      -9.92029927      -0.25922945
H       -2.99687123      -9.01979956       0.95699009
O       -3.00000000       0.00000000      -9.00000000
H       -3.45821225      -0.75081596      -9.37755631
H       -3.51934514       0.75791211      -9.26848036
O       -3.00000000       0.00000000       9.00000000
H       -3.26534223      -0.73663867       9.55062583
H       -3.68127531       0.65857334       9.13556161
O       -3.00000000       9.00000000       0.00000000
H       -3.04019849       9.36272038       0.88490104
H       -3.67370067       9.47618981      -0.48538903
O        0.00000000      -9.00000000      -3.00000000
H        0.95482981      -8.93375462      -3.01197571
H       -0.18181360      -9.89747156      -3.27878389
O        0.00000000      -9.00000000       3.00000000
H        0.76043557      -9.57818596       2.93941458
H       -0.56659971      -9.41597605       3.64973882
O        0.00000000      -3.00000000      -9.00000000
H        0.89128913      -3.15693292      -9.31178132
H       -0.47609818      -3.80034299      -9.22138984
O        0.00000000      -3.00000000       9.00000000
H       -0.87253075      -3.24538063       9.30775035
H        0.59949292      -3.49319909       9.55999530
O        0.00000000       3.00000000      -9.00000000
H        0.56385733       3.50179668      -9.58863983
H       -0.77611817       2.80029131      -9.52343946
O        0.00000000       3.00000000       9.00000000
H        0.83352724       3.41097205       9.22927308
H       -0.64152592       3.42431501       9.56976583
O        0.00000000       9.00000000      -3.00000000
H       -0.48543785       9.67581756      -3.47313060
H        0.92033083       9.21448761      -3.15237478
O        0.00000000       9.00000000       3.00000000
H       -0.65895518       9.63391909       3.28311923
H        0.72042407       9.10928388       3.62070768
O        3.00000000      -9.00000000       0.00000000
H        3.63210771      -9.24979439      -0.67399885
H        3.30694537      -9.44103989       0.79214910
O        3.00000000       0.00000000      -9.00000000
H        3.09907993       0.94380292      -9.12510418
H        3.30444435      -0.38432551      -9.82209451
O        3.00000000       0.00000000       9.00000000
H        3.40748909       0.80480991       9.32010230
H        3.41733052      -0.69769241       9.50526466
O        3.00000000       9.00000000       0.00000000
H        3.71837051       8.80197534       0.60080104
H        3.43227951       9.26932335      -0.81045123
O        9.00000000      -3.00000000       0.00000000
H        9.56023020      -3.63971709       0.43947243
H        9.28335730      -3.02070380      -0.91406336
O        9.00000000       0.00000000      -3.00000000
H        9.36609443      -0.73771267      -3.48783883
H        9.16235510       0.76078621      -3.55774277
O        9.00000000       0.00000000       3.00000000
H        9.30980122       0.90270940       2.92671433
H        9.74524480      -0.48102430       3.35980223
O        9.00000000       3.00000000       0.00000000
H        9.03794192       3.76999500      -0.56736228
H        9.30336681       3.31429451       0.85171555
O       -9.00000000      -3.00000000      -3.00000000
H       -8.93861774      -3.93477553      -2.80338166
H       -9.77324409      -2.92258155      -3.55886654
O       -9.00000000      -3.00000000       3.00000000
H       -9.95532201      -2.99917307       2.94007491
H       -8.81380697      -3.37700478       3.85990197
O       -9.00000000       3.00000000      -3.00000000
H       -9.86929548       2.87486257      -3.38065447
H       -8.63858217       3.75202569      -3.46911230
O       -9.00000000       3.00000000       3.00000000
H       -9.95220455       2.96148979       3.08975135
H       -8.81489978       3.91711552       2.79783951
O       -3.00000000      -9.00000000      -3.00000000
H       -3.81867872      -9.48878531      -2.91582212
H       -2.75946396      -9.09168181      -3.92193747
