391
Properties=species:S:1:pos:R:3 charge=0 spin=1 pbc="F F F"
La       0.00000000       0.00000000       0.00000000
O        1.27500000       2.20836478       0.00000000
H        1.76000000       3.04840942       0.00000000
O       -2.55000000       0.00000000       0.00000000
H       -3.52000000       0.00000000       0.00000000
O        1.27500000      -2.20836478       0.00000000
H        1.76000000      -3.04840942       0.00000000
O        1.90494094       0.00000000       1.64972725
H        2.34782632       0.75695033       2.03327723
H        2.34782632      -0.75695033       2.03327723
O        1.90494094       0.00000000      -1.64972725
H        2.34782632       0.75695033      -2.03327723
H        2.34782632      -0.75695033      -2.03327723
O       -0.95247047       1.64972725       1.64972725
H       -1.12142676       2.58217019       1.51468732
H       -1.22639956       1.48438428       2.55186715
O       -0.95247047       1.64972725      -1.64972725
H       -1.53175214       2.39018645      -1.46976958
H       -0.81607417       1.67636802      -2.59678488
O       -0.95247047      -1.64972725       1.64972725
H       -1.28710702      -1.47238442       2.52881754
H       -1.06071930      -2.59417005       1.53773692
O       -0.95247047      -1.64972725      -1.64972725
H       -1.78508795      -2.11874644      -1.59494609
H       -0.56273837      -1.94780803      -2.47160837
O       -3.00000000      -3.00000000       0.00000000
H       -3.45854424      -3.65175372      -0.53026985
H       -3.44099546      -3.02810661       0.84909650
O       -3.00000000       0.00000000      -3.00000000
H       -3.32778364      -0.79581274      -3.41889356
H       -3.50155378       0.70801037      -3.40422390
O       -3.00000000       0.00000000       3.00000000
H       -3.56789552      -0.74543368       3.19507728
H       -3.59647567       0.74591996       2.93634443
O       -3.00000000       3.00000000       0.00000000
H       -3.53886527       3.55566758      -0.56310710
H       -3.62745089       2.55691181       0.57114803
O        3.00000000      -3.00000000      -3.00000000
H        2.23896155      -3.48139483      -3.32451707
H        3.39577260      -3.58437836      -2.35339515
O        3.00000000      -3.00000000       3.00000000
H        2.40513654      -3.53245343       3.52807447
H        3.26579448      -3.57623911       2.28338739
O        3.00000000       3.00000000      -3.00000000
H        2.12974636       3.24686573      -2.68703395
H        3.55637467       3.04500662      -2.22240533
O        3.00000000       3.00000000       3.00000000
H        2.04837272       3.08712718       2.94480746
H        3.32256264       3.36442757       2.17575627
O        0.00000000      -6.00000000       0.00000000
H        0.59854002      -6.53331920      -0.52302229
H       -0.16132702      -5.22400238      -0.53668718
O        0.00000000       0.00000000      -6.00000000
H        0.57351141       0.30772000      -5.29812757
H        0.56530324      -0.53975573      -6.55256478
O        0.00000000       0.00000000       6.00000000
H        0.47684700      -0.29780497       5.22529943
H        0.59922981       0.60933111       6.43112768
O        0.00000000       6.00000000       0.00000000
H       -0.24968759       5.10859470       0.24348418
H       -0.49790609       6.55987973       0.59569795
O        6.00000000       0.00000000       0.00000000
H        6.51353322       0.54306657       0.59799178
H        5.20760370      -0.21534493       0.49190091
O       -6.00000000      -3.00000000       0.00000000
H       -6.58533996      -3.48654647       0.58041494
H       -6.58449010      -2.56650071      -0.62183723
O       -6.00000000       0.00000000      -3.00000000
H       -6.67482095       0.66655556      -3.12865538
H       -5.76873927       0.06829304      -2.07367048
O       -6.00000000       0.00000000       3.00000000
H       -6.34268574       0.27223294       2.14871418
H       -6.45695077       0.55559071       3.63146401
O       -6.00000000       3.00000000       0.00000000
H       -6.53221418       2.20461589      -0.01854792
H       -6.41739494       3.58289189      -0.63423210
O       -3.00000000      -6.00000000       0.00000000
H       -2.31058795      -6.61633665      -0.24712749
H       -3.66629352      -6.54199591       0.42252245
O       -3.00000000       0.00000000      -6.00000000
H       -2.34858667      -0.68714673      -6.14043465
H       -3.63503781      -0.12352932      -6.70547808
O       -3.00000000       0.00000000       6.00000000
H       -2.45321701      -0.58582196       5.47648034
H       -2.37655398       0.53597296       6.49018352
O       -3.00000000       6.00000000       0.00000000
H       -3.63928903       5.63068537       0.60921924
H       -3.52266889       6.29998498      -0.74367875
O        0.00000000      -6.00000000      -3.00000000
H       -0.33645673      -5.12837125      -3.20806740
H       -0.55340497      -6.59728898      -3.50321035
O        0.00000000      -6.00000000       3.00000000
H       -0.39948120      -5.35403427       3.58255891
H        0.58797257      -5.48974524       2.44307974
O        0.00000000      -3.00000000      -6.00000000
H       -0.66613223      -2.62057701      -5.42681776
H        0.45440580      -3.63829263      -5.45015482
O        0.00000000      -3.00000000       6.00000000
H       -0.48012700      -2.60891060       5.27009659
H        0.65081869      -3.56518293       5.58378476
O        0.00000000       3.00000000      -6.00000000
H       -0.42864840       2.40512605      -6.61531892
H       -0.50435289       2.91290787      -5.19112735
O        0.00000000       3.00000000       6.00000000
H       -0.61417808       2.56815029       5.40626356
H       -0.54819669       3.33793211       6.70817662
O        0.00000000       6.00000000      -3.00000000
H       -0.59682709       6.44093685      -3.60465193
H        0.08237196       5.11238033      -3.34868041
O        0.00000000       6.00000000       3.00000000
H        0.17020114       5.18143392       3.46606114
H       -0.66527952       6.44243987       3.52714510
O        3.00000000      -6.00000000       0.00000000
H        3.67019131      -6.67018822      -0.13387754
H        3.45102112      -5.30071973       0.47309502
O        3.00000000       0.00000000      -6.00000000
H        3.45609831       0.51442946      -5.33399061
H        3.67546663      -0.21089310      -6.64459350
O        3.00000000       0.00000000       6.00000000
H        3.67515129      -0.21181909       6.64462023
H        3.46296238       0.48826056       5.31919217
O        3.00000000       6.00000000       0.00000000
H        3.54475439       6.76285239      -0.19372848
H        3.38001650       5.29453641      -0.52358421
O        6.00000000      -3.00000000       0.00000000
H        6.66501425      -2.48618367      -0.45823648
H        5.16679083      -2.64866199      -0.31393617
O        6.00000000       0.00000000      -3.00000000
H        5.17771997      -0.09444984      -3.48079789
H        6.54554019       0.54912601      -3.56309712
O        6.00000000       0.00000000       3.00000000
H        5.11060071       0.27367231       3.22428599
H        6.56525949       0.57371891       3.51726218
O        6.00000000       3.00000000       0.00000000
H        6.75007888       3.56015400       0.19960212
H        5.28588587       3.61092297      -0.18178549
O       -6.00000000      -3.00000000      -3.00000000
H       -5.33972763      -3.66335656      -2.79942503
H       -6.80589628      -3.49765098      -3.13822639
O       -6.00000000      -3.00000000       3.00000000
H       -5.42147473      -3.50942378       3.56747490
H       -6.83347695      -2.97219240       3.46986673
O       -6.00000000       3.00000000      -3.00000000
H       -6.77273900       3.38135205      -3.41674558
H       -5.26390838       3.31771480      -3.52293238
O       -6.00000000       3.00000000       3.00000000
H       -6.76539190       3.13992452       2.44248030
H       -5.25349255       3.21773938       2.44183512
O       -3.00000000      -6.00000000      -3.00000000
H       -3.61342471      -5.50648961      -2.45558338
H       -2.70604790      -5.37207298      -3.65994822
O       -3.00000000      -6.00000000       3.00000000
H       -3.53817472      -5.23839014       2.78424499
H       -3.59637945      -6.59387706       3.45593139
O       -3.00000000      -3.00000000      -6.00000000
H       -3.65559401      -2.71742403      -5.36236440
H       -3.40133559      -2.82385577      -6.85096110
O       -3.00000000      -3.00000000       6.00000000
H       -3.37030044      -2.85435612       5.12942704
H       -3.55560235      -2.48622108       6.58614767
O       -3.00000000       3.00000000      -6.00000000
H       -3.14738492       2.66834168      -6.88572698
H       -3.49881341       2.40873175      -5.43624573
O       -3.00000000       3.00000000       6.00000000
H       -3.70152398       3.10679656       5.35759014
H       -3.44024568       2.67081920       6.78361698
O       -3.00000000       6.00000000      -3.00000000
H       -3.10517313       6.70031300      -3.64399702
H       -2.89714816       5.20558332      -3.52398041
O       -3.00000000       6.00000000       3.00000000
H       -3.67178777       6.65717939       3.18179189
H       -3.43510667       5.16209088       3.15755107
O        3.00000000      -6.00000000      -3.00000000
H        3.62701381      -5.77623730      -3.68776142
H        3.31479089      -6.83353284      -2.65019784
O        3.00000000      -6.00000000       3.00000000
H        3.01839625      -6.91474100       2.71867753
H        3.70519619      -5.93266816       3.64373643
O        3.00000000      -3.00000000      -6.00000000
H        3.64778450      -3.59835520      -5.62773916
H        2.91657358      -3.27453395      -6.91318289
O        3.00000000      -3.00000000       6.00000000
H        3.26691155      -2.25890209       5.45615815
H        2.72719547      -2.60426843       6.82777174
O        3.00000000       3.00000000      -6.00000000
H        3.70447532       3.33965442      -5.44811121
H        3.36062518       3.01617458      -6.88652112
O        3.00000000       3.00000000       6.00000000
H        2.43190298       2.69224963       6.70624877
H        2.44971628       3.59592385       5.49177325
O        3.00000000       6.00000000      -3.00000000
H        3.43109824       6.85104211      -2.92181127
H        3.62489675       5.45775829      -3.48136246
O        3.00000000       6.00000000       3.00000000
H        2.68151770       6.80823128       3.40194907
H        3.27594472       5.45721508       3.73856000
O        6.00000000      -3.00000000      -3.00000000
H        6.85688971      -2.75159041      -3.34679178
H        5.37530885      -2.49068312      -3.51632269
O        6.00000000      -3.00000000       3.00000000
H        5.39420968      -2.45255895       3.49955803
H        6.81904065      -2.50470615       2.99060561
O        6.00000000       3.00000000      -3.00000000
H        6.76649164       3.47139142      -2.67363742
H        5.55045000       3.63203356      -3.56095473
O        6.00000000       3.00000000       3.00000000
H        6.79927968       3.48945547       2.80553361
H        5.40779446       3.64880904       3.38022529
O       -6.00000000      -6.00000000       0.00000000
H       -5.95874039      -6.80846063      -0.51080416
H       -6.89168207      -5.98093964       0.34752214
O       -6.00000000       0.00000000      -6.00000000
H       -6.71614940       0.62306227      -5.87689316
H       -6.18347311      -0.41283566      -6.84388161
O       -6.00000000       0.00000000       6.00000000
H       -5.56794481       0.06257770       6.85184751
H       -6.89412694      -0.27416124       6.20397173
O       -6.00000000       6.00000000       0.00000000
H       -6.19069609       6.88751105      -0.30362966
H       -6.79580562       5.72618648       0.45601689
O        0.00000000      -6.00000000      -6.00000000
H        0.53720859      -6.68846666      -6.39198524
H       -0.55382408      -5.69041963      -6.71670825
O        0.00000000      -6.00000000       6.00000000
H       -0.07098330      -5.85049904       6.94278453
H       -0.27875579      -6.90772114       5.87929630
O        0.00000000       6.00000000      -6.00000000
H        0.28266885       6.91188926      -6.06919637
H       -0.29346575       5.77211779      -6.88214477
O        0.00000000       6.00000000       6.00000000
H        0.30953967       5.92742350       6.90285640
H       -0.43756607       6.85056968       5.96395847
O        6.00000000      -6.00000000       0.00000000
H        6.60770063      -5.39720600      -0.42845207
H        6.28366966      -6.86895503      -0.28404318
O        6.00000000       0.00000000      -6.00000000
H        6.09791682       0.61386994      -6.72787900
H        6.68049974      -0.65694083      -6.14690368
O        6.00000000       0.00000000       6.00000000
H        6.72696217      -0.52799084       5.66987349
H        6.03585460      -0.10968323       6.95021886
O        6.00000000       6.00000000       0.00000000
H        6.73986633       5.92662657      -0.60286483
H        6.32616896       6.54673789       0.71478901
O       -9.00000000       0.00000000       0.00000000
H       -9.65127952      -0.48490959       0.50688216
H       -8.22380947      -0.56008127       0.00831053
O       -6.00000000      -6.00000000      -3.00000000
H       -5.74464135      -6.90476417      -3.18007109
H       -6.95257269      -5.99626152      -3.09393156
O       -6.00000000      -6.00000000       3.00000000
H       -6.83058958      -5.52622166       3.04343815
H       -6.11219989      -6.73664563       3.60082963
O       -6.00000000      -3.00000000      -6.00000000
H       -6.90020686      -2.77816822      -5.76198716
H       -6.07352230      -3.83173055      -6.46802841
O       -6.00000000      -3.00000000       6.00000000
H       -6.23939990      -2.63071185       6.85002693
H       -5.68463265      -3.88104398       6.20133746
O       -6.00000000       3.00000000      -6.00000000
H       -5.57120533       3.75870873      -6.39588891
H       -6.93575557       3.18716085      -6.07459334
O       -6.00000000       3.00000000       6.00000000
H       -6.86335200       3.03899549       5.58849725
H       -6.17973233       3.04151706       6.93925740
O       -6.00000000       6.00000000      -3.00000000
H       -6.94706684       6.12920445      -2.94898584
H       -5.75563221       6.35134297      -3.85619761
O       -6.00000000       6.00000000       3.00000000
H       -6.16134352       5.58579714       3.84772407
H       -6.29609389       6.90309554       3.11392406
O       -3.00000000      -6.00000000      -6.00000000
H       -3.31829405      -5.53960347      -6.77650227
H       -3.25427640      -6.91202164      -6.14068366
O       -3.00000000      -6.00000000       6.00000000
H       -2.90365559      -6.95021513       6.06356735
H       -3.88157816      -5.82558482       6.32959237
O       -3.00000000       6.00000000      -6.00000000
H       -3.70451529       5.70551712      -6.57720870
H       -2.75341952       6.85953533      -6.34150976
O       -3.00000000       6.00000000       6.00000000
H       -3.38260914       6.87557542       6.05665479
H       -2.95966138       5.69658307       6.90694145
O        0.00000000      -9.00000000       0.00000000
H       -0.63761709      -9.63824764      -0.31986910
H       -0.47395957      -8.49940738       0.66407920
O        0.00000000       0.00000000      -9.00000000
H       -0.66492733       0.55518509      -9.40727509
H        0.28475183      -0.58671424      -9.70065301
O        0.00000000       0.00000000       9.00000000
H       -0.16301383      -0.28875391       9.89793068
H       -0.57865545      -0.54284977       8.46455267
O        0.00000000       9.00000000       0.00000000
H        0.95274448       8.91228997       0.02857869
H       -0.15156623       9.93969363      -0.10117015
O        3.00000000      -6.00000000      -6.00000000
H        3.01520978      -5.79943893      -6.93582892
H        3.18828555      -6.93728837      -5.95234601
O        3.00000000      -6.00000000       6.00000000
H        2.95183220      -6.92780558       6.23040945
H        3.30747471      -5.57017695       6.79808727
O        3.00000000       6.00000000      -6.00000000
H        3.56791606       6.76920781      -5.95502743
H        2.94436909       5.79702790      -6.93377694
O        3.00000000       6.00000000       6.00000000
H        2.73851025       6.81400484       6.43040803
H        3.78271801       5.71872211       6.47377960
O        6.00000000      -6.00000000      -3.00000000
H        6.26171449      -5.78409845      -3.89505524
H        5.97127251      -6.95660875      -2.98249935
O        6.00000000      -6.00000000       3.00000000
H        6.57411454      -5.45662146       2.46021847
H        6.57459179      -6.35723268       3.67709743
O        6.00000000      -3.00000000      -6.00000000
H        6.93126112      -3.20983324      -5.92961120
H        5.80405988      -3.08776085      -6.93281153
O        6.00000000      -3.00000000       6.00000000
H        5.63194155      -2.87765274       6.87509769
H        6.15147650      -3.94276168       5.93301406
O        6.00000000       3.00000000      -6.00000000
H        6.13770190       3.16394909      -6.93294733
H        6.86796146       3.09786002      -5.60846690
O        6.00000000       3.00000000       6.00000000
H        6.88247331       2.69876454       5.78382902
H        6.12377187       3.59377453       6.74050265
O        6.00000000       6.00000000      -3.00000000
H        5.79689018       6.81662982      -3.45617320
H        6.92693247       5.84687983      -3.18325458
O        6.00000000       6.00000000       3.00000000
H        5.47036136       6.72223992       3.33776360
H        6.83789356       6.08351949       3.45518208
O        9.00000000       0.00000000       0.00000000
H        9.32913990      -0.33489915      -0.83411110
H        9.78294566       0.11320623       0.53889913
O       -9.00000000      -3.00000000       0.00000000
H       -9.74401934      -3.19759999       0.56887724
H       -9.19421706      -3.45895397      -0.81723486
O       -9.00000000       0.00000000      -3.00000000
H       -9.66814809       0.42396861      -3.53857273
H       -9.31843653      -0.89506857      -2.88302873
O       -9.00000000       0.00000000       3.00000000
H       -9.63331900       0.64322956       3.31842522
H       -9.18119992      -0.78865135       3.51129980
O       -9.00000000       3.00000000       0.00000000
H       -9.34614497       3.59445314       0.66561322
H       -9.55028013       3.15317846      -0.76808852
O       -3.00000000      -9.00000000       0.00000000
H       -3.24923038      -9.35390201       0.85373850
H       -3.74252764      -9.20162295      -0.56941437
O       -3.00000000       0.00000000      -9.00000000
H       -3.27943788      -0.80922897      -9.42812940
H       -3.46333128       0.69286003      -9.47063887
O       -3.00000000       0.00000000       9.00000000
H       -3.68076843      -0.57289021       9.35296316
H       -3.15172606       0.84368560       9.42591742
O       -3.00000000       9.00000000       0.00000000
H       -3.32461696       9.67804642      -0.59254428
H       -3.22368466       9.31838378       0.87454490
O        0.00000000      -9.00000000      -3.00000000
H       -0.42028450      -9.73110986      -3.45284782
H        0.93283373      -9.21422835      -3.01262088
O        0.00000000      -9.00000000       3.00000000
H        0.92086328      -9.01447301       3.26083174
H       -0.41914611      -9.65085493       3.56297090
O        0.00000000      -3.00000000      -9.00000000
H        0.71377374      -3.60548841      -9.20035639
H       -0.78953480      -3.45376364      -9.29489862
O        0.00000000      -3.00000000       9.00000000
H        0.90060238      -3.16261330       9.28054254
H       -0.50025531      -3.73058332       9.36362684
O        0.00000000       3.00000000      -9.00000000
H       -0.58622535       3.51170600      -9.55743039
H        0.86069445       3.39928490      -9.12652462
O        0.00000000       3.00000000       9.00000000
H        0.85666354       3.26399125       9.33566060
H       -0.61335100       3.23478513       9.69635360
O        0.00000000       9.00000000      -3.00000000
H       -0.70555171       9.47634360      -3.43763615
H        0.80109958       9.33193753      -3.40532553
O        0.00000000       9.00000000       3.00000000
H       -0.81427958       9.50246831       3.02657465
H        0.68985764       9.65523447       3.10486216
O        3.00000000      -9.00000000       0.00000000
H        2.69343185      -9.60243000      -0.67773587
H        3.06089472      -9.53782972       0.78946999
O        3.00000000       0.00000000      -9.00000000
H        3.38037999      -0.34718158      -9.80685058
H        2.76397729       0.90241754      -9.21486669
O        3.00000000       0.00000000       9.00000000
H        3.65421554       0.46305567       9.52327174
H        2.72961402      -0.73540259       9.54982387
