388
Properties=species:S:1:pos:R:3:momenta:R:3:forces:R:3:charge:R:1:energies:R:1 energy=-275288.5 stress="0.0005553626688197255 4.644383443519473e-05 -8.991616050479934e-05 4.644383443519473e-05 0.0005441475077532232 -0.00010194398782914504 -8.991616050479934e-05 -0.00010194398782914504 0.0005897211376577616" dipole="0.5819262266159058 -0.5769145488739014 -0.6142553091049194" free_energy=-275288.5 pbc="F F F"
La      -0.31652622      -0.30285476      -0.13672048       0.12857195      -0.15616207      -1.98938192      -0.33387992      -0.30276546       0.41232720       0.91948217    -854.95800336
F        1.06522051      -2.25685012      -0.03665128       0.31843845       0.65776909       0.74821689       0.10999217       0.20716716       0.04032297      -0.42393395   -2719.26161849
F        0.92375117       1.59701743      -0.11728143      -0.13552447       0.70842716       0.79573354       0.06544600       0.74953568       0.05827879      -0.42932677   -2719.39902973
F       -1.56595985      -1.58148523      -1.70865468      -0.00542075       0.30011623      -0.24865191      -0.04226682       0.63885546      -0.28627133      -0.39983150   -2719.17813468
O        5.49901389       1.22697932      -4.56446800      -0.77467269      -0.19260900       0.80128455       0.18296233       2.99131107       0.13755132      -0.46077299   -2048.36855477
H        5.54528180       1.87344263      -5.31889126       0.18665907       0.14044359      -0.19226061       0.04942594      -0.24388628       1.07876527       0.22031401     -15.82952826
H        5.49787006       0.40470883      -4.98492692      -0.12222985      -0.21018329       0.28945324      -0.14969997      -2.67384458      -0.86625123       0.22406106     -15.80533729
O        3.78568126       5.35432629       3.53805357       0.81455361       0.16336522      -0.45725761      -1.17499387       0.57095051      -0.03066783      -0.47507492   -2048.21678108
H        4.58973011       4.88425319       3.43480891       0.01949183      -0.04009098       0.04259558       1.63834155      -0.99992669       0.01313159       0.24039772     -15.78898373
H        3.65307716       5.69297506       2.63758864      -0.07943735       0.12832066       0.12783855      -0.24831784       0.40814301       0.08492483       0.24638055     -15.78212330
O        4.83395079      -6.29846580      -4.17985038       0.73126353      -0.53164880       0.59726909      -0.49661735      -0.52720749       0.16683702      -0.51275241   -2048.31195205
H        4.29527654      -7.04397880      -4.50141582       0.02504216      -0.16318257       0.12259887       0.33605638       0.52316284       0.21358570       0.25713557     -15.70682359
H        4.38248991      -5.48867210      -4.48484495      -0.03398580      -0.03081174      -0.06907716       0.32698229      -0.06662823      -0.28579545       0.23343158     -15.87504362
O       -6.33086914       0.66437688       5.46774500       0.06967123      -0.76267287       0.35891878      -0.06981494       1.64312506      -0.73388672      -0.46771666   -2048.28873056
H       -6.41313016       1.61541722       5.72122314       0.15870015      -0.07648645      -0.12685204      -0.03777758      -1.04364121       0.70465505       0.22382058     -15.79682399
H       -6.27679026       0.83328142       4.50308773      -0.12693472      -0.04624601       0.06397823      -0.23388082      -0.84246105       0.07475058       0.22245470     -15.87359585
O        4.37217371       1.66448233      -0.06336132       0.04599217      -1.55161719      -0.05975868       0.69652140      -0.32745874      -0.03278613      -0.44475263   -2048.38736188
H        4.08972757       1.67157737      -0.98700971      -0.06807435      -0.23295116       0.06161104      -0.06110657      -0.25926930      -0.32470441       0.23572703     -15.78360322
H        3.87302294       2.36449990       0.34615091       0.01987105       0.03143137       0.00062324      -0.79153395       0.50931191       0.70875955       0.22770888     -15.79412691
O       -0.22956314      -7.12476037       2.23910874       0.13358567       0.25759535      -1.03805075      -0.93455845       0.23317011      -0.12379603      -0.44638175   -2048.23317623
H       -0.02280413      -7.65769263       3.01348160       0.02556218      -0.29576427       0.11846010      -0.01851315      -0.29849645       0.59468806       0.21871006     -15.83450295
H       -0.97769674      -6.57577553       2.55275077       0.00152963      -0.17328540       0.09336899       0.52180076      -0.39246938      -0.57113600       0.23826738     -15.72567654
O        0.43259767      -0.68654038       8.09455454      -1.26973102       0.65070426       0.75034107       0.20816195      -0.24676470      -0.25625458      -0.49080098   -2048.30662495
H        0.04243788      -1.53648761       7.85645861       0.22815901       0.16962580       0.23757120      -0.29278681       0.15705904       0.21813183       0.25104761     -15.70431897
H        1.20001713      -0.62401311       7.50404401       0.06077644       0.20192869       0.07731170       0.12581751       0.15184191      -0.15747416       0.23836866     -15.86005302
O       -4.83599772       0.11875429      -6.96751863       0.30280082      -0.72266995       0.34448604       0.27230075       0.11434393       1.12519526      -0.47841588   -2048.14884186
H       -4.90435997      -0.85423811      -6.98845132      -0.16557534      -0.10231293       0.11651362      -0.08458405      -0.10114272       0.25291693       0.24483964     -15.87391700
H       -4.45346490       0.41256858      -6.08635263       0.04666333       0.18718828      -0.16726086      -0.40724781      -0.63173991      -1.17343092       0.23987898     -15.83842169
O       -2.60629926       5.20662831       8.76248947      -0.04810086      -0.29755996      -0.46218388       0.15532784      -0.78603429      -0.29493278      -0.50479347   -2048.37730968
H       -2.58874000       6.11700247       9.02006266      -0.09931432      -0.36046631      -0.13649461       0.11016727       0.87267458       0.43052495       0.24778840     -15.69773769
H       -3.16017171       5.25612659       7.96731276      -0.01913621       0.06848899      -0.12222208      -0.22534223       0.02028909       0.08376823       0.22473072     -15.91003636
O        1.55429568       6.97623697      -0.00158562      -0.57943079       0.58966405       0.20872012       0.63316071      -0.97397083       1.50989985      -0.46005049   -2048.12828523
H        1.10659062       7.44966879      -0.66861040      -0.39411312      -0.39647434      -0.03667019      -0.94037420       0.69921601      -1.35052741       0.25976092     -15.72184053
H        1.77020323       6.08102180      -0.32152618       0.19725010       0.07980912      -0.11591245      -0.05042904       0.04129951      -0.41985840       0.24053402     -15.87557289
O       -0.78340173       3.94464485      -0.83571704       0.76702952       0.46832980      -0.38378081       0.65144998      -1.47766292       1.65349543      -0.42859387   -2048.25914127
H       -0.09189376       3.40534174      -0.35234130      -0.00511558       0.18444534       0.05544327      -1.20758307       0.17652048      -0.43112117       0.23581648     -15.68402937
H       -0.20678760       4.47790898      -1.36326495       0.11344608       0.15545034       0.46105989       0.57062536       1.24430680      -1.39911318       0.22128086     -15.80823192
O       -1.06483780      -7.05180562      -5.32019072      -1.71882320       0.82905145       1.74574279       0.05544372      -0.88678777       0.08484751      -0.47508758   -2048.31658232
H       -0.84282350      -6.67704938      -4.43699008      -0.01811912      -0.22105786       0.07391498       0.22908618      -0.18812913      -0.59387469       0.23178415     -15.88279536
H       -0.61589528      -7.92263937      -5.38710675      -0.32283742       0.03746267      -0.01252546      -0.35263336       0.97522712       0.26262453       0.24430874     -15.69052672
O        1.18663056      -4.97157911      -6.15662218       0.61998975       0.56325776      -1.11515947      -1.69967258       0.58028483       0.57955933      -0.47121218   -2048.37300539
H        0.69725641      -4.82821359      -5.28935489       0.14804479       0.07311162       0.02365381       0.85906398      -0.42849851      -1.00192463       0.22675213     -15.86378315
H        0.42458780      -5.07307211      -6.79631530      -0.27129395      -0.12719071      -0.24579523       1.26271045      -0.03084097       0.56196028       0.22127900     -15.84084301
O       -1.33252119       7.50325754      -1.63959499       0.31381856       1.10669252      -0.11662044      -1.25045681       0.05520088       0.06603080      -0.48109660   -2048.17919558
H       -2.09783059       7.76876588      -2.23067301      -0.01105980      -0.19433200       0.16587087       0.72397691      -0.38277495       1.04666686       0.23855831     -15.85798711
H       -1.72521785       7.15652680      -0.79935975       0.11722755       0.28315952       0.01952742       0.30302909       0.47563487      -1.19731820       0.26128578     -15.70714930
O        0.66789053       6.46991578      -6.60554033       0.26879340       0.66023285      -0.90972895       0.00983727      -1.44230568      -0.72817886      -0.49949181   -2048.25075418
H        1.44597127       5.96672262      -6.32265615      -0.01881432      -0.14048696       0.21882779      -0.05780752      -0.13456231      -0.01720161       0.25250825     -15.74883458
H        0.79037553       7.23906669      -6.08927280       0.08616180      -0.33614045      -0.14736145       0.01334738       1.58173585       0.85645163       0.25236154     -15.70789483
O        2.75063663       6.43397140      -4.36231806       0.25297412       0.59061431      -0.01450945       1.03491521      -0.29581043       0.13039684      -0.51222223   -2048.40117425
H        3.66748898       6.13856651      -4.11928305       0.01721825       0.06243930       0.17068454      -0.95880324       0.22033794      -0.21988614       0.23805293     -15.86611798
H        2.27326500       6.50689252      -3.52681246       0.12911991       0.20383344      -0.01514182      -0.12960988      -0.21963592      -0.07131975       0.25057700     -15.77796990
O       -5.03189797      -6.69277489       0.91566027       0.99884107      -0.09547451      -1.15269524      -0.45932811      -0.60943133      -2.16130185      -0.50106680   -2048.26372522
H       -4.91254773      -7.65200718       0.77871952       0.24823498       0.13683425      -0.06699764      -0.08937157       0.30182990       0.00164609       0.23363838     -15.84711298
H       -4.72120423      -6.48150648       1.76009490       0.00056044      -0.07789459       0.23580855       0.61859584       0.23489887       2.34558654       0.25426275     -15.78015235
O       -5.60475024      -2.64080271       0.98402385      -0.59408129      -0.63923275       0.48425964       0.08886818       0.86676377       0.19751902      -0.50512797   -2048.53569716
H       -5.05128497      -3.19749201       0.40877055      -0.00663631       0.11204421      -0.07163727      -0.16649672      -0.25358945       0.10828785       0.21945044     -15.92378086
H       -5.04121118      -2.42532221       1.76961919       0.22536708       0.02742732      -0.10377763      -0.32250208      -0.33137220      -0.45499727       0.21851104     -15.95245373
O        7.14120462       0.69302122      -2.19978956       0.63655168      -0.62357185      -0.73153283      -0.47211063       0.25385478      -0.16729274      -0.49095854   -2048.41400188
H        6.65948260       0.26843218      -1.47431710      -0.01053882       0.17333733      -0.36718452      -0.21056281      -0.16369057       0.29358894       0.21758571     -15.92249558
H        6.43015622       0.98306823      -2.80846047       0.08009785      -0.00357540      -0.09148004       0.55927807      -0.02873110      -0.18079691       0.23615423     -15.87094237
O       -3.20866221       1.34678546      -5.04609643       0.02071178      -0.06576305       0.75803681       0.20564990       1.35941613       0.09608498      -0.44285917   -2048.31245005
H       -2.58918956       1.94304646      -5.54391640       0.13833529       0.14559313      -0.08995914      -0.41258001      -0.94353741       0.23366815       0.22331324     -15.77796990
H       -3.70263623       2.00028169      -4.52200666       0.04853863      -0.17598261      -0.27182199       0.05906125      -0.33604705       0.12217827       0.24183278     -15.69797891
O        5.16539200       4.83563689      -3.58673652       0.10730099       0.65024180       0.14820804       0.55583662      -0.16585593      -1.30059063      -0.45089254   -2048.36606741
H        5.45560844       4.89335745      -2.66591105       0.01429987      -0.10517046       0.15820018       0.15604749       0.08644862       0.66983449       0.21214338     -15.93451240
H        5.98671562       4.72252152      -4.12201877       0.27301044       0.14630833       0.32163051      -1.06204808       0.01317423       0.41626823       0.24299574     -15.69827208
O       -3.27596442      -4.41090028      -3.74874643      -0.74703201      -0.48595365      -0.09562082      -0.74676818      -0.30497724      -0.15072672      -0.45246300   -2048.41927630
H       -2.74533155      -4.52852252      -2.93899635      -0.29125470      -0.00688586       0.17121526       0.05845907       0.33349735       0.00977318       0.22079052     -15.89293700
H       -3.34894413      -3.45403776      -3.89987644       0.26170031       0.05615167      -0.08426338       0.59533292       0.07202525      -0.29953247       0.21628729     -15.83033495
O        0.70510910      -4.66259232       3.42093848      -1.12729914       0.02144724       1.06431361      -0.71402276       1.25092256       0.55511820      -0.45516697   -2048.42378974
H        0.46394839      -4.85910747       4.34380486       0.03546346      -0.15801564       0.02642088       0.38966611      -0.56160748      -0.17462900       0.21886984     -15.84106810
H        1.27119270      -5.35296208       3.01293643      -0.04916315       0.00786422       0.23918942       0.08721776      -0.08484466       0.10059605       0.19960481     -15.97812964
O        2.05077002       3.43470609       4.45095442      -0.62112302      -0.14695075       0.58442185       0.24422914       0.18016891       1.22056448      -0.44168818   -2048.25133121
H        1.65812382       3.41779633       5.39095049      -0.18480409       0.12423495       0.20519006       1.30157149       0.16187337      -1.56928253       0.22794239     -15.80014886
H        2.77362349       4.13394504       4.32770613       0.08330545      -0.20416141      -0.31442827      -1.39070034      -0.33571753       0.18539204       0.21517637     -15.90249572
O       -3.60764053       0.35362549       3.56072901       0.20455337       0.29989581       0.59165969       0.00679244      -1.05419457      -1.45719159      -0.45211965   -2048.30061132
H       -4.42144369       0.77998511       3.26538134      -0.25104653      -0.14622847       0.09659809      -0.01424642       0.24767058       0.34227064       0.24009785     -15.77561617
H       -3.38388239       0.62173440       4.44316269       0.14352083       0.26340655       0.04622545      -0.01485837       0.73913544       1.03697062       0.23368037     -15.83444519
O       -0.07528290      -5.49551422       6.09912496      -0.11865786       0.33213105       0.41153459       0.25360847       0.39438391      -0.14520667      -0.47267598   -2048.26503623
H       -0.75705219      -4.76771559       6.11227135      -0.02212797      -0.21089015       0.00829285       0.71737087      -0.59163362       0.26661009       0.22722965     -15.92762994
H        0.78889006      -5.17172233       6.44890980       0.12423839      -0.00779949      -0.00562958      -0.89432645       0.30099460      -0.13505711       0.23662102     -15.81647658
O       -2.96425487       2.05364682       5.83051535       0.51731966       0.83254122       0.30102598      -1.02572298       0.89721000       0.41993687      -0.46100962   -2048.41871965
H       -2.34497463       2.02470342       6.59423748       0.02656794      -0.03714839      -0.06440966      -0.55512524      -0.16939630      -0.13248208       0.22135264     -15.89994002
H       -3.82111137       2.45988139       6.17656501      -0.38782833       0.11408212       0.15063940       1.32583320      -0.85487467      -0.42368320       0.22417751     -15.80787323
O       -3.04564088      -0.29681106       0.28702591       0.05314721      -0.26295995       0.74047797       0.52231652       0.51872158       1.04524922      -0.44492912   -2048.64652336
H       -3.08250569      -1.12017981       0.78137197      -0.03324378      -0.13738955       0.19110520       0.04490006      -0.43858308       0.34805980       0.24222325     -15.63232714
H       -3.51962939      -0.46818281      -0.51233499      -0.03699921       0.26602138      -0.15261200      -0.62001610      -0.26191241      -1.43909001       0.23309885     -15.69333503
O        2.60898368      -2.69990496       4.11485562      -0.57076735      -0.14180038      -0.31398058      -0.62100708       0.28518337       0.26663947      -0.45920077   -2048.29033357
H        3.42155116      -2.91404037       3.64133193      -0.05630473      -0.03743704      -0.12965614       0.08145346      -0.41820604      -0.23260207       0.23132986     -15.90712813
H        1.85263926      -3.27251052       3.82791100       0.09714196      -0.15823375      -0.09615621       0.60254675      -0.14334023      -0.05734787       0.23221754     -15.88040537
O       -5.00843126      -9.08451247      -0.53815267      -0.05795160       0.28100490      -0.51681693      -0.46001396       0.54637510      -1.02906919      -0.49787864   -2048.24849468
H       -5.16814825      -8.46655527      -1.30309797       0.07690713      -0.18074182      -0.34771266       0.54956496      -0.35341960       0.69038475       0.22344598     -15.90426711
H       -5.47880387      -9.86005733      -0.85472554       0.19748657       0.03452838       0.05849594       0.02583203      -0.29458600       0.36659363       0.24697118     -15.69712877
O        5.96448949       0.42351056       4.31810864      -0.39833815      -0.35765681      -0.27667535      -1.25576198       0.43292481       0.25899881      -0.47332543   -2048.24724507
H        5.25010741       0.23583628       3.66903559      -0.07440856      -0.24026316       0.13606407       0.71951461      -0.30526099       0.14756803       0.23977123     -15.81912404
H        6.83249565       0.25293967       3.97465467       0.04978057      -0.33582688       0.07802587       0.63959861      -0.30226353      -0.49629512       0.24774113     -15.80364586
O       -1.01073582       1.78349122      -6.67281484       0.06603254       0.42532135      -0.56029741       1.17940724      -0.68245816       1.31945479      -0.43972284   -2048.27144462
H       -0.78565808       0.90525407      -6.22455231      -0.11072634      -0.01640060      -0.04473629      -0.41834143       1.04045105      -0.82721150       0.22673815     -15.83011499
H       -1.65960603       1.62995136      -7.36845710       0.10794091      -0.11693891      -0.29512075      -0.76877832      -0.38958600      -0.42890039       0.21282038     -15.89288357
O        6.78748640      -2.68649808      -2.43390912       1.52395817      -0.35346228      -0.54867108      -0.30943850       0.84876662       1.57861197      -0.48840368   -2048.14790869
H        7.18783731      -2.15748231      -3.12542637      -0.10184353       0.05475570      -0.10294585       0.00143439       0.22075197      -0.09329739       0.25936216     -15.71573442
H        6.65326804      -2.06693800      -1.65202428      -0.16270000      -0.01521335       0.02992435       0.32618791      -0.87204987      -1.33414650       0.24852854     -15.80274597
O       -4.35702153      -4.55885989      -0.59780828      -0.92474819      -0.67963857       1.36977551      -1.56600118      -1.07286727       0.87486184      -0.45518428   -2048.34000641
H       -4.10319816      -5.30434893      -0.01004821      -0.09440575      -0.17567599      -0.08556979      -0.65246749       0.09765012      -0.27964082       0.23635180     -15.75940742
H       -3.56224474      -4.14892145      -0.85173112       0.07847291      -0.05402572       0.10849753       2.17933869       0.90046364      -0.87505370       0.24124686     -15.77779037
O       -3.17736909       1.48641285      -8.25726294       0.84363666       0.67432790       0.08669178       1.11864626       0.17876258      -0.55538297      -0.47112843   -2048.17945874
H       -3.77238376       0.80475443      -7.83227782       0.13451997      -0.18940771      -0.38788106      -0.61354113       0.53022003      -0.17489770       0.20122896     -15.98250673
H       -3.66081376       2.20534609      -8.68249675      -0.16245567      -0.18521648      -0.04325808      -0.16174050      -0.52152735       0.26297942       0.25102413     -15.68665963
O       -2.07586013      -3.50274848       5.93002110       0.31636849      -0.56174641       0.75640751      -1.75928056      -0.13526390       0.58155465      -0.42891303   -2048.18389457
H       -2.41487761      -2.98390984       6.72977577       0.34535473      -0.16867030      -0.12477824       0.79189658      -0.04955984      -0.90497953       0.21719174     -15.84537245
H       -2.94166112      -3.78521534       5.52478902      -0.06127637       0.49988430      -0.02779689       1.21375084       0.12651908       0.28153521       0.24091816     -15.73633003
O       -3.91217414       7.94615656      -3.20520551       0.25095924       0.29687358      -0.00466692      -0.90125442       1.81507754      -1.75145769      -0.47943896   -2048.17944926
H       -4.68260537       7.37418642      -3.08713582       0.10172789      -0.08959043       0.12022673      -0.01197207      -0.63434637       0.18073954       0.24161862     -15.86075151
H       -4.26559544       8.59926514      -3.90264068       0.05251978       0.17068778       0.16159329       1.10269356      -1.37825370       1.64481509       0.24150458     -15.66803288
O        9.19452985       0.14547023      -0.56913779      -2.32629225       0.07034922       0.08758343       1.09059894      -0.58827001       1.70280206      -0.46321160   -2048.15276629
H       10.07240416       0.52111637      -0.64829464      -0.17233368       0.15457007       0.00937077       0.07354074       0.04989278      -0.13514692       0.25402820     -15.66794354
H        8.68522469       0.41077441      -1.31205738      -0.12617820       0.02870046       0.28218101      -0.98883992       0.52548963      -1.56875479       0.23419787     -15.87369598
O        1.59959390       2.50389935       7.12803098       0.39610906       0.27907956      -0.36421369      -0.40455729       0.89174420       0.21668309      -0.44031906   -2048.27914900
H        2.35563142       2.06436765       7.51633380       0.02121431       0.09712818       0.12817280       0.42673799      -0.21138206      -0.07438336       0.24174517     -15.70740297
H        1.52410300       3.33487253       7.64877388      -0.21020725       0.01294698      -0.02838444      -0.29802495      -0.49388468      -0.12141949       0.22661366     -15.80393453
O       -1.92630979      -3.32275074      -6.81731587      -0.00336373      -0.01544388       0.28017016      -0.34201813       1.55849969      -0.95933378      -0.45032513   -2048.26110226
H       -1.86391495      -2.56956396      -7.47788403      -0.08222227       0.18416177      -0.14744380       0.31078878      -0.98165822       0.73430902       0.22747502     -15.82061416
H       -2.79820467      -3.13108732      -6.42727801      -0.23595723       0.12881571       0.05219366       0.15698799      -0.38095230       0.04963243       0.24150848     -15.79008694
O       -0.22825845      -4.44953349       0.58140144      -0.58040469       0.81231777       0.01485234      -1.12389576      -0.17665629       0.45626140      -0.45591721   -2048.37861848
H        0.23527290      -5.27334258       0.44475123      -0.04863563      -0.18162740      -0.13616911       0.26240137      -0.23031071       0.11873618       0.23455295     -15.73683357
H        0.36077595      -3.72794036       0.32527193      -0.18131794      -0.18683114      -0.17559753       0.60298336       0.29719248      -0.38900653       0.20809539     -15.84666434
O       -0.93638288       4.69950916       6.05913442       1.23744771       0.13292661      -0.82275504       0.00147574      -0.71269602      -1.26109505      -0.45884937   -2048.32804507
H       -1.86825886       4.59074520       6.27577587      -0.18395615       0.14898635      -0.11182701      -0.08132739      -0.15325321       0.06449997       0.23698473     -15.73302418
H       -0.87860358       4.32802267       5.12564961       0.20530427      -0.10211135      -0.28397739       0.07328431       0.44502896       1.15460634       0.22095284     -15.87565632
O       -5.26153489      -0.75305940       7.51682377       0.66807221      -0.27353816      -0.16039652      -0.20986180      -0.06769361       0.42311519      -0.47115591   -2048.19427019
H       -5.74871350      -0.50072928       8.31274220      -0.07102578      -0.02579186      -0.09270748       0.20046797      -0.12101634      -0.21815446       0.25152969     -15.68005988
H       -5.60734192      -0.18321822       6.80752970       0.08560529       0.16953628      -0.08079069      -0.04624767       0.11694884      -0.30521241       0.22835499     -15.95308555
O       -0.89710408      -5.46178596      -8.28008029       0.44531533       0.50353186       0.50900824      -0.47863141       0.23084420       1.01778913      -0.47657591   -2048.33438075
H       -1.28629390      -4.70362430      -7.75407442       0.06795351      -0.13318403       0.08911707       0.02755061      -0.48978308      -0.57173002       0.21492577     -15.93445923
H       -1.16126081      -6.23370565      -7.73926756      -0.00719230      -0.06467920      -0.21417106       0.25202948       0.39103904      -0.39352134       0.24506734     -15.74007630
O       -0.55835645       3.41248152       3.46538930       0.08957198       0.34002928       0.46349765       1.79543662      -1.92682278       1.61436296      -0.43849558   -2048.34800529
H        0.44811175       3.32882475       3.53118816       0.09273764      -0.07862090      -0.06073948      -1.22188640       0.30351657       0.12584148       0.21389684     -15.82351220
H       -0.65488033       4.12457059       2.87931771       0.21229265       0.19963378      -0.28248536      -0.37593156       1.86396074      -1.52838445       0.23094586     -15.75985636
O        5.00098540      -3.08856418       2.68272413       0.95456644       0.42510860      -0.27009091      -0.17680037       0.64999676      -0.25558710      -0.43842277   -2048.26945549
H        5.94569209      -3.21097223       2.69322700      -0.05660353      -0.05182327       0.01778227       1.07849336      -0.79218602       0.20709431       0.23321620     -15.77987637
H        4.94623069      -2.15412764       2.36871254       0.04795334      -0.10720265      -0.19451018      -0.74582601      -0.30835819       0.06644766       0.21992275     -15.87065304
O        3.94412836      -3.89209571      -5.29576617      -0.61986217      -0.42315842      -0.35659895       0.66306931      -1.32388496      -1.51874828      -0.45799169   -2048.23323673
H        3.52981449      -3.56878951      -4.51216936       0.23965140       0.00168214       0.10470822      -1.15043986       0.72955340       1.14873707       0.22559112     -15.84471191
H        3.25765924      -4.37354262      -5.79783464      -0.04902922       0.17786962       0.10107104       0.07428039       0.45198178       0.20455301       0.23834312     -15.76947497
O        5.77691194       3.14647466       2.85330743       0.20028701       0.14340095      -1.36196474      -0.24653280      -0.32884157       0.74903774      -0.48561981   -2048.39592457
H        6.57227273       3.19145837       2.30504412      -0.10265393       0.19221610       0.05449710       0.00231406      -0.15612198      -0.05946184       0.23439424     -15.79596472
H        5.91018380       2.43627523       3.51738616       0.12107289      -0.11009543      -0.03931741       0.10252756       0.48319000      -0.56142890       0.24207902     -15.80452892
O        1.10922098       7.86242617       4.63417707      -0.94110747       0.26171648      -0.09060506       1.35657883       0.56494117       0.71093470      -0.54313534   -2048.22881597
H        0.44002725       7.41893085       4.11852245      -0.18315796       0.16657310       0.13621229       0.27396557      -0.69699627      -0.79734308       0.25632319     -15.82092136
H        2.03352350       7.57624560       4.42395514      -0.04351458       0.16007880       0.14595072      -1.63240588       0.02360462      -0.08436118       0.26692662     -15.74804549
O        4.68220916      -1.30230443      -5.00055157       0.54485183      -0.46540436       0.34823176       0.16071321       0.92232651       0.47374895      -0.47519633   -2048.38444656
H        4.70312505      -2.19786869      -5.32791002       0.17394548       0.15203030      -0.04433240      -0.11595915      -0.66505480      -0.34403020       0.22947687     -15.82614276
H        3.80796713      -0.94495854      -5.22331212      -0.01149608       0.10878702       0.02927004      -0.20395030       0.09431980      -0.17277452       0.22790132     -15.85365827
O       -4.55812545      -0.53442312      -2.39864833       0.24216514       0.08786616       1.54399838      -0.60283142      -1.09984517       0.74676174      -0.43339121   -2048.31935740
H       -5.15567684       0.21677450      -2.29366806       0.15066536       0.14485702       0.23918428      -0.30794543       0.46291357      -0.13234812       0.22020817     -15.81758079
H       -5.15444824      -1.28244768      -2.12049882       0.16284461       0.24216317       0.10312668       0.74547863       0.40102431      -0.52792865       0.23056409     -15.75494699
O       -1.23268185      -1.01758421      -8.75169748      -0.56547861       0.22144359       0.03973218      -0.35780072       0.19169381       0.18844244      -0.48625523   -2048.35082597
H       -1.77421681      -0.22986899      -8.92133333       0.03524664      -0.05469365      -0.00949369       0.17543826      -0.17937651      -0.05867204       0.24729490     -15.78865570
H       -0.45000209      -0.97957894      -9.31906421       0.07181081      -0.04773457      -0.04145725       0.01728236      -0.10804641       0.09086931       0.23901334     -15.81966799
O        0.85891570       3.43223837      -7.91979844      -0.38059072      -0.20065941      -0.07962673      -0.20232469       1.30281842      -0.58150655      -0.49430418   -2048.29356545
H        0.12119046       2.84510600      -7.67210147       0.12151844       0.20897918      -0.05938603       0.04505927       0.11052956       0.08544428       0.23192398     -15.91700342
H        0.49440138       4.22615301      -8.39598190       0.16485619       0.02269789       0.08826579       0.40350682      -1.31613171       0.80830377       0.25404352     -15.71006632
O       -3.40132846       6.54672379       4.24685214      -0.10992092       0.32925991       1.34218991      -0.07848124       0.13210484       0.52085567      -0.47727209   -2048.35307354
H       -2.59772104       6.84402833       4.75153760      -0.00363428       0.38459767      -0.03577654      -0.21552162       0.08618463      -0.41707721       0.20935476     -15.95167761
H       -3.12488943       5.83095320       3.67297077      -0.00633105       0.01187295      -0.20253166       0.19164619      -0.30505994      -0.25710163       0.25518423     -15.76094778
O        8.04027788      -3.62413043       2.57695033      -0.50736456       0.16350637       0.72671108      -0.47573033       0.10741521       0.58366728      -0.49415472   -2048.30742228
H        8.29144996      -4.21949420       1.86976590      -0.02625310       0.01467314      -0.09042845       0.09330069       0.10481211      -0.21747428       0.25476971     -15.71354240
H        8.23210299      -2.70903652       2.30670364       0.02663356      -0.23414828      -0.10094531       0.19963622      -0.01728356      -0.28955591       0.23750895     -15.93680561
O       -5.51248871       5.56627677      -2.77194767       0.05295932      -0.25774790      -0.70482468       0.01059238       0.13956745       0.40296185      -0.50382853   -2048.46059120
H       -6.37094578       5.11459088      -2.61558214      -0.04342428       0.08402211      -0.18987154       0.43509170       0.01661159      -0.18875803       0.21798143     -15.95495341
H       -4.80652710       4.90009016      -2.66781725       0.06824172      -0.29240609      -0.17421093      -0.08544566       0.16821134      -0.17701942       0.22674243     -15.90892422
O        0.12018372       5.52948859      -2.99828645      -0.44115131      -0.52010693      -0.01117686       0.33895001      -0.13504620      -0.00499117      -0.46130526   -2048.51771420
H       -0.41178877       6.30531499      -2.80094712       0.04428493       0.04065189       0.05557691      -0.17988795       0.42125255       0.53072733       0.21049371     -15.84295864
H       -0.33407679       5.16248093      -3.78031809       0.09768017      -0.18064992      -0.16825056       0.22317897      -0.16315456       0.01872708       0.20083013     -15.93361142
O        2.35939631       3.02813500       1.50784343      -0.37120106       0.26261256       0.03161469      -0.30670232      -0.33158612      -0.07028328      -0.45666909   -2048.31577915
H        1.69831328       2.38706680       1.13317085       0.09069114      -0.43519531      -0.19179626       0.40296793       0.01661681       0.22823992       0.21395543     -15.84983458
H        2.53914923       2.79416900       2.43318993       0.07145901      -0.38430132       0.00776904      -0.18433321       0.13513449      -0.24273252       0.24420911     -15.76174726
O        5.49537303       4.96947827      -0.97130235       0.49793815      -0.59071963       0.34590674      -0.69669276      -0.51750976       1.08677566      -0.47029403   -2048.27083099
H        4.65442331       4.50538886      -0.74364951      -0.03655236       0.01674856       0.13834411       0.38049337       0.65019602      -0.38395229       0.24473582     -15.73628861
H        6.11533148       4.52680727      -0.35037374      -0.08395330      -0.53786884      -0.17452377       0.05993247       0.07119346      -0.54957867       0.23102251     -15.84140894
O       -1.31325328       4.80069869      -5.15901238       0.57232723       0.13421166      -0.02367991      -0.15375446       0.25336418      -0.57796580      -0.43648219   -2048.19091487
H       -1.04073100       5.46132281      -5.82308763       0.06190209       0.04308800       0.01689545      -0.04674866       0.18793875       0.30227029       0.23436226     -15.73895386
H       -0.83910285       4.03300572      -5.48226690      -0.12553133      -0.16581964      -0.00790181       0.12819828      -0.75190604       0.05487220       0.24870032     -15.73435393
O        0.80147602      -0.32850058      -2.48980123       0.19062799       0.04908546      -0.32987285      -0.80168164      -0.39569280       0.08387072      -0.44409293   -2048.75309348
H        1.73123104      -0.16703918      -2.71483026       0.16490116       0.11734633       0.36619503       0.22210342      -0.00121321      -0.27210152       0.23886909     -15.76713885
H        0.22311781      -0.55290160      -3.27095241       0.36612242       0.02052209       0.00847286       0.90699762       0.39022663       0.19549528       0.22363982     -15.80388254
O       -6.12326282       3.96708743       3.65070011       0.63289551      -0.04132165      -0.33271697      -0.38524187       1.18974769       0.70463091      -0.49395877   -2048.51866066
H       -5.17525432       3.84282954       3.45302110       0.03792009      -0.06136068      -0.01469834       0.16001818      -0.06402725      -0.18143445       0.20644268     -15.98459578
H       -6.21920242       4.95839774       3.88765998      -0.13474086      -0.37853909      -0.08998139       0.23114929      -1.77369905      -0.48040673       0.19878240     -15.92715590
O       -3.09038555       4.02486933      -2.71625337      -0.07292477       1.50351318       0.81556432      -0.24123053       0.43331552      -1.40174794      -0.47484514   -2048.37028176
H       -2.53622112       4.39549953      -3.44359623      -0.09224561       0.07334888       0.26847933      -0.50905043      -0.27525359       0.53096038       0.23363435     -15.83965352
H       -2.48363088       3.91180904      -1.99414547       0.09836590      -0.11137036      -0.33333392       0.71842384      -0.22551419       0.68756866       0.23663783     -15.87983614
O        0.15716899      -4.22268358     -10.92946689       0.32519023       1.08052398      -0.88626913      -0.00922289      -0.22026426       0.39305693      -0.49958757   -2048.17507720
H       -0.23575102      -4.79661425     -10.24148890      -0.11567062       0.05797497       0.09983789       0.06528535       0.26238891      -0.26794976       0.25895691     -15.83807331
H       -0.46718966      -4.18766556     -11.66211411       0.09189743       0.03188047       0.26144328       0.01856656      -0.04281690       0.20806228       0.26000845     -15.70137227
O        2.32829603      -0.56938738       5.79265986       0.31690267       0.57703719      -0.27444264       0.96205473       0.48924711      -0.19169715      -0.46544421   -2048.39915782
H        2.63184521      -1.28000753       5.16774067      -0.15318484       0.20025203      -0.19320986      -0.47052032       0.58119565       0.32509571       0.21876949     -15.93287947
H        3.02109880       0.15796186       5.78827018       0.04740436      -0.14354690      -0.38228910      -0.51903999      -0.77687949       0.04662412       0.21693754     -15.91902136
O       -5.29437985      -2.77538528      -6.78227326       0.54839607      -0.97316643      -0.08772580       1.71278405       1.04460835      -0.97142130      -0.50946856   -2048.41028672
H       -5.91071823      -2.76253203      -6.06916852      -0.10053872      -0.00912649       0.14830423      -1.22813559      -0.33750063       0.73898041       0.23202951     -15.92562027
H       -5.29951295      -3.55658885      -7.35361057       0.08584225       0.12291932      -0.03534488      -0.24056743      -0.12444689       0.25807017       0.22484916     -15.92362168
O       -0.15568047       6.24722465       2.31278779      -1.44354911       0.48289740       0.53124097       1.37429392       0.51233971       0.60455251      -0.48095691   -2048.44329476
H       -0.82555981       5.90641263       1.74455374       0.08658940      -0.09466537       0.24571195      -1.31674302      -0.43384746      -0.72446781       0.22298418     -15.85419941
H        0.54865791       6.53318564       1.70113620      -0.01691515       0.37324054       0.05874882      -0.17616034      -0.01878559       0.15982084       0.23202106     -15.84230351
O       -6.65985807       1.31413855       2.67458500       1.02924639      -0.36928288      -0.64939748       0.32207611       0.01922424      -0.02262243      -0.47220647   -2048.32625914
H       -6.79721900       2.27028552       2.59303608      -0.04383869       0.05220236       0.10249821       0.08304102       0.06450340       0.16212988       0.24486254     -15.79011665
H       -7.07630212       0.88142706       1.91813810       0.15631811       0.03105309      -0.35340308      -0.03793426      -0.08087613      -0.03795395       0.23971318     -15.83403771
O       -4.24281727       2.35074399       0.29635202      -0.23616562      -1.84521950      -0.74618886      -0.09063676       1.06638443      -1.59336317      -0.47011587   -2048.43599099
H       -4.30907280       1.58665839       0.84287423       0.18781898      -0.11887710      -0.16663393       0.09150871      -1.01687932       0.86923027       0.24246846     -15.75832823
H       -3.55597367       2.12099732      -0.35576038      -0.37343250      -0.11491274      -0.08808785       0.09899241       0.04942658       0.38455707       0.23819995     -15.80060935
O        2.45102500      -6.17849071       2.24598382      -0.35639771      -0.16246599       0.82270900      -0.42001876      -1.21233475       0.11573291      -0.47173929   -2048.25097847
H        3.01246852      -5.91792221       1.47997395       0.03018105      -0.02090848      -0.11251557       0.11321029      -0.14023021       0.43077147       0.21546990     -15.91874041
H        2.13542802      -7.09513929       2.13726058      -0.15501767      -0.31298139      -0.31009632       0.28224578       0.79017937      -0.12446854       0.25092578     -15.68178126
O       -4.72209877      -5.10932529      -7.95544484      -0.15386473      -0.61083991       0.39652697      -0.76999456      -0.43601918       2.41330862      -0.49551025   -2048.11663026
H       -4.53591792      -5.54485197      -7.06367224       0.07724192       0.42412588       0.03292477      -0.36716878       0.48730496      -1.26720846       0.23876271     -15.82647607
H       -4.06777484      -5.47782561      -8.50882039       0.25541319      -0.05072487      -0.01504525       1.16262567      -0.47601056      -1.16135275       0.26208997     -15.70277160
O       -7.11926166      -2.34169470      -4.73294532      -0.40374866       0.30477723       0.37110220       1.22397959      -1.87005448      -1.50603890      -0.50435030   -2048.18486041
H       -6.84909144      -2.76525028      -3.91936856      -0.19895636      -0.13949261       0.19641867       0.06671362      -0.14204887       0.81945801       0.23366268     -15.91453294
H       -7.64119192      -1.61375615      -4.54033537      -0.42463484      -0.05551730      -0.10902414      -1.44431758       2.05809808       0.61597949       0.26538590     -15.70356110
O       -2.40206597      -4.86337257       3.20329454       0.26204181      -0.15845344       1.03535925      -0.68575352       0.62148482      -0.20849371      -0.46574828   -2048.36388111
H       -1.45057563      -4.91872234       3.30849119       0.08488127      -0.22497895      -0.06366442       0.57555854       0.53283310      -0.03793350       0.23103069     -15.80396694
H       -2.63990922      -3.91161838       2.99872343       0.21773235       0.04100736       0.12310233       0.15308556      -1.16973722       0.25791895       0.22546473     -15.85499161
O        2.07149180      -5.03808751      -1.05659927      -1.68672539      -0.81127703      -0.06489155      -0.11045593       0.57023454      -0.99636072      -0.44811004   -2048.35326254
H        1.77335174      -5.89736489      -0.77816281      -0.03578914      -0.02645335      -0.13754101      -0.20325701      -0.84762138       0.30143186       0.22628808     -15.75657119
H        2.71649251      -4.73511200      -0.40579468      -0.23736776      -0.39519060      -0.15942098       0.25791645      -0.09891276       0.38452649       0.22121640     -15.83929603
O       -4.78211777       5.73238100       0.25975371      -0.83386357       0.31387780      -0.52782791      -0.37770426       0.13475361      -1.23490012      -0.46972242   -2048.19867414
H       -4.96717240       6.18815551      -0.60819008      -0.09709052       0.21848033      -0.06719087       0.21754712      -0.69806373       1.02789736       0.24589030     -15.75479825
H       -5.08404189       4.81834625       0.09591701       0.07673538      -0.12363820      -0.17825358       0.06835313       0.35414776       0.13730483       0.25095305     -15.73459494
O        3.32420020       2.46625125      -3.08333434       0.13197063      -0.55223554       0.59129956       0.91351885       2.87406564      -0.44109416      -0.45370573   -2048.42468578
H        3.80279693       1.65970580      -3.32103245      -0.16511526       0.07405996      -0.03673036       0.26358488       0.02385266      -0.12733103       0.22064230     -15.84415801
H        3.87287255       3.27140749      -3.46513625       0.05212452       0.10383026      -0.01116739      -0.94243801      -2.47445917       1.07939208       0.21663100     -15.76772332
O       -3.98140019      -2.55963976       3.15234691       0.65009084       0.44716066       1.11372231      -0.77254081      -0.43510130       2.05346465      -0.43838656   -2048.22197050
H       -4.55771026      -3.02645677       3.88204748      -0.01222941      -0.33208725      -0.07503810       1.23974967       1.09350169      -1.35994697       0.21873145     -15.81017639
H       -3.61766966      -1.75064836       3.59549014       0.22105697      -0.02316175      -0.27685644      -0.40023080      -0.49655303      -0.49034393       0.23024310     -15.82287464
O        0.24315687       0.81148395       4.67505748       0.74469319      -0.41038062      -0.20111488      -0.58440638       0.77625102      -0.11289062      -0.44560948   -2048.43291080
H       -0.03272440       1.71061109       4.93721930      -0.13989861       0.07265573       0.15367141      -0.04541378      -0.53983396      -0.14047159       0.23970202     -15.73817658
H        1.06513345       0.66894063       5.15841050      -0.31542804      -0.14013361      -0.01138645       0.44355941      -0.52419353       0.22550413       0.21928272     -15.84278126
O        2.30397273      -3.09249791      -3.29112241      -0.42850334       0.43739478      -0.21577294       0.71137983      -1.10372424       0.02272219      -0.45884281   -2048.29161078
H        1.64095556      -2.50940923      -2.93052555       0.07180285      -0.10086498      -0.20441666      -0.38995895       0.28554678       0.40287125       0.24822375     -15.76243256
H        2.32929864      -3.90673594      -2.73847210      -0.08179324      -0.18743421      -0.03846013      -0.35093781       0.82837588      -0.06092947       0.23060989     -15.80317727
O        4.14539166      -0.65658830       2.25026751       0.29757399      -0.30224783      -0.36545517       1.19269228       2.64509630      -1.57640719      -0.41873753   -2048.18975681
H        3.20769448      -0.53862776       2.03086712       0.04241066       0.01045089      -0.04829643      -0.37087420      -0.16999474       0.27501866       0.22596054     -15.81667525
H        4.54071272       0.05513694       1.62125255      -0.04079076      -0.09834778      -0.23479257      -0.68415284      -1.52973640       1.15151870       0.23059790     -15.68850940
O        2.18273048      -3.69420684       6.83082645       1.66007729      -0.92789132      -0.10937840       0.15958174       0.62313932      -0.67342031      -0.51431161   -2048.27903658
H        1.58319484      -2.99043797       7.15466493       0.13493548       0.14371292       0.10299916       0.82977104      -0.44482428      -0.45373258       0.26105142     -15.71123368
H        2.67414098      -3.32277691       6.03686248      -0.19585234       0.09148151       0.08156084      -1.06964529      -0.40465751       1.10353780       0.23770663     -15.84338343
O        4.07753594       1.61093350       5.81684632      -0.49061171       0.08145223      -0.13977465      -0.19154733      -0.45139572       0.67368406      -0.48336253   -2048.24990129
H        3.69444321       2.32057043       5.27824652       0.17518889       0.01985272      -0.01123486       0.38861811      -0.22501731      -0.16868201       0.24745786     -15.80323389
H        4.97321866       1.31037102       5.56318211       0.09223962      -0.09014300       0.08134294      -0.49327201       0.57661581      -0.38759997       0.23421787     -15.85902813
O       -0.47836094      -0.52653137      -4.93420224      -0.52904178       0.62410109      -0.02228376      -0.50847208      -1.68487585      -2.03149414      -0.43892482   -2048.28384817
H        0.12209289      -1.13675698      -5.53212939       0.14516505      -0.18541705      -0.06911206      -1.25081742       1.13969266       1.23893547       0.21840522     -15.86175229
H       -1.44057711      -0.89873794      -5.02913687       0.01379345       0.17461010      -0.20603909       1.83006203       0.54857028       0.56099427       0.22735186     -15.81594186
O        8.93605671      -0.26307793       4.30318484       0.32523642       0.31515460       0.17121364       1.25799370       1.34451592       1.97198665      -0.43557891   -2048.09950536
H        9.54198654       0.27009726       4.90871367      -0.16605603      -0.21528703       0.14248279      -1.09126246      -0.76520717      -1.51184118       0.24265455     -15.64660192
H        8.56321000      -0.88455791       4.95676987      -0.13519637      -0.04204180       0.07905215      -0.29607946      -0.51173908      -0.35369223       0.22877470     -15.85391045
O        1.39151080      -1.94853362      -6.61585061      -0.74007856      -0.31820985      -0.34975385       0.19054589      -0.87691754       2.06588554      -0.46343204   -2048.25866348
H        1.30829234      -1.93801454      -7.55181645       0.23685845       0.26901475      -0.19491356      -0.11139131      -0.09639145      -1.62543929       0.23398153     -15.86143903
H        1.54215049      -2.89749771      -6.35534196       0.02462200       0.04663061      -0.15456078      -0.34519967       0.98648441      -0.41807532       0.23732626     -15.81209415
O       -1.30748949      -2.00155555       1.69520079       1.15601766       0.87600451      -0.67706392      -0.13903645       0.29694387       0.25682685      -0.44540513   -2048.81267297
H       -0.96331865      -2.90605333       1.70443714       0.47903628      -0.01043768      -0.12749886       0.04719454      -0.15704291      -0.07632068       0.23240738     -15.70641324
H       -1.35345912      -1.68617924       2.65415870      -0.09688458       0.03872260      -0.26956309       0.24658683      -0.44038221      -0.67841482       0.19654243     -15.91298591
O        0.07953793       2.37692484      -3.70726957       0.41456950      -0.61638468      -0.25089645      -1.61750758       0.85541552      -0.63422304      -0.47082630   -2048.34672272
H       -0.30465262       1.77937261      -4.38488249      -0.08311359      -0.04026004       0.22548553       0.97268051       0.01622985       0.84243780       0.23334289     -15.77408247
H        0.91304293       2.07814602      -3.36328074      -0.13663817       0.17785824      -0.03001559       0.74717003      -0.77449250      -0.15997739       0.24048558     -15.78407454
O        0.17549157      -7.46026537      -0.43608747       0.13193857      -0.53804388      -0.95687187      -0.21571361      -0.19484122       1.23922551      -0.46311140   -2048.31541646
H        0.42949090      -8.33870798      -0.71075604       0.06376090       0.07019495      -0.04282838       0.19167137      -0.31642181      -0.55999434       0.24021757     -15.68471929
H       -0.11369524      -7.64309392       0.50312857      -0.01647921      -0.08685694      -0.25517123       0.22400913       0.75687468      -0.74534041       0.22173791     -15.88065656
O        8.24327836      -0.89825067       1.79583555      -0.37197562       0.60884193      -0.24633508       0.46120864       1.00026596       0.14446838      -0.43855336   -2048.27906471
H        8.53434821      -0.25638417       2.50429058       0.00139822       0.09362867      -0.09629345      -0.21261173      -1.15816581      -0.84310687       0.23500791     -15.80997559
H        8.69829081      -0.61892919       0.95917856      -0.07610897      -0.23525982      -0.14994640      -0.17131583      -0.04002716       0.47236639       0.21833722     -15.89649373
O       -5.88706800      -3.22268818      -2.53332518      -1.10754260       0.94030356       0.45266105       1.21731305      -1.13643396       0.63643175      -0.44690728   -2048.18836081
H       -5.03754836      -3.54888587      -2.95984746       0.04943027       0.30253184      -0.26395342      -1.26386285       0.16491488       0.66176224       0.23324844     -15.76344579
H       -5.98318772      -3.83112998      -1.74738099      -0.18872224      -0.11753601       0.12202517       0.28160766       0.83489102      -1.07060850       0.24196118     -15.73781031
O        0.09121882      -5.38901128      -3.43915514       0.66359016      -0.52982795       1.28903139      -0.55708641       0.66412640       0.80417579      -0.45552725   -2048.27304614
H        0.80072552      -5.47623757      -2.78276987      -0.13627184      -0.03243085      -0.29658565      -0.09767698      -0.08352692      -0.21042284       0.23444167     -15.79250138
H       -0.55826602      -4.81309917      -2.94641396      -0.14350787       0.13592040       0.32518668       0.48133954      -0.43723691      -0.38563007       0.23492613     -15.84137474
O       -6.34024902       6.60906937       3.83237828      -1.11651642       0.30275431      -0.13091037       2.66059208       1.11792803       1.68171358      -0.45279759   -2047.99613848
H       -5.44865133       7.00089040       3.58187033      -0.09148087      -0.08003238      -0.04044340      -1.27821136      -0.74773067       0.55551714       0.25976646     -15.72692049
H       -6.81550739       6.56506423       3.04423436       0.05944257       0.07053135       0.02397102      -1.33352637       0.04902367      -2.21855664       0.26006490     -15.65087444
O       -5.72795768       3.22108701       6.44712050       0.10714374      -0.13927098       0.17142408       0.08861673      -1.20118022       0.43551546      -0.47278169   -2048.28615040
H       -5.66794606       3.33255302       5.49808976      -0.22352573      -0.08692213      -0.21797878      -0.26301980       0.69753838      -0.90702641       0.22996457     -15.78732578
H       -5.32586116       3.99351946       6.82831557       0.23219981      -0.07900953       0.02199113       0.20981270       0.96636230       0.24411765       0.23853047     -15.81327771
O       -4.84808908      -7.32226823      -2.67372051      -0.16482619      -0.23514965      -0.38911121      -0.12742484      -0.49067459      -1.01187408      -0.49077061   -2048.21363389
H       -4.84491987      -7.13703493      -3.63303862       0.22945540      -0.04295749      -0.15410097       0.13435926      -0.47571519       0.05750039       0.23149699     -15.81667756
H       -4.87585524      -6.43845953      -2.34850881       0.04100619      -0.10857635      -0.21045879       0.04106481       1.19926512       0.95029116       0.25963658     -15.74823092
O        5.33079318      -4.83485275      -1.66587600      -0.51325259       1.28529397      -0.20521984      -0.57791728      -0.35327965       0.25974739      -0.48774588   -2048.36616546
H        5.94252224      -4.24042310      -2.13973576      -0.12532129       0.00838530      -0.17938826      -0.15112843      -0.22313584      -0.17181182       0.22769408     -15.92778980
H        4.98154990      -5.53343184      -2.25954813      -0.36092729       0.04688175      -0.05056619       0.59338534       0.59914994      -0.00357495       0.24178937     -15.81398182
O        6.86499258       2.95696057       0.34277133       0.05598694       0.46263421       1.03216877      -1.34765410      -0.60925698       0.66679591      -0.47218844   -2048.26700550
H        6.01654690       2.40949672       0.37001525       0.16802474       0.05058385       0.03964620       0.87100899       0.67334849      -0.23357411       0.21786594     -15.84487715
H        7.41140916       2.42033593      -0.22251695      -0.09468483      -0.03201184       0.07413773       0.56897229      -0.26526308      -0.56325072       0.25543183     -15.73143184
O       -1.36065263      -1.49645845       4.22445032      -0.46855540       0.19590465       0.51948971       1.06653726       0.65872532       1.65739381      -0.42765146   -2048.29277837
H       -0.76293401      -0.83994247       4.68196298       0.25532341      -0.07037154       0.14196994      -0.74073106      -0.28503868      -0.95617664       0.23026569     -15.77911825
H       -1.39942148      -2.23378366       4.87961444       0.04397446       0.13536639       0.36379431      -0.44675422      -0.05467187      -0.46638915       0.21639821     -15.87036180
O       -1.66666226       1.45685996      -1.56794590       0.78041768      -0.12299283      -0.38072437      -0.47004855      -0.98291093      -0.70949882      -0.41743585   -2048.67839336
H       -0.99067728       2.04546941      -1.95541126       0.12472150       0.14107606       0.05752362      -0.11290153       0.06947311      -0.18883470       0.22127101     -15.70689943
H       -1.92075484       0.84574419      -2.30526020       0.15008036       0.17173136      -0.29400317       0.17433000       0.74721992       0.60269320       0.24669044     -15.60957924
O       -7.37927515      -0.37881250       0.28554802      -0.46583905       0.19997794      -0.47646112       0.17273512      -0.19239190       0.30130681      -0.43639901   -2048.08157632
H       -6.72927596      -1.09117121       0.43876765      -0.05657516      -0.08291851      -0.00827509       0.30763477      -0.24893294       0.17031807       0.24601756     -15.83946364
H       -8.21333466      -0.85208519       0.24521967       0.05152033      -0.08154082      -0.00722672      -0.24600562       0.08612502      -0.06870016       0.25091264     -15.66337219
O        3.61101991      -2.13290426      -0.47719323       0.11344313       0.13227886       0.96897249       0.62659043      -1.26694083      -0.75298178      -0.44089156   -2048.24534923
H        3.84328991      -2.92908549      -1.05577792       0.14256570      -0.05087064       0.01029948      -0.54430038       1.51164651       1.05132842       0.23729573     -15.70074886
H        2.63013356      -2.14792280      -0.30223061      -0.05590693      -0.15171385       0.09388441       0.22056687      -0.37887099      -0.16866419       0.20745361     -15.90077009
O        2.34170371       0.45639995      -5.31053657       1.73081520       0.41525060       0.36030153      -0.96804053      -1.50001168      -0.79331166      -0.46738875   -2048.43856698
H        1.67170320       0.32779001      -6.02937065      -0.20940290      -0.14631609      -0.28842982       1.05623066       0.20812610       0.98266214       0.23290250     -15.72050479
H        2.47106309       1.39133570      -5.21225152      -0.32976573       0.06913472       0.09422508       0.18299416       1.23611188      -0.15507665       0.22189267     -15.90159065
O        7.69267426      -2.44665212       5.65339014       1.01741340      -0.07879888      -0.44361491       1.56299889       0.66716123       0.83506191      -0.50254929   -2048.13717121
H        6.81303094      -2.46851433       5.35387348      -0.05272247       0.02422992       0.24288603      -1.96109736       0.05214138      -0.56386209       0.27079141     -15.71201774
H        8.10340318      -3.19358201       5.23364379       0.10064851       0.14321397       0.07602580       0.39887503      -0.61278790      -0.39674202       0.26622370     -15.71575037
O        1.40241385      -1.89049383      -9.63332010       0.02610589      -0.04113360      -0.40631655      -0.09735063       0.02860943      -0.06337570      -0.46777493   -2048.14512748
H        1.89956777      -1.34280166     -10.26070254      -0.29823444       0.19052201      -0.17040830      -0.17258573      -0.56793320       0.18361974       0.25498301     -15.68627188
H        1.17970644      -2.75191766     -10.04919497       0.07882247      -0.00073975       0.20907148       0.05197756       0.54176950      -0.17095083       0.24607937     -15.87394693
O       -4.44569279      -6.62848226       4.04413670      -0.85748553       0.07350649      -0.60679706       0.12541443      -1.46748245       0.25175223      -0.45268637   -2048.08224043
H       -4.29121204      -7.52741619       4.42895818      -0.19928931      -0.08267139       0.19333458      -0.07595176       1.26381838      -0.51878113       0.25507146     -15.65200639
H       -3.59765610      -6.22727864       3.84141397      -0.16522948      -0.13362899      -0.05552851       0.70179611       0.32057649      -0.07442196       0.24540800     -15.87028623
O       -2.64591113      -1.46300094       7.56264812       0.53821405      -0.05059361      -0.10667395       0.70380509      -0.11515684      -0.06146536      -0.48428807   -2048.32978016
H       -3.59731051      -1.27279879       7.50724642       0.06461878      -0.02388656       0.03062198      -0.29893786       0.37161818       0.09999544       0.21946272     -15.95202510
H       -2.18089380      -0.65273741       7.28105989       0.03730056       0.22099646      -0.12712174      -0.47240865      -0.23755191       0.28232253       0.24234553     -15.79555449
O        2.68701693       3.27552501      -5.61772134      -0.64867626       0.71763317       0.43979322      -0.29693928       0.90206605       1.49341094      -0.44955695   -2048.29168618
H        2.07818512       3.56034580      -6.31278136       0.09212127      -0.01599020      -0.15146419      -0.30983600      -0.02227591      -0.24678656       0.23140177     -15.84576128
H        2.38502594       3.69728145      -4.75276675      -0.23382463      -0.09755692      -0.07990075       0.30745786      -0.72464991      -1.75056827       0.24386926     -15.67872468
O       -1.41377481       7.39304603       5.85577489       0.50151657      -1.21153875      -0.53882727      -0.30431566       1.82922602      -0.33502752      -0.46122161   -2048.22196519
H       -1.04630184       6.63234454       6.26665449       0.10338804       0.09596584      -0.16841808       0.61143106      -1.59898031       0.49109536       0.23644616     -15.79419874
H       -0.64839706       7.98671528       5.76797485       0.04500666      -0.27227447       0.03107892      -0.23822215      -0.08886325      -0.12787104       0.23621471     -15.73926291
O       -1.71106479      -3.97745624      -1.61954179      -0.20465832      -0.31064312      -0.05618843      -0.29004911      -1.33562648       0.08327781      -0.46485719   -2048.36205208
H       -1.39577866      -4.39868268      -0.78464657      -0.47974817      -0.17799126      -0.28427720       0.35951334       0.57918733      -0.30467471       0.23036557     -15.77432643
H       -1.54247776      -3.00087430      -1.58956175      -0.06911355       0.06699165      -0.08398627       0.00271353      -0.03774990       0.13686718       0.19541943     -15.93081307
O       -1.59807813       1.29596352       8.08251211       0.04390636       1.00906381       1.12539088       0.39981267       0.03751443      -0.24985842      -0.45055622   -2048.15674430
H       -0.68902880       0.95791691       7.94056414      -0.04164957      -0.23917820       0.07439030      -0.37058786       0.01680497       0.41272601       0.24069001     -15.82912947
H       -1.81785502       1.14300649       9.00951140      -0.29583808      -0.02382988      -0.08433087       0.17050895      -0.01239466      -0.19944730       0.24841832     -15.68815178
O       -6.58370212      -5.70937759       5.06660485       0.88339262      -0.16015160       0.42278428      -1.10684359       0.63797051       1.47231317      -0.50550097   -2048.20846099
H       -7.20829307      -5.71658466       4.34797126      -0.12241134       0.00348432       0.22142359       0.11762279      -0.13817844      -0.57950121       0.26453283     -15.69643655
H       -5.67521315      -5.75496656       4.76097955       0.22993336      -0.04563258      -0.13246524       0.30042452      -0.73038936      -0.81992298       0.23075093     -15.85304591
O        3.64962059      -0.18588990      -2.32097595      -0.49847290       0.64303414       0.14743849      -0.39731458       1.13156295      -0.08384660      -0.45766702   -2048.46397877
H        3.67398616      -0.77531162      -1.56056134      -0.00396661      -0.14627800       0.05525339      -0.02805409      -0.56188846       0.53646153       0.20821926     -15.86124878
H        4.05379431      -0.68659069      -3.02004437      -0.04067028      -0.46682213       0.07026716       0.45134315      -0.60300845      -0.94084734       0.22842100     -15.78709406
O       -7.68748476       3.98399712      -2.39985502       0.97801663      -0.38554994       0.04035770      -1.16451657      -0.36721006      -0.54921764      -0.47777280   -2048.03533685
H       -7.41563652       3.06350458      -2.18229565      -0.02800665       0.17782457       0.09828652      -0.37967589       0.36941677      -0.24190208       0.25138208     -15.86707765
H       -8.51890615       3.97247965      -2.94737155      -0.00111676       0.13889373      -0.23668469       1.43391633      -0.27613941       0.93693030       0.25745213     -15.67643857
O       -5.35473030      -3.41158182       5.48158987      -0.82886476      -1.06650155      -0.05638868       0.33351392       1.36098063      -0.36431366      -0.44672254   -2048.27300256
H       -5.79398517      -2.53620995       5.46057231       0.13670796      -0.04579889       0.18720089       0.25862524      -0.67789507       0.34755635       0.25395283     -15.68744868
H       -6.04774423      -4.08424140       5.39887696      -0.11454495       0.24863650       0.19731107      -0.40158060      -0.32102516       0.08972582       0.21390712     -15.84689872
O       -0.00234514      -8.13213261       4.84293541      -0.44661785      -0.43865327       0.34301159      -0.27934512      -2.88204193      -1.67972553      -0.49099448   -2048.10066915
H        0.56653287      -8.89957782       5.06201054       0.14321444      -0.12526337      -0.06078183      -0.43960276       1.09683478       0.12377104       0.25940448     -15.67752808
H        0.21238105      -7.37310086       5.32877031      -0.14394154      -0.03749328      -0.11970372       0.64478111       1.85301030       1.57079136       0.25679076     -15.84908451
O        5.50826223       3.58751053      -6.08229437      -0.43150456       1.39135359       1.95324103       1.63598156      -0.22799918      -0.46645299      -0.46104020   -2048.20581806
H        4.60773139       3.73401643      -5.88668175      -0.01533851      -0.36861834      -0.13976085      -2.23685193       0.25241607       1.05274153       0.23620820     -15.80162330
H        5.44621244       3.60309147      -7.03235726       0.14489015      -0.29707332       0.21264899       0.55595958      -0.08130458      -0.78387010       0.24643733     -15.65036422
O       -2.37157135       4.78930262       1.23929686      -0.04942684      -0.41726949      -1.80003635       0.91300404      -0.41406724      -1.67377198      -0.42463899   -2048.29891866
H       -1.96670049       4.48127551       0.36485106       0.10137042      -0.01181482       0.00597756       0.28013277      -0.05481893       1.35597289       0.21809466     -15.85591239
H       -3.16596391       5.18450498       0.86228105       0.31458207       0.00759197      -0.11699776      -0.91982937       0.62751079       0.29905424       0.21231885     -15.85114296
O        4.09448299      -4.98080981       0.84491895      -0.27362671      -0.47784825      -1.17620583       0.69623804       0.91619134       0.19042595      -0.44590461   -2048.10671943
H        4.74374148      -4.97221904       0.11493724      -0.03024174       0.03114982      -0.07192647       0.00437572       0.10180967      -0.00047307       0.22873831     -15.85830282
H        4.37024218      -4.30706310       1.53575520      -0.06407867      -0.01927539       0.02801214      -0.12761067      -0.58870751      -0.86979294       0.23387183     -15.87560330
O       -2.79059023      -1.65012624      -4.18901903       0.43246824      -1.22847928      -0.41937711      -0.83368194       0.07306382       1.71506143      -0.42545831   -2048.31845623
H       -3.53675378      -1.14098357      -3.76105266      -0.01871620       0.02211660      -0.06420773       0.40841234      -0.11535858      -0.93773687       0.21763313     -15.84271474
H       -2.31509523      -1.80911694      -3.33124576      -0.15009489      -0.09232975      -0.09691192       0.30802509       0.10842565      -0.71904367       0.21363381     -15.75042446
O        6.14798235      -0.68514661       0.02431454       0.69922952      -1.09196339      -0.53336948      -0.69050753      -0.24169578      -0.81347632      -0.45451176   -2048.28836286
H        5.26141000      -1.12941595       0.10522499       0.00851568       0.08417005       0.00196400       1.17522299       0.20493668       0.40995014       0.22812395     -15.85983245
H        6.78537530      -0.75529259       0.76052598      -0.05343760       0.08444520       0.41115348      -0.62545902      -0.44177961       0.24223059       0.22148523     -15.89926168
O       -4.02666225      -6.54217023      -5.41981382      -0.00927307      -0.04697350       0.20583386       0.39078447       0.79044199       0.09325047      -0.46954867   -2048.32151693
H       -3.50373402      -5.77201564      -5.06019479       0.05456897      -0.05659582       0.03843282      -0.57962418      -0.77062958      -0.04234352       0.23113130     -15.86463973
H       -3.36530786      -7.23546265      -5.54815944       0.07206725       0.08150615      -0.16280258       0.15215582       0.18270816       0.02786668       0.24699001     -15.74414100
O       -6.46410594       1.37869600      -1.55648903      -0.13700227       0.27897549      -0.15267046       1.82096231       0.97605157       1.01821518      -0.45705292   -2048.32229394
H       -6.77876789       0.87359775      -0.77339292       0.11057321      -0.19956571      -0.10664689      -0.36274359      -0.13292930      -0.50973636       0.21567658     -15.92045330
H       -5.63890509       1.80723421      -1.15018441       0.06885050      -0.25371815      -0.09134020      -1.39756286      -0.35257769      -0.58368832       0.23092213     -15.76363586
O       -1.25484364       0.89558264       2.06742190      -0.88542173      -0.65441945       0.16075001      -0.79048061      -0.34475815       0.10538102      -0.43510771   -2048.80340981
H       -2.16368086       0.60184612       2.33139388       0.11389710      -0.14305275      -0.00022809       0.57893550       0.36762768      -0.08061382       0.21628562     -15.75905645
H       -0.91787154       1.34661058       2.85662466      -0.02094478       0.01103689       0.07626862       0.07427378       0.15681158      -0.32485077       0.22318885     -15.70804635
O        2.37729835       4.37314661      -0.93896939       0.69775822      -1.26019753      -0.43761879       0.18587868      -1.08744311       0.50618756      -0.45200387   -2048.40548038
H        2.27769978       3.75281985      -0.15696984       0.00501115       0.22081376      -0.39862344       0.27510750       0.91033071      -1.00970519       0.21533190     -15.89349423
H        2.57727004       3.80661286      -1.72134820       0.04227865       0.27164560      -0.04846787      -0.33345294       0.24194410       0.62223840       0.23334762     -15.84407885
O        0.35869859       4.63317935       8.74804505       0.19644469       1.67124599       1.19650171       1.29933798       0.51174402       0.93707168      -0.50419277   -2048.28741497
H       -0.00759550       5.28891123       9.35047188       0.06634923      -0.12855633       0.30915567       0.27234629      -0.05050231       0.07535553       0.24578129     -15.70569512
H       -0.40607862       4.37107138       8.27800356       0.06572709       0.00659419      -0.02949924      -1.42519617      -0.55768043      -1.07671463       0.24749461     -15.81412819
O        1.29243614      -0.42169086       1.92623630      -1.28441662       0.48591633       0.57580056       0.81057900      -1.70878685       0.61690807      -0.40722641   -2048.54355842
H        0.93029412      -0.10431077       2.77012752      -0.23655679      -0.24006137      -0.02921174      -0.10081489       0.01041219       0.06231772       0.24201512     -15.68700528
H        1.42691565      -1.41391394       2.03198395      -0.10205152       0.21800612      -0.19610652      -0.46398664       1.50527811      -0.20321909       0.24873945     -15.54454482
O        3.93426876       7.34244799       1.20450294      -0.08405330       0.35130667      -0.62065753       0.38018367      -1.07784128      -2.04322124      -0.51729691   -2048.35766101
H        3.04205953       7.42385049       0.76438060      -0.56097487      -0.23362282       0.12075742       0.88787669      -0.01253599       0.52039951       0.21586202     -15.94733184
H        4.47932676       6.93682190       0.44772109       0.12186087       0.04775681      -0.14682834      -0.94858003       0.85370857       1.65428281       0.24474400     -15.74776198
O       -3.58687899       3.33094818       3.15921329       0.35104474      -0.47508740       0.16131196       0.97887719       0.69398773      -1.53778195      -0.46208468   -2048.34012318
H       -3.07391411       3.65258367       2.32154554       0.26035487      -0.10156718      -0.04314810      -0.88633281      -0.65904564       1.65806770       0.21102594     -15.91313634
H       -2.94552844       2.96613242       3.78069533      -0.41282093      -0.02466601      -0.03648092       0.09706674      -0.03010775       0.04568409       0.22908780     -15.82852857
O       -4.37236234       5.80090402       6.75613817       0.70029777       1.24488942       0.09354205      -2.21979904       2.33457756      -0.59708548      -0.42870247   -2048.04532206
H       -4.10649884       5.85443884       5.80133616       0.08515942       0.14675065      -0.09720021      -0.02737461       0.15840827       0.34098488       0.22786769     -15.86589956
H       -5.04949719       6.60009188       6.81161703      -0.02049882       0.13618287      -0.10589749       2.11958432      -2.54001069      -0.02154750       0.23874097     -15.61422953
