2000
Lattice="32.00641427435762 0.0 0.0 0.0 22.8655992647225 0.0 0.0 0.0 32.218625256556976" Properties=species:S:1:pos:R:3:momenta:R:3:forces:R:3 charge=0 spin=1 energy=-2944523.988859659 free_energy=-2944523.988859659 stress="0.0005235651003284463 -0.00028213845979069307 -0.0006232177184609034 -0.00028213845979069307 0.0027531703966444947 -0.0014870225666269912 -0.0006232177184609034 -0.0014870225666269912 0.004033517290787001" pbc="T T T"
Na      13.34011318      18.02197508       7.03100447       0.11842835      -1.04689139      -0.05863945      -0.12995104      -0.06088066       0.00002811
Na      27.17942211      16.03879776      28.47450106      -0.93859880       0.80049312      -0.69902420      -0.23953260       0.04066008       0.13203791
Na      -3.62055648      15.90605873      40.03629564      -0.16813391      -0.65701368       1.25327299      -0.09534971       0.24737749       0.08290373
Na      14.41337857      12.60102238      32.67922617      -0.17073341      -0.87528514      -0.14979236      -0.02611034       0.04849213      -0.27691710
Na      15.18158285      14.95786769      13.04807123       1.32021614       0.46451909      -0.80196867      -0.17907943       0.27793172       0.17139338
Na      24.34926135       9.73075770      10.16625230      -0.05256375      -0.42389386       1.56317352       0.22157213       0.22390695       0.03778545
Na      19.21285717       5.29933172      27.79246738      -0.50593178       0.43694089       0.34269699       0.04994824      -0.08444852       0.35176978
Na      19.13675378       0.27636768      17.53528748       0.63533198      -0.83761260       0.89662336      -0.27803692      -0.12701331       0.11996764
Na      31.49228020      -2.43809798      15.29545090      -0.43811781      -0.39811192       0.75998953       0.37950808      -0.08254577       0.07747825
Na      -4.70408994      10.83016082      31.88933443      -0.12407589       0.94739957      -0.39513437      -0.44598988       0.22736247       0.31943086
Na      19.89948463      16.96691192      18.04721738       1.78926302       0.66995070       0.62694180      -0.16814059      -0.58886075       0.26225117
Na      30.83830502      24.40871619      22.37997591       0.58203733      -1.06440916       0.32482739       0.91568577      -0.07642607       0.12951545
Na       5.21955456       9.07041282       0.65192736       0.58338561       1.04199750       0.69424631       0.36635008       0.01972247       0.36231390
Na       3.82609866      16.25764562       8.15881726       0.21091882       0.47529872      -0.93387321      -0.32361081      -0.23436132      -0.11734198
Na       3.71028626       7.54686917      22.34890041       0.54379362       0.88494910       1.75392138       0.44707814      -0.06929291      -0.25231904
Na      30.12650382       6.59358519      19.10417103      -0.49653346      -0.41832580      -0.45967251       0.39059308       0.42191762       0.11287057
Na      22.43428669      17.98361726       9.88347394       0.82281105      -0.19060103       1.22825216      -0.00949903      -0.42016301       0.46928528
Na       5.20395583       5.19758276      12.96824874       1.78705667       1.22707606       0.07822582      -0.77564508      -0.12520696      -0.14813338
Na      16.32564463      10.02820285      21.98633222       0.15612163       1.42600382      -0.17284407      -0.54257745      -0.06799039      -0.34027049
Na       4.51056702      14.72071388      27.11676830      -1.70390579       0.57673369      -0.10805388       0.78004181       0.23170592       0.18662311
O       23.30770079      12.83663417      21.08085297       0.21426362      -0.44536647      -0.31687476       0.62807357       0.21544802      -0.57765079
S       24.22191267      13.07953928      22.15265586       0.11461357       0.36336953      -1.03513826      -0.93790478      -1.75639296      -0.60763347
O       25.30036933      13.99210020      22.01637981       0.27804681       0.16995725      -0.34494883       0.11177208       0.09892395       0.13959429
N       24.52251636      11.64250810      22.75179410      -0.85171940      -0.02046374       0.46632067       2.01347446      -0.39872956       1.03823805
S       25.72698455      11.33037282      23.76281097       0.36744865      -0.11727071       0.73894186      -3.92890787      -1.13295996       0.85854483
O       26.80525476      12.21881668      23.84004392       0.52994349       1.32250051       0.76174457       1.58306479       1.17670083      -0.29751489
O       25.95606176       9.90218593      23.81258069       0.35215968       0.90507196       0.91007424       0.12918140       1.62884355       0.07186940
F       24.96536930      11.62976419      25.28562499       0.61664084      -0.15044377      -0.72662862       0.81163049      -0.48449740      -1.91065252
F       23.27753376      13.65912487      23.21454845       0.85592589      -0.46305764       0.24835469      -0.17313981       0.66602290       1.14293361
O       32.55160000       0.77083566      18.28242155       0.55899764       0.52215130       1.14771183       0.19074671       0.16640288      -0.15274635
S       31.33189215       1.13372439      18.91621172      -0.49100130       1.67708751      -1.71607686      -1.22633755       0.17888673       1.29009581
O       31.35634260       1.97144097      20.11142754      -0.49135408       0.60129131       0.27703716       0.19140288       0.10737084      -1.54115927
N       30.32171240       0.00016117      19.32676429      -0.74717357      -0.00251818      -0.34353480      -0.40638989      -1.02949345      -1.56498957
S       30.29047851      -1.44956144      18.56503572      -0.89784355       0.07975885      -1.67920193      -1.40992308       1.89653122       2.41564322
O       30.94086054      -1.45060525      17.31682362       0.74057513      -1.12860616      -0.10026687       0.46057233      -0.35044658      -1.70446289
O       29.01567669      -2.10199561      18.74449130      -0.55977760      -0.17715230      -1.55807874       1.39296961       0.89650452      -0.14358731
F       31.29220440      -2.11798484      19.54971265      -0.18824953      -0.67202043       0.23743502       0.07126085      -0.93112117       0.14735672
F       30.55774579       1.98677557      17.73558059       0.32817598       0.17648706      -0.15595756       0.79899758      -0.64497048       1.56405389
O       13.94666786       8.21978968      21.43397264      -0.46922581      -0.80150495       1.18256767      -0.45462745      -0.25254071       0.42898241
S       12.63842277       8.25154339      20.85452525       1.03996680      -0.13624013      -0.96657745       1.98991060       1.31339741      -1.22233760
O       12.62003710       8.56974107      19.44293211       0.34058109      -0.19090773      -0.63844816      -0.80461371      -0.15946092       0.78710723
N       11.67285639       9.07752627      21.77921229      -0.67605176       0.09354126       0.54692038      -0.56451368      -0.05056936      -0.56934077
S       10.25918894       9.42713434      21.13868925       0.26863864      -0.98050802      -1.69381271       0.53619051       0.68754792       0.47642475
O        9.59093974       8.31580920      20.53760057      -0.48901494       0.20248730       0.59145908      -0.33899695      -0.22598734      -0.41759598
O       10.21075212      10.66961279      20.41089185       0.26199232      -0.05488768       0.33279951       0.04494855      -0.41840473       0.66285461
F        9.51089148       9.68038272      22.48816577      -1.03551659       0.50524988       0.14391421      -0.11022522       0.19259870      -0.21441822
F       12.08248583       6.79748345      20.92139468      -1.05633990      -0.32777274       0.07819632      -0.29062352      -0.72359961       0.21808392
O        2.56530388      20.32668492      12.37145880      -0.45745776       0.35166383       0.64901301       0.76964778       0.10698351       0.27830631
S        1.48875992      19.40209631      12.41302934      -1.12904401       0.24100833      -1.59623870      -1.06992257      -0.74297011      -0.84037489
O        0.58707902      19.42270223      13.51854066       0.17693785       1.07439518      -0.06399468       0.53686607      -0.61301565       0.83748811
N        1.81692464      17.90072400      11.92453205       0.25500512       0.03404375      -0.28593993      -0.04862940       1.38376951       1.00122690
S        2.84711740      17.72461000      10.76275333       0.87230589       1.38289124       0.35168190      -0.28141230       0.00619834      -1.35086894
O        2.94105379      18.77594725       9.77973610       0.33868943      -0.10794155       0.96850969      -0.01506717      -0.58857870       0.66515636
O        2.69935205      16.38053845      10.25743018       0.22071871      -0.07322404       0.48343364       0.36793479       0.32502258       0.27250823
F        4.26428915      17.74580654      11.44768349       0.95651709      -0.49576569      -0.40817100      -0.00143153      -0.11123439       0.27241102
F        0.52431999      19.89228972      11.29935911       0.40675706      -1.82031671       1.34536542      -0.00366365       0.15806033      -0.95957094
O        7.02190345      10.39504967       9.50863386       0.58714070      -0.38222977       0.18808323      -1.27559829      -0.47035354      -2.04327464
S        7.89611069      10.65366537      10.55505974       0.00312572      -0.57240703      -0.74242910       1.60333025       2.32496023       2.78507280
O        8.62772924      11.90308534      10.63591190       0.06219490      -0.45223014       0.89077588      -0.74167955      -1.12923014      -0.46036658
N        8.71517017       9.37952899      10.91798462      -0.01800357       0.20423388       0.03306651       0.83991683      -0.17394528       0.48010078
S       10.02802768       9.40737633      11.85021250      -0.62581163       0.69455550      -2.07345336      -0.69369990      -1.79193163      -1.59596610
O       10.66922450      10.66284808      11.99711968       1.48262317      -0.87778758       0.15013891       0.35583588      -0.17249727       0.22001348
O       10.77695576       8.20267292      11.49504198       0.22437644      -0.78559274       0.93262782      -0.57834810       1.65850174       0.81614596
F        9.37003167       9.08277416      13.24279645      -1.09283626      -0.25797920       0.68865017       0.10210644       0.17937472       0.01127115
F        6.85811594      10.80895291      11.79788609       0.67433072      -0.75483962      -0.81623059       0.23344748      -0.35403371      -0.20518042
O       20.05609466      12.15328398      16.73173491      -0.31119715      -0.49396159      -0.49275988      -0.52579325      -0.14058653       1.86113596
S       20.04162355      12.36679524      15.34398960      -0.05595970       2.03223142      -0.00789703       1.14946306       0.59091806      -2.38951254
O       21.29763866      12.77451272      14.74785112       0.28502995       0.19848998      -0.39027050      -0.97893631      -0.57518232       0.21331581
N       18.92350896      13.24259074      14.66225787       0.52834491       0.80561293      -0.33679941      -0.15307830      -0.52556676       0.54750973
S       17.40142084      13.17844686      15.05543271       0.57772650      -0.07044245       1.94205195       0.16986558      -2.09139132       1.13329113
O       16.72653750      14.04219003      14.15165836      -0.57291116      -0.24453092       0.05703000      -0.09811640       0.57005715       0.11320654
O       17.07827238      13.12227487      16.45704637      -0.55230811      -0.31069998      -0.15400225       0.26861000       0.58522224      -1.10227048
F       16.94573685      11.71199132      14.56194571      -0.65139815       0.11191298      -0.86630254       0.28933999       0.67996472       0.03173112
F       19.70128997      10.90474436      14.78468753       1.67471917       0.60488077      -0.51612576       0.31025699       0.25738433      -0.16041975
O        4.64917510       8.26575991      28.71688746      -0.77778463       0.71313020      -0.46277798      -1.64355230       0.09573075      -0.64011598
S        5.70384575       8.98812590      29.32198043      -0.84160477      -0.39974335      -0.93011593       0.84904528      -0.64558160      -1.15709531
O        5.85529143       8.83250878      30.71541007       0.28880925       0.34754407       0.01833153       0.15671495      -0.01100291       2.00078893
N        5.98867354      10.44840115      28.94635294      -0.40408749      -0.57056497       0.32110723      -0.57877839       1.98788273      -0.10490549
S        5.59906591      11.19950652      27.58634027      -1.05444273       1.66240660      -0.16574638       0.88051921      -3.47309041       0.95197207
O        5.84324936      10.25888664      26.53783988      -0.10916652      -0.77328037      -0.15170993      -0.05763636       1.11001277      -0.87363034
O        6.01045145      12.54803668      27.61770183      -0.92947633      -0.05424140      -0.38697489       0.55022812       0.77338904      -0.45672294
F        4.04740417      11.33820908      27.63067855       0.22243112       0.33807376      -0.04197096      -1.11139107      -0.06983636       0.17255628
F        6.93097617       8.19833639      28.74105808       0.22284441       0.62746360      -0.56877066       0.75307882       0.14172471      -0.06074801
O       31.53464848       5.33758353      20.45727489      -1.37624235      -0.72070466      -0.94756770      -0.96968782      -0.49098107      -0.92224663
S       32.77682969       5.10390530      21.09587553      -1.47571382       1.29110863       0.57744623      -0.91140854       0.60811740       0.05647140
O       32.73253685       4.57951358      22.40262543       1.24977770      -1.02647655      -0.52976587       0.44088107      -0.66828156       1.06006491
N       33.65177559       6.39772301      21.07699416      -0.72237956       0.64156208      -0.07635987       1.56556821      -0.79534537      -0.37828889
S       33.60417837       7.48915240      19.94963788      -0.63877763      -0.83784316      -0.10220532      -1.12466490       1.47238564       1.09288430
O       34.50075771       8.51091243      20.38890437      -0.73995899      -1.70582596       1.00486096       0.12052375       0.27444553      -0.24236010
O       32.25235587       7.88721062      19.64600088      -0.13115096      -0.29130639       1.05354202       0.92004937      -0.46933904      -0.81490022
F       34.27112359       6.91802472      18.63754227       0.43946318       0.20214720       0.49735221      -0.51698887      -0.26681471       0.29491207
F       33.52038545       4.02581580      20.24080811       0.95160746      -0.33674150       0.09512922       0.27362281       0.31701624      -0.20155098
O       27.02153322      21.76504156      26.38687240       0.84699401       0.11694288      -0.64778610      -0.52322769       0.62957072       1.18756533
S       27.02347557      20.59608533      27.21258748      -0.32247610       1.80529919       0.46427400       0.32764918      -0.92113382      -2.63678312
O       25.84897637      20.00472383      27.78030030       0.63849291       0.95662034       0.62341093       0.22565423       0.63527536      -0.50618130
N       28.27659613      20.52743243      28.13503923      -0.33550431      -0.08255123       0.64739367       0.25075561      -0.35629505       1.88868427
S       28.22528352      19.44885513      29.32634172       0.13557504      -0.91151990      -0.16702061      -1.09191048       1.60851359      -1.37438512
O       29.42519889      19.59168143      30.05992502       1.15796946      -0.26739528       0.23810946       0.69621116      -0.40095806       0.72681457
O       27.73195476      18.17106667      28.92104466      -0.76791452       0.08098673       0.58475245       0.30178997      -0.26991180       0.47245046
F       27.08618260      19.99495959      30.31577882      -0.92401162       1.21541078       0.45587146       0.56319970      -0.22694626      -0.34696490
F       27.52676985      19.58912223      26.03523361      -0.44062317       1.04859577       0.50527712      -0.50230974      -0.49287593       0.65523523
O       26.42414976       8.68563784      31.47198433       0.61518078       0.96893290       0.81823747       2.90598607       1.24889922       0.27136400
S       25.25831733       7.99888953      31.14199654       0.25436683       0.42615342       0.38160454      -3.41290140      -2.72217584       0.24626248
O       25.35076520       6.58159766      30.81387619      -0.25879458      -0.95377044       0.01053755      -0.36689258       2.37134123      -0.39556551
N       24.21223702       8.85523864      30.26939106      -0.32413340      -0.47248639      -0.64879795       0.76955563      -3.06484389       0.61855644
S       24.22677969      10.37798701      30.41766065       0.46495640      -0.98815589      -1.45382185       0.59483820       2.54342246       0.15279065
O       24.84335263      10.89126415      31.63025380       0.11559215       0.62914420      -1.32015210      -0.24131578      -0.29203603      -1.10548294
O       23.00900346      10.97904051      29.99259163      -1.00390522       0.53694939       0.22430567       0.12029730      -0.28778559      -0.12065059
F       25.28477020      10.76020010      29.24689944       0.68106843       1.16871596      -0.35268457      -0.38299429       0.04046792       0.68917161
F       24.49809435       7.91499243      32.56347393       1.32466991       0.06975145       0.20251438       0.10236380       0.24155155      -0.57988316
O       29.81419367      18.97194098       9.60839405       0.39573893      -0.05686151       0.01315439       0.98866284      -0.82096267      -0.76008219
S       30.93401504      18.14761455       9.22942037       0.48412895       0.85889539      -0.72634118      -1.04406011      -0.73668653       0.64845461
O       32.11838420      18.68305180       8.67190421       0.23756873      -0.13036201       1.04037068       0.48917595       0.50061405       0.65253162
N       30.46804466      16.90079985       8.33833512      -0.15173106      -0.75960159      -0.38486684      -1.09723461       0.52541602       0.84444928
S       31.42550095      16.02223164       7.48672629      -1.57384754       0.01888962       1.23790158       1.27389193       1.13147032      -0.05574260
O       30.60416068      15.12289737       6.73928850      -0.83382959       1.84141545      -0.49375314       0.20197283      -0.31108990       0.06278998
O       32.62096097      15.58901326       8.15603422       0.94443297      -0.43506439      -0.00614201      -0.63710356      -0.07495806      -0.42789435
F       31.99065650      17.06841906       6.40300419       0.23252035       1.15610990       0.32176068      -0.43116960      -0.77458662       0.33234194
F       31.26414768      17.40426482      10.64140030       0.48907164      -0.06069802      -1.58246041       0.17604293       0.51132774      -1.25165069
O        9.25492434      14.86059943      28.01667055      -0.11041506      -0.20351934      -0.92285373       0.04022528      -0.50132799       0.03357466
S        8.13963695      15.73188078      27.96819878       1.89757621       1.39074885       0.00968330      -1.80488682      -0.69704366      -1.37429857
O        6.79244453      15.28531676      28.28034732      -0.49183451      -0.27049784       0.45992608       1.33867455       0.42057765       0.27112958
N        8.17805384      16.52533804      26.60394365      -0.22653817      -0.59182537      -0.08965292       0.88673639       0.28378278       0.33153725
S        6.99730015      17.11950981      25.81319090      -0.04930079      -0.53344290       1.05025236      -0.99342012      -1.50267720      -1.06298220
O        5.83251905      16.25657351      25.74950820       0.52477414       0.33755651       0.27203574       0.35315707       0.48843193       0.18844889
O        7.43826095      17.67625265      24.57403118       0.54461564      -0.73323286      -0.69142729       0.37859774      -0.25964695       0.06272613
F        6.50473339      18.34166563      26.59677531      -0.20163793      -0.18218323       0.25345429      -0.30179232       0.99389762       1.03958666
F        8.49910723      16.80609978      29.02389157      -0.11941123      -1.04390083      -1.17638093      -0.30239224       0.69453776       0.49503356
O       22.26177794      -4.07815489      20.72684492      -0.05617432       0.44921263      -0.19340861      -0.38400680       0.41807589      -1.01495039
S       22.07946646      -3.28137521      19.54481837       0.35331717      -1.57757608      -1.40426949       1.07089293       1.80176020       1.39837158
O       21.99771876      -1.82291266      19.71218057      -0.11633331      -0.31049473      -0.34531816       0.08700757      -2.69373178      -0.82187718
N       21.05459690      -3.96795669      18.55398904       1.20035646      -0.53786540      -0.06042251      -0.51003850       1.32884872      -0.12790625
S       20.34858680      -3.05663992      17.43945819      -0.51089758      -0.21984288       0.11952691      -0.32019567      -1.19733751       0.05908148
O       19.75354997      -1.83607195      17.86328308      -0.91115677      -0.29060954      -0.45226436       0.19755198      -0.64659041       0.49563724
O       19.60297656      -4.00127292      16.64281898       0.49316188      -1.17903447      -0.45038423       0.19179723       0.83032346       0.32191557
F       21.53668075      -2.61931598      16.53398302       0.40967397      -0.11585699       0.46526187       0.49956417       0.22861890      -0.31177047
F       23.42501144      -3.54111983      18.69570168       0.60374483       0.97169299       0.20005954      -0.41167337       0.36601102       0.42166454
O       24.88439666      21.61666209      10.57189351      -0.57631552       0.03792850       0.02290424      -0.41666779       0.12821101       0.06433006
S       24.47369176      20.67064421       9.59576371      -1.40972313      -1.79685713      -1.58554427       2.25962830       0.25255063      -1.54116237
O       23.19048908      20.09224167       9.59889996       0.95277367      -0.59074551      -0.54331647      -1.87595809       0.17750345       0.17375983
N       25.58254516      19.60779174       9.38745351      -0.33042824       0.98767892       0.69427479       1.12656784       0.13619517       0.25299808
S       25.54121093      18.37486121       8.45262292       1.15343849       1.03840017       1.02414233       2.07021928      -0.67913604       0.06643906
O       24.34145008      17.62865047       8.55903852      -0.70423005      -0.49012908       0.43618732      -0.99546796      -0.55987757      -0.40722054
O       26.79460418      17.66058611       8.51969824      -0.97711683      -0.91163277       0.13574410      -0.79412150       0.28932515       0.15563427
F       25.57929239      18.93140398       6.98194404      -0.03322861       0.01760798       0.36161299      -0.40267450       0.34345415       0.05230573
F       24.61465080      21.44619790       8.16918376      -0.73122749      -0.59664471       0.27797604      -0.55535954      -0.19873597       1.15735102
O        3.08682256       8.89842619       0.92011487      -0.05677127       0.06301715      -1.29866013      -1.51064777      -0.86904383       0.60650206
S        1.96163663       9.47967710       1.62264448       0.99727010       0.22906380      -0.89367282       2.38529110       2.22285104      -0.76934677
O        0.65290599       9.32092549       1.12975866      -0.38810307      -0.70666415      -1.16479877      -0.88760227      -0.55606055      -0.17681119
N        2.25426655      11.02481160       1.83025959      -0.26548243      -0.13297220       0.04193822      -0.70092332      -0.45238313      -0.06686413
S        3.55887820      11.52302618       2.51740790      -0.19877092      -0.34967277      -0.12301185       1.97989249       0.28811821       1.35929501
O        4.76878451      10.72627748       2.31175261       0.12942749       0.20829968       0.65669990      -1.37775207       0.34858322      -0.14667872
O        3.34443578      12.01295356       3.85025396       0.21795661      -1.14737368       0.78430889       0.04108417      -0.35495630      -0.69407034
F        3.86945959      12.83857109       1.69072041       0.84432130       0.24548400      -1.12923253      -0.48553082      -0.30951631      -0.17152536
F        1.97764533       8.92367769       3.08903291      -0.02038548      -0.68804056      -0.48939366      -0.02141203      -0.35611352      -0.13937743
O       26.32329568      10.57695294       9.25173999       0.32555149      -0.14944358      -0.01989935      -4.56307602      -0.09959714       1.84262717
S       27.45076238      10.55040861       8.46283230       1.96198012      -0.48239911      -0.87554337       5.41616011       0.36161348      -0.92692947
O       28.59426735       9.94764793       9.09463273       0.28280641       0.31250176       1.53154594      -0.28396881      -0.07168406      -0.77428091
N       27.90901276      11.95324694       7.88254973      -0.27914066       1.18174411      -0.84120186      -0.37564886      -0.12204391       0.35504606
S       26.84531875      12.87097540       7.20911602      -0.93323913      -2.08121177       1.31309452       0.30571046       0.88486993       1.36670268
O       26.04102960      12.21005082       6.26073849      -0.93595432       0.55397155       0.54863431      -0.77976942      -0.39020121      -1.18369007
O       27.41821741      14.14911605       6.90236297       0.07530760       0.60412760      -0.13784149      -0.09141530      -0.41649595      -0.14313272
F       25.80578681      13.25757145       8.37358644      -0.28546660       0.08753834       0.95683047       0.38820863      -0.22180668      -0.18244594
F       27.14109045       9.70236708       7.19549179      -0.48019309      -0.71036320      -1.27114321      -0.31899858      -0.25002909       0.01473019
O       15.21324535      11.73580133      30.59787254       0.66725232       0.11723044      -0.74720727       0.25508222      -0.81103241      -0.04515833
S       15.42352643      10.53923255      29.80606259       1.11251812      -1.30450920      -0.75255779      -1.12155724      -1.16530848       0.05395040
O       14.91029795      10.57029617      28.46092934       0.04485238       0.46231157      -1.08816075       0.32759356      -0.18461993       0.80300158
N       15.07550273       9.14003071      30.46823751       0.00808748       0.14439030       0.99044720       0.15869151       1.00971651       0.56274223
S       15.40242415       8.91348692      32.04655902       1.02296556      -1.49326338       0.29109958      -0.22455227       1.69947898      -1.72340167
O       14.50200472       9.67044284      32.88848938       0.11914989      -1.44526115      -0.13344610       0.70518267      -0.44756225      -0.14808176
O       16.80768743       8.88839791      32.27569197      -0.41086060      -0.25550478      -0.39525129       0.01481252       0.33400995       0.41411170
F       14.95478753       7.45559520      32.12058822      -1.21741874      -0.28890644       0.50291827      -0.43706167      -0.88652915       0.17780522
F       16.97889868      10.44427964      29.65787368      -0.34622508       0.22482678      -0.20964644       0.45479807       0.29337025      -0.10044111
O       19.29076035       4.16032935      25.62142974       0.96309456       1.13224601      -0.31849421       0.44122368       0.03464632      -0.35675123
S       18.84129619       3.38350176      24.50221040      -0.03095472       0.33894237      -0.37579019      -0.14718455       2.07598472      -1.35645151
O       17.85860489       2.41576950      24.74999981       0.10410890      -0.01681239      -0.50156824      -0.82864273      -1.22626495       0.20571321
N       19.87246158       2.85493453      23.44560110      -0.34520319      -0.88143675      -0.91042600      -0.08575353      -0.10526206       1.09296942
S       21.15916754       3.61853247      22.97393154       0.61630904      -2.11445782       0.77674403      -1.91178620      -0.30658877      -1.81042624
O       21.53980732       2.99166241      21.75645317       0.17361229       0.10339608       0.16450344       0.34234285       0.25576141      -0.46107525
O       22.15286753       3.86052404      23.93617280       0.44537391       0.50600746      -0.41519349       0.39838043       1.22273874       1.14774692
F       20.48274829       5.05105410      22.50601294      -0.98471638      -0.86538313       1.12708345       1.12661755      -0.78669637       0.59035939
F       18.08667845       4.49852230      23.53460594       1.22163973      -0.03493922      -0.58129898       0.46299440      -0.96602935       1.30079031
O        8.79991835      18.74868479       6.15434069       0.99900726       0.16959415       0.54156463      -0.53349847      -0.13100027      -0.50818664
S        9.86759627      17.87428972       6.46491951      -0.63805737      -0.01336364      -0.46981180       2.00224328       0.17233016       1.97815323
O       11.09655755      18.48280740       6.95652036      -0.09224879      -0.52881478      -0.13258216      -0.70621634      -0.09227715      -0.39905369
N       10.11923092      16.78268380       5.39048199       0.19820808      -0.17205284       0.15942349       1.00422955      -1.72681713      -0.35431913
S       11.27986252      15.63215284       5.62840013      -0.98895901       0.39403573      -1.83959240      -2.27937770       1.11480808      -2.84410167
O       12.29595938      16.02612635       6.50360682      -0.31145092       0.12747364       0.53263315       1.42247343       0.37561363       2.02872849
O       11.72595448      15.05551552       4.39285796      -0.08847574       0.50046222       0.73320037      -0.66611135       0.49869689      -0.02613484
F       10.43573222      14.51727962       6.26091578      -1.36852194       0.37326092      -0.09413886      -0.09858923      -0.44208711       0.78867942
F        9.40331004      17.05146480       7.77065921      -0.44778794       0.25527207      -0.73030546      -0.07958887       0.27359462      -0.74227858
O       16.71642094      18.67963045       9.36043546      -0.56044307       0.40471147       0.64847874       0.29164699       0.32123476      -0.34311861
S       15.53251495      18.08566214       9.86159492       0.47737985       0.82111105      -0.03910774      -0.58242863      -1.38656342      -0.30028304
O       14.33631687      18.09563970       9.08351822       1.18106966       0.09685771       0.22805757      -0.07349383       0.18669030      -0.74833363
N       15.12104014      18.47278627      11.28947657       0.32654567       1.49490364       0.13811831      -0.79727060      -0.48148257       0.36931694
S       15.93095615      18.33639799      12.59510455       0.54561920      -0.23364168      -1.44419941       2.19959807      -0.29741570      -0.71683633
O       16.48192903      17.04221576      12.92825924       0.24883149       0.13707458       0.55199373      -0.67134571       0.53919584      -0.65330929
O       15.33980432      19.09391208      13.60744230      -0.29282807      -0.75095195       1.42323316      -1.48416984       0.70186579       1.85253739
F       17.15805262      19.24653272      12.23303977      -0.45499443       1.98699604       0.02269031       0.95959973      -0.52494395       0.18192996
F       15.90907330      16.53152960       9.91926296       0.56248841      -1.35438736       0.03012951      -0.21374539       0.62828511       0.40407693
C       12.68100896      14.71936659      11.04808080      -0.33806463       0.19833896      -1.19797295      -0.62577897       0.30248713      -1.34465361
O       13.46952057      13.97032387      11.91746424      -0.01511350       1.66199754      -0.35762453       0.53140736      -0.46011370       1.26347947
C       12.57211079      13.41702135      12.94700359      -0.59946780      -1.71146717      -0.98653756       1.07964873      -1.50502217      -1.46193588
C       13.39413088      12.60882955      13.96510478       0.82428216       0.07487287       0.81282954       0.41956097       1.22353816      -1.97669291
O       13.96877855      13.43883910      14.93987624       0.74381805       0.27277534      -0.00680374       0.01644527       0.46726483       0.81314892
C       13.13078281      13.60244505      16.09108297      -0.78317199       1.49028826       0.37031662       1.98796630       0.38277617       1.40429866
H       13.27194225      15.07399269      10.19610224      -0.15645206       0.09211480       0.01346325       0.06710054      -0.39978415       0.07784472
H       11.85392715      14.06397351      10.68318918      -0.13214737      -0.02979013      -0.01425918       0.31651974       0.73037839       0.03314188
H       12.31223915      15.64004520      11.49935971       0.00762865       0.23131680      -0.22692046      -0.30756536      -0.24487324       0.31898978
H       12.05927646      14.27502810      13.30244412       0.01851028       0.11281087       0.14889084      -0.82720292       0.52981800       0.94499981
H       11.92008895      12.73854574      12.36418639      -0.05566598       0.21705777       0.04765496      -0.04348399       0.26315823       0.59661078
H       14.18840811      12.14383156      13.35501542      -0.06701735      -0.00150518      -0.21503444       0.08961440       0.20089690       0.39319554
H       12.84005090      11.79309512      14.34260975       0.07016278      -0.07806793       0.05281800      -0.87011099      -0.76025599       0.79766518
H       12.24481432      14.14831708      15.92764097       0.00544794      -0.11664580       0.34624862      -1.11644483       1.01537800      -0.74331045
H       12.81895552      12.63162008      16.41160416      -0.18687984      -0.08964735       0.05504974      -0.07958589      -0.83507836       0.51832837
H       13.66491544      14.14711190      16.97170342      -0.39435121       0.10022632       0.08105712      -0.49362063      -1.09879243      -1.85163033
C       20.89205182      13.97230970      -3.80124489       1.10546024       0.63478319      -0.33562999      -0.21367528       0.82198334       0.10893028
O       21.02218104      13.64041674      -5.14442105      -0.18110837       0.74265340       0.97378700       0.89641988       0.76825380      -1.77167344
C       21.13473107      12.29057627      -5.46441242      -0.19438873       0.08621500      -0.62489789      -1.90834212      -1.92975402       1.65948212
C       21.18415720      12.07771018      -6.96263208       1.21061326       0.10996513       0.33052205       1.06819379      -0.18077950      -0.09600294
O       21.06191796      10.65904066      -7.27040548      -0.19928099       0.66376256       0.53571958      -1.23041987       2.32301688       1.38851964
C       21.74920241      10.16568534      -8.35993229       0.15461265      -0.39812109       0.86963295       0.19096529      -0.76296127      -1.55914450
H       20.02154302      13.44222635      -3.42502400      -0.06844013       0.12227519       0.03732400      -0.28542262       0.15781549       0.54852200
H       21.76676436      13.66035514      -3.22017368      -0.12981481       0.01293712       0.09856370      -0.01684261       0.14229251       0.07071633
H       20.75609171      15.09908164      -3.78733429       0.13772589      -0.02572692      -0.19791563       0.08162528      -1.44279504       0.36587879
H       21.86238615      11.71935501      -4.84849635      -0.08116017      -0.05581832       0.04943741       0.58818996       0.63422835      -0.69949323
H       20.20890651      11.78838596      -5.06507669      -0.19481700       0.02193582      -0.15383907       0.10946978       0.18967463      -0.49235713
H       22.12943053      12.48005867      -7.30973956       0.31882964      -0.22944013      -0.03214589       0.49549702      -0.30882844      -0.20527931
H       20.46251629      12.75617243      -7.44416343       0.01842428      -0.08674730      -0.01074798      -0.44863093      -0.67919123      -0.03182171
H       21.73600881      10.75634945      -9.31558521       0.07707575      -0.05906148       0.18261272      -0.17231128      -0.14079188       0.99368811
H       22.78596057       9.97309709      -8.12939691      -0.12422304      -0.00106555      -0.08934086       0.48701239      -0.02089483       0.15843724
H       21.25680340       9.19583794      -8.55729133      -0.01839779       0.12160276      -0.07536164       0.37910536       0.27381963      -0.20499630
C       30.42396326      15.91373875      29.36288940       0.36103341      -1.10885829      -0.27209246      -0.45921654       0.07786872      -1.87864316
O       29.49035501      15.61247166      28.27113745       0.54587236       1.04194257       0.18440711      -0.52610403      -0.64848512       1.41934311
C       29.87739794      15.77338098      26.95541925      -0.57644048      -0.65523461      -0.27193398       1.76878524       0.81843692      -1.98274732
C       28.75967955      15.60990613      25.94118511      -0.05713955      -0.78059134       0.46870611      -1.52895343      -1.32889938      -0.07834121
O       27.76317384      16.59455413      26.17513147       0.36298563      -0.10905996      -0.38104549       0.59804922       0.09550419       1.01685619
C       26.61766414      16.71805264      25.34921760      -0.86577767       0.25392407      -0.43073848       0.09176560       0.62674946       0.59094995
H       31.23010843      15.18864911      29.42396303       0.34012219       0.00312946       0.24301759       0.10524417      -0.11007605      -0.17837925
H       30.79528350      16.91909485      29.22442415      -0.05083975       0.11696998      -0.16525803       0.34078050       0.30775416      -0.06455872
H       29.85137468      15.90196905      30.26006835       0.08843992      -0.15075545       0.08276288      -0.50643408      -0.15528919       0.64852524
H       30.23554866      16.80070203      26.75999490       0.07446692       0.42939820       0.26771202       0.17101265      -0.00892632       0.41916931
H       30.72323419      15.09813545      26.60973020      -0.07991462      -0.18976049       0.09255122      -0.86426848       0.32853675       0.67596060
H       28.27409975      14.57864934      26.10995354      -0.19129828      -0.17650920      -0.24693403       0.72968835       1.03875840      -0.65479571
H       29.12089756      15.74651266      24.89478431       0.11183517       0.04619583      -0.00973906       0.13614126      -0.49913159       0.87692642
H       25.77108931      16.70193681      26.03381041       0.28451678      -0.07884951      -0.10886947      -0.36954626      -0.23992370      -0.25192752
H       26.62242029      17.68262225      24.87518180      -0.18237280       0.16954493      -0.04089345       0.11744823       0.50601333      -0.04676185
H       26.53081553      16.02178815      24.54820875      -0.00061995       0.34275592      -0.15776984       0.02494034      -1.09968042      -0.35883275
C       19.41365452      10.74924967      21.62553693      -0.10705340       0.16209950       0.75575789      -0.95561582       0.38347042       0.79980588
O       18.17095291      11.45970008      21.46637254      -0.78304395      -1.24576376       0.60132094       1.22459507      -0.29674363      -0.71496099
C       17.98583264      11.91810997      20.11305934       0.10557889      -0.89192670       0.40430671      -0.44745421      -2.21675110      -0.26324269
C       17.77804625      10.67682524      19.14642276       0.31818517       0.34583480      -0.57718713       0.47841096       0.39525232       1.12306035
O       16.68460872       9.88991214      19.66852826      -0.35921589       0.21345983      -1.07051280       0.37746686       0.57118553      -0.63083589
C       16.14107760       8.96509329      18.72051687       1.19534340      -0.47199606      -0.22663007       1.44713688      -0.99633342      -0.51275235
H       20.22763798      11.28820099      21.22485693       0.01311647       0.17194292       0.10077703       0.96970534       0.98017645      -0.63663435
H       19.60580703      10.60830916      22.67724076      -0.39636728       0.32300176       0.20265586      -0.30095181       0.11647438       0.28675684
H       19.43422282       9.78344122      21.17289586      -0.01334814      -0.06870032      -0.09863300      -0.37486264      -0.89439851      -0.47451547
H       17.05347828      12.40394799      20.20100802      -0.21259443      -0.05755446       0.06707517      -1.04295671       0.93004161      -0.30591947
H       18.76282000      12.59830774      19.76740658      -0.07511213       0.05200194       0.12041225       0.23579569      -0.11266068       0.01625244
H       18.71649715      10.07945696      19.18413267      -0.01482916       0.16906482       0.08674972      -0.52770615       0.12241521      -0.29426825
H       17.56659397      10.97462358      18.11121227      -0.09516544       0.00318901      -0.00023878       0.08396248       0.16224048       0.24950787
H       16.85776270       8.01921473      18.63467278      -0.41046407       0.05574104       0.01092648      -1.55607295       1.76585186       0.10216241
H       15.14903034       8.71174161      19.09064623      -0.07898285      -0.16623933       0.04243621       0.14898448      -0.31897339      -0.06415773
H       16.03579766       9.42052736      17.69998918       0.02302342      -0.14763695       0.00877492       0.19094592      -0.30167204       0.89917970
C        5.58466768      25.62731752      10.89499939       0.64253858      -0.48565340       0.29264527      -1.57787192      -0.03494056      -1.46911693
O        5.84018277      25.90863456      12.20996981       0.09270558       0.20650352      -0.70843414       0.43439326       0.25636634       2.53276730
C        5.52987583      24.86373485      13.15680418       0.52112960       0.60618716      -0.72836911       1.15989745       0.06205001      -1.20170331
C        5.52635087      25.28255388      14.58101377      -0.88701879       0.47762426       0.38673174       0.42861435       1.49932110       1.05863583
O        4.41105849      26.09584221      14.99012632       0.01713738      -0.41961145       0.73108759       0.33476266      -0.86305904      -2.13586688
C        4.19145378      26.00579728      16.34279344       0.28483561       0.77238283       0.14192538       0.66227818       0.59205973       1.62420642
H        4.59820230      25.13352269      10.77883567       0.22735821      -0.03031148       0.10135418       0.45376974       0.01850951      -0.01987351
H        5.50515357      26.58505557      10.39182283       0.14032007       0.10996102       0.01435475       0.02052082       0.24930383      -0.26605979
H        6.32650416      25.05483170      10.35763915      -0.06312504      -0.09047285      -0.06534164       0.50138819      -0.44972435       0.19404477
H        4.58028121      24.44568546      12.89198510       0.25129317       0.10468001       0.09386291      -0.88489038      -0.28075808      -0.12495356
H        6.27297813      24.04211430      13.05898202       0.05739292       0.20412289       0.02986517      -0.15501817       0.43644819      -0.02270021
H        6.42446194      25.84265351      14.95237635       0.01567441       0.16413159       0.49037852      -0.18777199      -0.55918998      -0.72246438
H        5.52774480      24.33868150      15.09511463      -0.35618284       0.11299035      -0.21651895      -0.20940176      -0.54851317       0.73660803
H        3.29715198      26.56229980      16.57611450      -0.21529633      -0.12368133      -0.00227081      -0.16018932       0.42073724       0.14271843
H        4.04880507      25.01958569      16.75479169      -0.10611429       0.23203945      -0.00184668      -0.20661783      -0.89751375      -0.33654678
H        5.07333986      26.37450128      16.90885807       0.21828037       0.00314799       0.03256838      -0.39507905       0.28844830      -0.09858758
C       27.59542129       4.72878175      18.72539146      -0.79943187      -0.67016883       0.18837154      -0.81438321       1.76522779       0.06968885
O       28.26596716       5.57360506      19.70286667      -0.17244302       0.19564346       0.05519873      -1.50056148      -0.50835812      -0.54353106
C       27.33359270       6.56697980      20.19476470      -1.09022530       0.53813240      -0.19605272       0.45318261      -1.69064641       1.41053724
C       28.10511430       7.30103972      21.34829674       0.49629447      -0.98400789       0.64368840      -2.44955063       0.44260547      -2.52593923
O       29.15814977       7.98416270      20.69517507       0.65732110       0.58753190      -0.45856985       0.47037953      -0.26706555       1.36072648
C       29.75814764       8.87143707      21.62123722       0.50082812       0.24291875      -0.50743246       0.81642991       2.80232000      -0.51062465
H       28.32736157       4.07065358      18.32141031      -0.20536167      -0.03054029      -0.05889988       0.48352957      -0.73822206      -0.17716187
H       26.71359978       4.20618512      19.17535993      -0.05513229       0.12448436      -0.01559181       1.06113994       0.34679419      -0.39399087
H       27.24432152       5.41167335      17.87608823       0.03219286      -0.14257880      -0.05280462       0.30931839      -0.82137805       0.92190486
H       26.98575627       7.15899457      19.33251640       0.14014939       0.25251122       0.09842816       0.31619471       0.42793664       0.49125758
H       26.42320532       6.04048502      20.61337321      -0.17340531      -0.00485879      -0.10342925       1.02929997       0.48250633      -0.30701163
H       28.49078979       6.58200722      22.08097873       0.00744944       0.11526128      -0.10015734      -0.34078375       0.22985524       0.07524942
H       27.32584902       8.04622890      21.69697302       0.00938201      -0.39780546      -0.06265476       1.11686587      -0.68698990       0.46399212
H       30.10372734       8.53362185      22.62445323      -0.25346807       0.15381076      -0.03052821      -0.29961839      -0.72755587      -0.82269490
H       30.61176908       9.39362597      21.09669702      -0.10327146       0.01825374       0.06142389      -0.85225093      -0.91731769       0.58768111
H       29.03786515       9.70053259      21.83148182       0.05237195      -0.05675432      -0.01164862       0.27614123      -0.53976220       0.00177414
C       22.59223342       0.55370360      17.07854399       1.51503261      -0.00488997       0.63345883       1.49852073       1.50395441      -0.58713835
O       21.37903235       1.17785249      17.36629469       0.00631663      -1.50377182      -0.07436588      -1.00077486      -1.24364054       1.13604677
C       21.17717677       2.43512677      16.77071420       0.76629266      -0.75460684      -0.19157837      -1.13612521      -0.63277960       0.84613669
C       20.22037179       3.22466885      17.67664492      -0.74016845      -0.98884285       0.26517803       1.41883659      -0.24297902      -1.10443401
O       18.97079572       2.62830260      17.68996490      -0.15333225       0.32737421       1.08799016      -1.64065206      -0.63269860       0.24857658
C       17.99977408       3.40949913      18.46472311      -0.55802207       0.34399109      -0.98241086       1.36817980      -2.08749509       1.34722078
H       22.83919696      -0.27568454      17.75428149       0.16000920      -0.09765518      -0.00666674      -0.60874224       0.06625748      -0.44373834
H       22.74227100       0.40291696      15.99858001       0.18069780       0.20981828      -0.15804599      -0.44493815      -0.94600266       0.10673036
H       23.34831143       1.33660190      17.20605956      -0.20299125      -0.18628138       0.02837557       0.37966073      -0.09655836       0.51903754
H       22.12200485       2.90372958      16.64229127       0.15530215       0.22553193      -0.03252556       0.75729966       0.86575514      -0.09024219
H       20.72331267       2.21289938      15.82911494      -0.08977063      -0.00234257       0.08358995      -0.37245438       0.41231504      -1.13955367
H       20.16695044       4.22651929      17.26129735       0.03076665      -0.15448076       0.07070831      -0.03593551       0.54434013       0.21992680
H       20.67603372       3.19199301      18.65195657      -0.14691729      -0.12449534      -0.11267288       0.03891522       0.41826004       0.62603921
H       17.97621968       4.33259325      17.97526708      -0.01310040       0.06976482      -0.04026387      -0.39261109       1.75844383      -0.33280110
H       17.01702117       2.90036717      18.43149238       0.03322903      -0.03598330      -0.20494894       0.70596725       0.20897919       0.04969062
H       18.40743626       3.47249946      19.54396883       0.04077375      -0.11818688       0.07212870      -0.92247319       0.20020887      -1.60733485
C        4.92816886       5.49647829      19.91492063       0.04404895       0.68081820      -0.44992457       0.34579763       1.37252986      -0.62478608
O        4.87828637       6.90181306      20.26264432      -0.42082953       0.48031538       0.68070293       0.25180513      -1.65535545      -0.44667876
C        6.05544756       7.50251809      19.78678574       0.58457052       0.58082686       0.74624589       0.27251413       0.86765099      -0.46924680
C        5.96269727       8.95139952      20.18933089       0.61515183      -0.68573006       0.53219223      -2.73708510      -0.51426977      -2.99156618
O        5.70931088       9.05993348      21.54207502      -0.79818619       0.17301507       0.28915678       0.73289269       0.22483598       0.92856479
C        5.95930652      10.37066594      21.95943276       0.41330784       0.17163114       0.36658278       1.51225805       2.13553095      -0.44062683
H        4.96178468       5.37037300      18.82656228       0.01787970      -0.03496218       0.10734200      -0.34182516       0.13097687      -0.05359899
H        5.82653154       5.02641588      20.26438792      -0.07760679      -0.12621675      -0.00781257       0.49917442      -0.23115581       0.64304042
H        4.05834394       5.08221587      20.33483277      -0.08383110       0.08140184       0.10703484      -1.01799977      -0.87423420       0.40491807
H        6.92169771       7.08901426      20.31302357      -0.20394546      -0.13711694       0.12710384       0.11219687      -0.42389655      -0.46811184
H        6.11382934       7.44500023      18.63079395      -0.12312207       0.13051976       0.06017513       0.19796845      -0.10692263       1.78777969
H        5.00845999       9.29750914      19.56046579       0.08392621      -0.18171563      -0.01951401       1.98337352       0.10677809       1.23312426
H        6.87216753       9.44863397      19.88598271      -0.18526566      -0.09255177       0.03773128       0.17020747       0.40884098      -0.09650033
H        5.07602512      10.97014433      21.90808007      -0.19485607       0.29490152       0.14222095      -1.00103378       0.36948362       0.04920997
H        6.37626212      10.49098026      22.95448121      -0.08295950      -0.11749681       0.16667718      -0.17182758      -0.80501944       0.29102853
H        6.70639995      10.98887629      21.31542992      -0.03676639      -0.09280481      -0.14817204      -0.93836987      -1.45526648       0.59028274
C       19.26019234      16.20918652      14.93472084       0.26953490      -0.13265272      -0.06415080      -0.57275200       1.41303241       2.30527687
O       18.66600704      16.07874693      16.29073704       0.55977396      -0.05606472      -0.04560530       0.36084801       0.26173076      -1.19688010
C       17.33936237      16.62272540      16.42134401       0.44185825      -0.35496718       0.02645573       0.05253006      -1.42501211       1.02596891
C       16.96071411      16.28982468      17.86004151       0.46897429      -1.05229612      -0.18153056      -0.54260302       0.51856148      -0.11481284
O       17.66565238      17.17569344      18.74651145       0.83904511       0.99012242       0.09999394       0.10702402      -0.27539513      -0.67392671
C       17.01259238      17.45874363      19.96029313      -0.39312476      -1.04842554      -0.04395224      -0.58220911      -0.25307125       0.42907488
H       19.91655244      17.08947785      15.06089013      -0.06594492       0.10182684       0.11956129      -0.73195690       0.10285205      -1.01231110
H       19.89666625      15.41148898      14.66552752       0.18145721      -0.02603202      -0.21423260       0.51757509      -1.22144628       0.32575133
H       18.42437344      16.19765412      14.25688035       0.03915840      -0.23143971       0.02188934      -0.01390772       0.70798630      -0.57793880
H       17.15167313      17.70496488      16.25774172       0.13166311      -0.16229190      -0.02991056       0.75521386      -0.43095976      -0.31593654
H       16.68120586      15.98585325      15.82257714       0.11921787      -0.29541090      -0.09753895      -0.18160544       0.40937904      -0.37293953
H       17.22619281      15.23207958      18.05183420      -0.24377892       0.01759071      -0.08588423      -0.28667536       0.43124166       0.08374928
H       15.86169466      16.46165019      17.93887914      -0.22979818      -0.16350673      -0.12747557       0.68046057      -0.23347576       0.28011110
H       17.46153248      18.36370482      20.38601436       0.25127039       0.15136370       0.11006467      -0.10465544      -0.38064933       0.03689028
H       15.94576440      17.61921343      19.80915647      -0.05617528      -0.08035656      -0.07516121      -0.00389372       0.38789141      -0.30923283
H       17.00853787      16.60319327      20.65194364      -0.06672878       0.09452657      -0.05515402       0.60172999       0.13632911       0.06205624
C       28.40688510       9.02886148      16.87170572       0.53786986      -0.20244757       0.18901569       0.67853451      -0.03009517       2.06284809
O       29.27911217       7.90855404      17.04382149      -0.30343100      -0.24292570      -0.53630685      -0.38265368      -0.12894414       0.07549662
C       30.05314797       7.63541957      15.90660126       0.14972181      -0.33611739       0.23869878       0.16772273      -0.79397625       0.33525890
C       31.33670766       6.95213229      16.32757262       0.65876097       0.07730093      -0.45906396      -0.54982263      -0.17274602      -0.62445873
O       31.04229885       5.88239551      17.23990375       0.75452588      -0.10033480       0.21955932       1.86806273      -0.36317256      -1.12949038
C       31.91762019       4.73794078      16.87878971      -0.65977715       0.78630083      -0.38497906      -2.77347231      -0.27010444       2.45702577
H       27.60792586       8.79972348      17.60328797       0.02887769       0.23108430       0.22109471      -0.07560273       0.55507255      -0.74942774
H       28.98589674       9.89304791      17.28730343      -0.14256763      -0.04058010       0.01847948      -0.72362936      -0.14220022      -0.75143689
H       28.06060718       9.17337883      15.84290973       0.19774425      -0.10194868       0.11165913       0.00382455      -0.10286322       0.25227675
H       29.52272445       6.90495733      15.26504093      -0.20698807       0.09881892      -0.13077363      -0.03494727       0.66681713      -0.02359890
H       30.28994509       8.57813093      15.42516897      -0.11085001       0.06805004      -0.09935964       0.11332603       0.02740068      -0.60863924
H       32.07357503       7.65613039      16.71298609       0.21221140       0.07783015      -0.02688127       0.06051773      -0.05911118       0.36366579
H       31.70729013       6.51167216      15.39835437       0.04735589       0.21835534      -0.27992655       0.35740376       0.10268457      -0.01920288
H       31.34063849       4.20326877      16.12540861       0.08830090       0.01758023      -0.29955463       0.56597108      -0.23583169      -0.22893614
H       32.90442656       5.00055938      16.63931771      -0.09597332      -0.10540426      -0.14679001       1.19231653       0.76253134      -0.78449446
H       31.99021306       4.14358602      17.81480296      -0.14461519      -0.09767804       0.15902374      -0.21613203       0.10453721      -0.67398620
C        8.24405769       6.09598603       5.33655188       0.54764472       0.86240801      -0.78947224      -1.88503921       0.53612792      -0.87332469
O        7.01799876       5.82967427       6.08436549      -0.35787666       0.42846612       0.24637807       0.48251963       0.52516079      -0.37902617
C        6.86816735       4.48093619       6.45232399      -0.28433659       0.72948419       0.27171515       1.63550103      -1.03293288       0.13050196
C        5.55496662       4.21129079       7.12373020       1.17885459       0.45565846       0.81304704      -2.35425901       0.36060709       0.85420150
O        4.43945160       4.45494027       6.21009135       0.08766250       1.88567291      -1.07809228       0.62006330      -0.36345214       0.15348755
C        3.83696409       3.27020441       5.62989546       0.93246263      -0.39218822      -0.05990604       0.36317658       1.84615242       1.11207438
H        8.35547974       5.33191866       4.51455090      -0.18928911       0.08721325      -0.06510846      -0.13215512       0.86776274       0.51709306
H        8.15827916       7.17544847       4.96646311       0.31307088      -0.30609080      -0.08599028       0.16620988      -1.93657184       0.37709591
H        9.08551601       6.04307317       5.97478211       0.01249794       0.13699402       0.04379186       0.94900048      -0.20566142       0.74422020
H        6.91249987       3.86062007       5.53598077      -0.28350863       0.18529940      -0.00439454      -0.00976113       0.01651951       0.14480151
H        7.75592061       4.14010464       7.09684951       0.10913124       0.25194838      -0.16932354      -1.23833168       0.40864798      -0.58725798
H        5.33884734       4.86465590       8.01533807       0.02754559       0.05628215      -0.10569572       0.58321440      -0.13425161      -0.91390878
H        5.39020059       3.19557490       7.54524797      -0.04544073       0.06324020       0.20528803       0.88317657       0.29906103      -0.49543783
H        4.58766236       2.53355358       5.42885219       0.17101176       0.12143649      -0.20319225       0.42161849      -0.50669396      -0.47881556
H        3.12079867       2.87240100       6.34102739      -0.10121128      -0.05611078      -0.14598486      -0.32520822      -0.16654094       0.04377288
H        3.32413918       3.65982148       4.76424597      -0.09760578      -0.09895108      -0.19933487      -0.16499095      -0.40916011      -0.42634857
C       17.38427125       2.29992562      28.20059795       0.54593749       0.33031282      -0.09120070      -0.92501253      -0.09351901       0.48716626
O       17.15941647       3.68829300      28.27166032      -0.27316837       1.45295460       0.35834509       0.20895268       0.23543669      -0.34142351
C       16.12473233       4.04252697      27.34010037       0.02912766       1.15741777       0.28088785       0.96751374      -0.79550302       1.61694551
C       15.82865127       5.44578688      27.51506663      -0.82304485      -1.27846586       0.17787575      -0.95649976       2.03212833      -0.16077910
O       16.95099305       6.27888277      27.32880892       0.91386717       0.96793065       0.60903948       1.18555105      -0.80163813      -0.24428780
C       16.87798487       7.65647695      27.59038758       0.01560397       0.48356216      -0.26963206      -2.14649844      -0.01727048       0.69404238
H       16.61495452       1.76188143      28.72475600       0.03833265      -0.30927853       0.04272835      -0.74687636      -0.20675159       0.56208557
H       17.29625705       1.91169334      27.20188535       0.04194479       0.02432908       0.07024205       0.67237437      -0.01315902      -0.71207649
H       18.27951429       2.05908704      28.71993100      -0.05142613       0.02579986      -0.06448273       1.09687793      -0.10904756       0.00340781
H       16.39089181       3.60363019      26.42574580      -0.12712677      -0.08801108       0.35121216       0.18272322      -0.00055145      -1.76212776
H       15.20651425       3.64885785      27.69161981       0.03008143       0.15500291       0.06886221      -1.14497328      -1.34000254       0.07102745
H       15.36635773       5.45195062      28.51365991       0.19591262      -0.48658331      -0.07635482       0.58709294       0.90302122       0.29959923
H       14.99457379       5.73461444      26.86169598       0.04805544      -0.17141041      -0.05620239       0.16047803       0.01546414      -0.26605511
H       17.81465744       8.01644516      27.94895976      -0.25934355      -0.14022943       0.18293719       0.20253767      -0.10260743       0.01911193
H       16.54961932       8.23265341      26.73182696       0.19074177       0.14445785      -0.08349242      -0.05786908      -0.08040261      -0.18760350
H       16.11733648       7.81989363      28.37311115       0.11404419      -0.06206586      -0.14385232       0.25310701       0.15584651       0.00753802
C       16.23071978      13.27889471       3.09273548       0.35532371       0.59250694       0.45793842      -0.28346455      -0.01498163       0.00108009
O       15.06981018      12.61084647       2.60846298      -0.37436054      -0.19206693       0.91619832       0.13349341       0.21952078      -0.81965107
C       13.95467791      12.63253990       3.44948661       0.09408526       0.19145753       0.35244789       0.67954046      -1.13579106       2.73231244
C       12.80027658      11.88353709       2.91067593      -0.52787170       0.27673500      -0.59707575      -1.95441926       1.56908870      -0.40549415
O       12.38049245      12.52521166       1.68743333       1.06364987      -0.70650715      -0.29771468       0.85176492      -0.56493849      -0.00274906
C       11.36352659      11.89517481       0.92164300       0.36568553      -0.01303134      -0.72138575       0.60464931      -0.34440786       0.40652433
H       16.96800682      13.14914670       2.25202429       0.30514925       0.10461727      -0.05429246      -0.32188919       0.18791127       1.31164277
H       16.02042071      14.36038229       3.27562665       0.11642440      -0.41986466       0.06510723       0.14741550      -0.53625530      -0.28600425
H       16.50468685      12.82738523       4.08301353      -0.02964804      -0.08010811      -0.15792602       0.27474532       0.23367989      -0.90774232
H       14.23193648      12.11139316       4.41449981       0.08115675       0.07172722      -0.28217700      -0.19034390       0.26949462      -0.77809083
H       13.65658437      13.60068541       3.78507084      -0.13285978       0.00841098      -0.22131803      -0.10972755       1.21816313      -0.30024067
H       11.93866897      11.91326181       3.61342953       0.09982174      -0.27461579       0.22910304       0.58077598       0.09655038      -0.07180279
H       13.03348042      10.88139239       2.75258363      -0.12413714       0.15187858      -0.18868142       0.56568730      -1.95049226      -0.54219687
H       11.61857033      10.86797855       0.53799106      -0.10095937      -0.37175633      -0.05994342      -0.10722879       0.77504784       0.59850365
H       10.44490309      11.93292100       1.47638972      -0.16060145      -0.03777993       0.19519420      -0.60408038      -0.55504978       0.40804878
H       11.22132721      12.56497947       0.10897677      -0.19010119       0.04704946      -0.12168596      -0.11628249       0.22638741      -0.92919308
C       26.18047236      16.79856658      31.63419921      -0.94701204      -1.22255189      -0.30265569       0.87140012       1.18119192       0.77136070
O       26.14826269      15.65007862      30.82708255       0.48823113      -0.74109342      -0.56198610      -0.78604096      -0.07872210      -0.00167929
C       24.84238217      15.10565418      30.87321839       0.21188529       0.70326319      -0.45717847      -0.83511591      -0.91467351      -0.71219939
C       24.75453402      14.05464575      29.78557275       0.40705079       0.33077280       0.09570452       0.24288324       1.73029637       0.80509460
O       25.10785302      14.67009451      28.57743014      -0.68506466       0.01559866       0.85850167       0.17890251      -0.03870173      -1.18530428
C       24.85678536      13.70686793      27.55066077       0.65610452       0.05332722      -0.52202337       0.49227545      -0.24766062       0.05394236
H       27.24381928      16.80865733      31.97071517       0.20596555      -0.30486283      -0.02941210      -0.91158104       0.50385892       0.46893385
H       25.97101044      17.75633883      31.12192637      -0.03464055      -0.05796444       0.35272978       0.17952952      -0.50686878      -0.43519217
H       25.40195130      16.81624370      32.43763392       0.13661869      -0.09374984       0.01612933       0.95336288      -0.56120467      -0.12436197
H       24.58944880      14.60513818      31.81237935      -0.13139254      -0.01574000      -0.00925320       0.42824903       0.31028950       0.10081048
H       24.10653539      15.89343121      30.74980995       0.24129366      -0.24709627       0.00110353      -0.15417401       0.26190829      -0.32831082
H       23.81452746      13.56447180      29.64607025       0.14235431      -0.11932134      -0.05754727      -0.99284005      -0.01602412       0.53523946
H       25.43791331      13.30082749      30.05311798       0.06705346       0.20222434      -0.09025558       1.24618328      -1.23762655       0.17556563
H       24.80717363      14.18855787      26.57961544      -0.07297325      -0.12093102      -0.24696345      -0.44512928       0.23284756      -0.03306268
H       25.69544257      13.00061209      27.47149039       0.00160241       0.04047633      -0.11997500      -0.24062720      -0.09330150       0.25976288
H       23.94745549      13.16675374      27.86505546      -0.07543470      -0.08619397      -0.25967260       0.20618826       0.02383870      -0.91974616
C        8.10101595       6.15794051      13.13507711       0.31047795       0.78657086       0.31286060       0.71846741      -1.49910176      -0.52804548
O        6.98442541       5.93122533      13.98788437       0.63425443      -0.79137286      -0.17337920       0.49831992       0.02056542       0.24014510
C        6.84350892       7.08284950      14.82399758       0.32870391       0.36937973      -0.19283993      -0.04827401      -1.20122981       0.57963181
C        5.59928895       6.93709540      15.67576510       1.08441485       0.35557010       0.05893583      -0.01616606       1.10167241      -0.11530469
O        4.52309319       6.87605381      14.73196668      -1.11495813      -1.86295019      -0.14149579      -1.23682594       0.22565465       1.12451422
C        3.22879084       7.02323443      15.35374448      -0.29608346       0.37726836       0.07443750      -1.28906071       0.50071561      -1.06579554
H        8.17495686       5.24008920      12.46951062       0.13428776      -0.07221239      -0.27280560      -0.12674668       1.28785896       0.46738955
H        7.92212085       7.09917860      12.57707000      -0.24547600       0.13842805       0.15837336       0.45510843      -0.55905133       0.01330250
H        9.06985657       6.18092703      13.71349800      -0.03189584      -0.12412464       0.30387683      -0.95548105       0.30923042      -0.42791247
H        7.65593714       7.08829784      15.53385772       0.28637478      -0.04121008       0.25709028       0.64817339       0.40395737      -0.09246822
H        6.90212669       7.90446538      14.11185580      -0.06346388       0.13598714       0.04483274      -0.48532766       0.75825101       0.67558819
H        5.60490452       7.81740800      16.41382399      -0.29465487       0.00128843      -0.06238797      -0.55166578      -0.82840228      -1.22588563
H        5.57041779       6.02898543      16.30572544       0.01055157      -0.24763248      -0.35314795       0.37429315       0.10353948      -0.34952167
H        2.40109997       6.80255136      14.60839174       0.17172231       0.19257424      -0.12664135       1.27351975       0.08499366       0.42990071
H        3.02535683       6.33202402      16.18554322      -0.11674734      -0.02520387       0.10063512       0.59664357       0.16616932      -0.01482732
H        3.02223636       8.08256850      15.65557830      -0.21090531      -0.03806212      -0.02181678       0.54929376      -0.77631778       0.05850973
C       15.55902585      -0.28664763      15.90495462      -0.27366960       0.90602289      -0.02291103      -1.72485316       1.08457923      -0.84425074
O       16.77998012      -0.57812515      16.47361090      -1.52057188      -0.71385744       0.24104260       0.89125389       0.20318244       0.22189985
C       17.16234145      -1.84475212      15.99528792      -0.60706900       0.45029144       0.40215374      -0.50603271      -1.08914399       0.31805262
C       18.12296809      -1.79325443      14.85638136       0.49053240       0.35152691       0.99652528       0.07955313       0.08508956       0.01183116
O       19.23305598      -1.16852078      15.35875736       0.77712797       0.75869758      -0.16815362       2.85886908       1.52131820       1.14713037
C       20.17465242      -0.61632465      14.44736352      -0.06879883      -0.35616804       0.12028969       0.16518120       1.66227961       0.32860512
H       14.74881754      -0.98953157      16.22976081       0.19120669       0.00007938       0.11314955       0.51459569       0.55448449       0.07204824
H       15.29969091       0.75445160      16.15869534       0.06007821       0.12113055      -0.28578523      -0.08351550      -0.42257467       0.08887568
H       15.57873516      -0.34688419      14.79306358       0.03782384      -0.03731306      -0.07101423       0.15188068       0.04854213       0.42582846
H       17.65764888      -2.36298258      16.79932832       0.17710872       0.21404986       0.12392965      -0.07572275      -0.33022308       0.37169385
H       16.21461467      -2.32246313      15.74263930       0.15128324       0.04212593      -0.18198832       0.39077699      -0.79218405      -0.18647517
H       17.79970455      -1.17692958      14.08366807      -0.40520362       0.05741461      -0.11272205      -1.32841361       0.90498775      -1.80901718
H       18.44324279      -2.73092936      14.44985917       0.09766332       0.21477731       0.06806782      -0.40476006      -1.09086096      -0.17588437
H       19.76532441       0.33880019      13.97100467      -0.21595739      -0.22829825      -0.11652304       0.26704562      -1.34554851       0.16017900
H       21.08499833      -0.26564037      15.01194369      -0.05477550       0.11762612      -0.13332651      -1.05353570      -0.59348202      -0.23634702
H       20.53983822      -1.32845010      13.70991277      -0.10201520      -0.23102570       0.31198344      -0.29185492      -0.11453834      -0.27084640
C        5.84281728       2.44599399      31.99279116      -0.02660702       0.65184818      -1.54374018      -0.35876566      -4.37818909      -0.77830064
O        4.74904802       3.25237618      31.74754231       0.81301442       0.55971603      -0.44970587       0.85019451       1.55646133      -1.09435594
C        5.29598474       4.48416517      31.16512770      -0.43772756      -0.10508165      -0.43554055      -3.25291562      -0.49674767      -1.03546095
C        5.76483998       4.33861304      29.72629721      -0.72259764      -0.98055833       0.08693575       1.63710082      -0.47858542      -0.65339416
O        4.84179324       3.75804787      28.79891898       0.54335208      -0.10299807       0.38832290      -0.65246063       1.13118124       0.34933838
C        3.68238459       4.60576925      28.56104873       0.47476640       1.21431412       0.17052114       0.94841433       0.16920327      -0.90416479
H        5.47712066       1.43839289      32.35641731       0.11308273      -0.07619293      -0.03230057      -0.09229183       0.88744736      -0.30914980
H        6.49724835       2.11347893      31.11833829       0.00100323       0.27891489       0.20177278      -0.88603479       1.02597404       0.69915915
H        6.43975835       2.75299435      32.79436910      -0.04699232      -0.28223012       0.03876275       1.22271812       1.16380143       1.16855288
H        4.44558945       5.21880153      31.14770796       0.19059317      -0.12639067      -0.23584190       0.76183891      -0.62161011       0.43401426
H        6.05743173       4.83602948      31.79996474       0.48252169      -0.21989525      -0.38147013       1.18031025       0.64233118       0.72597891
H        6.70015299       3.71056157      29.64339858       0.13438113      -0.09908678      -0.15020562      -1.10065031       0.37031925       0.20552102
H        6.14847374       5.34298615      29.42249119      -0.16718934      -0.16363047      -0.23411719      -0.59536946      -0.29916817      -0.08542880
H        2.88455387       4.05650955      28.02288780       0.04032911       0.20903544      -0.07560423       0.64119995       0.03954546       0.56028479
H        3.34858144       5.00629383      29.49436443       0.22027850       0.02849655      -0.09770312      -0.65498829      -0.09819005       0.66579396
H        3.93369352       5.51604201      27.95529309       0.08377178       0.06250369       0.02402011       0.17466205      -0.74894691       0.18153808
C       17.21580376       6.56859849       2.20436027      -0.09857843       0.90264062      -0.49234759       0.80266869      -0.40340012       1.62201154
O       16.54884424       7.73945605       2.58627354       0.47090132      -0.21207091      -0.22723637       1.17300415       0.73679322       1.20932877
C       17.29311763       8.58077054       3.54493640      -0.40307776       0.46017018       0.36375830       0.12111272      -0.20229796      -2.07550287
C       16.53473013       9.85278190       3.62867324      -0.58477563      -0.65409384      -0.47997451       0.61445034       2.29740620      -0.74967271
O       15.41271395       9.76273493       4.47120115       0.75875433       0.32493471       0.81388119       0.12958907      -0.16232237       1.31306624
C       15.79520596       9.87500314       5.89612318       0.26104275      -0.32370653      -0.35759987      -1.08691895       1.16831684      -0.68667668
H       18.28469833       6.66948658       1.98800315      -0.05486524      -0.01788658       0.00808802       0.17313145       0.55463850       0.15295246
H       17.15268524       5.78308576       2.99180908       0.06917919       0.09747594      -0.02832247      -0.11399581       0.31191257      -0.43337139
H       16.80344080       6.23008322       1.29822433      -0.30402506      -0.00981837      -0.25552344      -0.93184102      -0.47867444      -1.04017818
H       17.33138582       8.17159240       4.54204500      -0.16266913      -0.03425178      -0.23074804       0.10350785      -0.74750173       0.24940753
H       18.35111684       8.83602656       3.19848655      -0.08961542       0.08317722       0.18753362      -1.24479866      -0.76985121       0.15357356
H       16.26851279      10.30495037       2.60034124      -0.22032177       0.05501321       0.15384806       0.04629600      -1.09899890       1.57500839
H       17.23494064      10.60572390       4.06654470      -0.10714383       0.08888738      -0.07520049      -0.26363906      -0.28088382      -0.24426721
H       15.12130878       9.22535029       6.46040360       0.11032471       0.01534880       0.25452515       0.40083608      -0.06251857      -0.10871256
H       16.86011973       9.69738529       6.11138454       0.10693344      -0.16295575       0.05627610      -0.38265014      -0.33114851      -0.30267647
H       15.56895864      10.92401593       6.22172731      -0.09044012       0.16262626      -0.00067116       0.24316138      -0.72805685      -0.28850660
C       30.35352444      22.43596892      25.16068348      -1.24789959      -0.34661494      -0.28264881      -1.04281342       0.57109255       2.52062392
O       30.95216656      22.52907548      23.93975344      -0.60329408      -0.39960539      -0.57860193       0.27152821       0.24223483      -2.22387004
C       32.25869003      22.03244178      23.91899164       0.66700921       1.21418207       0.61470457       1.17366076      -0.96483791       1.17674029
C       33.01949872      22.32741749      22.67053972      -0.52622349       0.53192567      -0.07906893       0.15985011      -1.29956865       0.24627201
O       33.28611817      23.65377453      22.70078683      -0.81192713      -1.45784340      -0.03977857       1.47178626       3.19875383      -0.94487029
C       34.40039105      24.03453921      21.81009161      -0.30208197       0.54670712       0.09326527      -0.42552352      -1.02812827       1.23797357
H       30.57024653      23.26569785      25.90000460      -0.12139316      -0.13414226       0.23780468       0.32766417      -0.65411270      -0.86061817
H       29.28891957      22.44324204      25.05484259      -0.16165897       0.02077275       0.12460099      -0.83677578       0.26343447      -0.42637280
H       30.52753569      21.49121130      25.65665706       0.17515628      -0.16183303      -0.09820052       0.53627700      -0.44268143       0.21830009
H       32.79715732      22.52188974      24.74372591      -0.15208219      -0.06477733       0.05239784       0.16962576      -0.25640962      -0.06066086
H       32.32647933      20.93697953      24.07222975       0.10757357      -0.09969406       0.15056301      -0.48249921       0.30699307       0.20459153
H       32.43553730      22.10240421      21.78217507      -0.13590968      -0.02088406       0.13341176      -0.05964541      -0.61151916      -0.45568940
H       33.98947692      21.78148526      22.69604011      -0.33557934       0.03833919       0.25578931      -0.76225555      -0.26512042      -0.14431545
H       35.35531682      23.56682253      22.19944834       0.23831124       0.06633918       0.12452021      -1.06320643       0.36451352      -0.47534057
H       34.17287044      23.64426483      20.78727078      -0.14076803       0.21789775      -0.23266258       0.29849344       0.86854094       0.56575745
H       34.46579166      25.11187794      21.98939699       0.09024433       0.03166590      -0.18716791       0.07007562      -0.24580729      -0.95681185
C       19.05425350       1.06289072      20.64735161       0.80682179       0.90522077      -0.42439957      -0.48204622      -1.41142702       0.21381432
O       18.53430684      -0.08084574      19.88951782       0.13630003       0.10320450      -0.21536342       1.30204868       1.54658520      -0.76921463
C       17.75945013      -1.01101089      20.61002354       0.35837469       0.01049210      -0.52114355       0.26696569       1.88209283       1.16132534
C       18.69156390      -1.98020639      21.33266570      -0.44480056      -0.38694997       1.01179789      -2.94546914       0.66851455       2.73256564
O       17.83726785      -2.74418178      22.25006237       0.07113805      -0.08121838       0.19688784      -0.22393075       0.71224785      -0.89275086
C       18.37624451      -3.84913910      22.90985586       0.23214156      -0.06602468      -0.45575919       0.27106068       0.28969374       1.73297977
H       18.20004039       1.60286883      21.06096546      -0.04157100      -0.17463506       0.15765978       0.00024583       0.01439883       0.27011058
H       19.72794479       0.71223727      21.46751584       0.02948682       0.04063708       0.24901028      -0.41173768       0.47900724      -0.76938283
H       19.55033028       1.73298594      19.94201552      -0.11902212      -0.27546840       0.07669901       0.24262391      -0.43958178       0.19183464
H       17.09294216      -0.36772266      21.25096986      -0.25110765      -0.26062763       0.04793185       0.66542292      -1.15324569       0.15849906
H       17.10216032      -1.42604215      19.89494799      -0.01633315       0.00132797      -0.03808982      -0.53430498      -1.06569719      -0.71311140
H       19.40688837      -1.44817195      21.91962826      -0.02879254       0.22899524      -0.09129589       0.55208540       0.56090212       0.39302576
H       19.21605986      -2.58887974      20.69894930       0.35282661       0.02055681      -0.05714785       1.12336051      -1.80655205      -1.93298030
H       19.04311581      -3.56474389      23.78107292      -0.20109047      -0.03604392      -0.22507831      -0.42869753      -0.12951018      -0.91619545
H       17.57168238      -4.46263539      23.34648002       0.09753250       0.12505895      -0.06309095       0.03214128       0.51226735      -0.29048902
H       18.90184454      -4.50097345      22.25815537       0.13600952       0.05465288       0.00975842       0.84434152      -0.58880961      -0.80713683
C       11.92086486      15.16616549      32.53397194       0.08442574       0.42766904      -0.11640033       0.16209249       1.04427552      -0.06574497
O       13.35613252      14.93181057      32.51330026       0.39373100       0.80156416      -0.33850511      -0.83146954       0.41974849      -1.06923842
C       13.97581370      15.32698019      31.22136346       0.45272836      -0.10040603       0.10608042       0.45530859      -0.22563699       2.76745749
C       15.45711132      15.41655499      31.55821625      -0.25996568      -0.54100387       0.27348053      -0.01164974      -0.80485803       1.21740270
O       16.01040772      14.08799234      31.79197588       0.36344290      -0.67121627      -0.07286348      -1.11015499       1.02564168      -0.47894979
C       17.41687024      14.12475149      31.75546436      -0.28355509      -0.58629568      -0.59236343       0.42328230       0.08872236      -0.64654005
H       11.48892469      14.88091744      33.50540067      -0.08714507       0.16143270       0.06022710       0.57133311      -0.30611500      -0.26612386
H       11.65577838      16.26956703      32.43050356       0.08802838      -0.01515582       0.06257915       0.63003653      -1.20384455      -0.24285260
H       11.43636959      14.58791584      31.73533603       0.04273302       0.06615343       0.09129586      -0.02966533       0.26780698       0.09580017
H       13.81876730      14.53375000      30.50750556       0.16250664       0.08247561      -0.17902223      -0.36883926       0.01332157      -0.57744122
H       13.60253525      16.31129626      30.92861989      -0.01583129       0.05446466      -0.02483953      -0.07392500      -0.24523422      -0.23163757
H       15.60047911      15.91583465      32.55154881       0.04402893      -0.01841544       0.16606258      -0.19525720       0.29824588      -1.14047682
H       15.97876721      15.89136678      30.73695572       0.13631417      -0.19679821       0.06161121       0.35587367       0.21519567      -0.07929286
H       17.73807744      14.47568807      30.72744628       0.02163832      -0.03720206      -0.22995978      -0.00637750      -0.26924634       1.37601018
H       17.81172506      14.81250747      32.56192533      -0.15825607       0.00744856      -0.02266410      -0.10621519      -0.76160514      -0.77361995
H       17.70933607      13.06762679      31.87461994       0.15363063      -0.01182632      -0.12576106       0.36607736       0.57553750       0.17690025
C        4.42112197       6.62237166       3.05249016      -0.61459148      -0.84041332      -0.40594117      -0.27140284       0.10031227       0.09112337
O        5.27098976       7.07115832       2.04270939      -0.21907271      -0.86484358      -0.00448249       0.95898581       0.47482485      -1.19611955
C        6.59720094       6.69849392       2.34598441      -1.43875100       0.58122679       0.21670682       1.12392080       0.86449236      -0.30962491
C        7.62361751       7.25595257       1.31607422       0.23388164       0.59793830      -0.17246618      -0.89751363       0.44043186       1.73384202
O        7.53423451       8.75893727       1.36955369       0.07756139      -0.11778183      -1.05763415      -0.57308501      -2.70757771      -0.26332000
C        8.42229098       9.36238240       0.46984867       0.33258058       0.59876216       1.48219571      -0.33584800       1.82099974       0.19486009
H        3.45860683       7.13091705       2.99139692       0.10282851       0.09275770      -0.36530940       0.33205634       0.03260064       0.25950497
H        4.28743855       5.58797980       2.89802594      -0.13925032       0.14445760       0.09038401      -0.61635858      -1.57381046      -0.15151626
H        4.94751582       6.67545528       3.99557344       0.14636309       0.02158687      -0.00381258      -0.26972654       0.53567219       0.64060092
H        6.83392794       7.12778405       3.30341284      -0.03404273       0.11581205      -0.10006931       0.19292609       0.34184408       0.56533515
H        6.75307581       5.61641038       2.49081095       0.09595358      -0.12060893       0.11693876      -0.29802227      -0.01633148      -0.49555859
H        7.36842063       6.75432290       0.36260636       0.02793970      -0.15789623      -0.15117001       0.48433411       1.01794541      -0.01455368
H        8.63722394       6.97507626       1.70747732      -0.10282706       0.14492821       0.09454548      -0.72599387       0.14029099      -0.67022419
H        7.92132691       9.78258047      -0.39315870       0.05439664      -0.20815567      -0.26192410      -0.36468670      -0.21318582      -0.45466754
H        8.88495969      10.23310692       0.94145779       0.20950464       0.13762977       0.08238828       0.08001076      -0.14570569       0.32939926
H        9.17987679       8.71374590       0.14943446       0.04561678      -0.00068380       0.14589027       1.18906367      -1.08786011      -0.47674298
C       26.15418647       8.87210884      12.84635256       1.15559991       0.36127218       0.06427419       0.76354235       0.55336720      -1.94125199
O       25.08934531       9.71347703      12.41456420       0.78082473      -0.01538507       1.24811722       0.50943249      -0.80657625       0.79240751
C       24.19958957      10.16271949      13.40107447       0.05589900       0.54346215       0.04828763      -0.56133497       1.57043517       0.63995731
C       23.79867191      11.52233485      12.81850061       0.27246421      -1.17447043       0.33195715      -0.70981896      -1.43824959       0.08607009
O       23.19199847      11.17506988      11.52069441      -0.81153738      -1.18126163       0.40641973       0.35197395       0.94581616       0.18745302
C       21.82502997      11.52776982      11.50375814       0.09227987       0.19355565      -0.19316310      -1.76151121      -0.41298962       0.44240883
H       25.82311312       7.88965491      13.05726479      -0.11465977       0.04034767      -0.00568883      -0.54682624      -1.12352180       0.17264730
H       26.73720734       8.85025277      11.87608830      -0.23922458       0.31271937       0.00951558       0.23708862      -0.21151453       1.53696382
H       26.70913220       9.19832236      13.74404225       0.01646380       0.07827315      -0.06106747      -0.14309254       0.50239754      -0.59040087
H       23.33792131       9.52156618      13.58537997       0.12778398      -0.12728096      -0.09086274      -0.16067927      -0.29906368      -0.48785809
H       24.61177533      10.30138236      14.41761238       0.25699360      -0.13998190       0.10912694       0.56744385      -0.03829557      -0.47571069
H       24.71997598      12.06571762      12.65727813       0.07282220       0.33016424       0.12588899       0.06937174       0.37407809      -0.26193807
H       23.08679676      12.07246719      13.45392160       0.02016433      -0.00129990      -0.03817997       0.31572774      -0.19390151      -0.30060133
H       21.70277469      12.34497423      12.21866012      -0.03964313      -0.38868799       0.07285106      -0.48548234      -0.01653060      -0.19686043
H       21.42228145      11.90983758      10.51081942      -0.11074233       0.03309120       0.33976821       0.85595876      -0.86764860       0.92429918
H       21.19455687      10.64047611      11.90669860      -0.19550651       0.16634454       0.24676574       0.72446108       1.40277481      -0.83691406
C        9.96099158      -0.08747823      11.61955886       0.23071095       0.00041458      -0.54412011       0.04201638      -2.24935937      -0.14772616
O        8.67132059      -0.47450492      12.18785910      -0.18185430      -0.84859690       0.19136170       1.45768070       0.79092407      -0.12293548
C        7.98850462      -1.31821930      11.28594047       0.48612634      -0.02748412       0.84013849      -1.36598086      -1.06179047       2.49382901
C        7.62641802      -0.76865293       9.99169131       0.67376376       0.70057182       0.39417279      -0.87542075       0.95617306      -2.06041145
O        8.61575855      -1.16056576       9.09132989       1.29820082       0.47627264      -0.03967576       0.74691457      -0.64754993      -1.44758880
C        8.22753617      -1.04477825       7.71456436       0.69579782       0.21100778      -0.08633397      -0.18645065       0.37395328       1.39140439
H       10.66889350       0.42485592      12.26622092      -0.27897487       0.12478272       0.06600997      -0.62583762       0.02823601       0.67585552
H       10.46969887      -1.01964487      11.23334063       0.41959290      -0.12756295       0.12362900      -0.38316235       0.75404358       0.47940201
H        9.80165518       0.48692986      10.74891186      -0.23253316      -0.22092628      -0.17292410      -0.23659457       0.94784886      -1.04679096
H        8.58727172      -2.17697207      11.01982946       0.27431678       0.14592156      -0.06236143       0.30186671      -0.60547417       0.37951818
H        7.05901172      -1.66839231      11.84524156      -0.02955015       0.00425771       0.02447213       1.13468289       0.41218650      -0.60562080
H        7.57309036       0.33579432       9.98281358      -0.06596680      -0.33585273      -0.17659576      -0.40601373      -0.15148291       0.21276252
H        6.69463073      -1.21221259       9.59433418      -0.02600698      -0.18702514       0.08402992      -0.03568951       0.45178527       0.62525135
H        8.89664125      -1.64848166       7.14261471      -0.01797281      -0.27328240       0.10256730       0.17317149      -0.67582816      -0.38429281
H        7.15494156      -1.28249759       7.57867548      -0.02827203       0.26692009      -0.01384681       0.46522427      -0.18788277      -0.05780245
H        8.39369302      -0.02637540       7.42912421       0.00976750      -0.06259881      -0.13213790      -0.13235499       0.90094829      -0.47406685
C       33.30860389      19.64663353       4.95187156       0.11219262      -0.19239259      -0.28534204       0.84025973      -0.98721278       0.26890746
O       32.55911401      20.51298606       5.77242318      -0.30426764       0.46153818      -0.50227894       1.17606914      -0.25181195       0.30387345
C       31.31066542      20.86680287       5.32149533       0.26208522      -0.09286357      -0.43312911      -0.94457960       2.36625242      -1.05740643
C       30.15562937      19.92342621       5.69451317      -0.33463516       0.36801748      -0.24662576       1.11089087       1.38119400       0.31878892
O       28.91621323      20.56859203       5.44471135       0.49796324      -0.17671633      -0.88060232      -0.05283179      -0.10901448       0.58854026
C       28.43175191      21.26852780       6.59743430       0.21002796      -0.93640250      -0.47074394       1.04767740       0.08853477      -0.02028312
H       34.40577219      19.98004344       4.95780112      -0.26588840       0.03359950      -0.06576885      -1.40680921      -0.59218210       0.28022763
H       33.16421790      18.60830948       5.35798372      -0.11065583      -0.10338273      -0.33723707       0.72704715       0.91615081      -0.53448921
H       33.01985647      19.61701154       3.88764247      -0.04684592      -0.01143728      -0.18726986      -0.32220459       0.39737439       0.31677946
H       31.12178082      21.90157314       5.75762453      -0.01797329       0.11639288       0.11760233      -0.07252258      -1.22759533      -0.29530492
H       31.37434830      21.06648340       4.21391891       0.27135506       0.23493359       0.04238157      -0.40705448      -0.44461030       0.80037659
H       30.36404423      19.61796443       6.72501629      -0.16857481       0.20165992       0.15317488      -0.63245368       0.13269819       0.23243614
H       30.21759212      19.05640935       5.10566741       0.00357703      -0.01018897       0.27448484      -0.16781299      -1.28243852      -0.95783526
H       28.08990329      20.53275021       7.35123218      -0.04685844       0.00003394      -0.10053953       0.48579252       0.53358525       0.05013690
H       29.20213176      22.02386244       6.94913272      -0.11874950      -0.21061836       0.22530684      -0.73823011      -1.09209025       0.09606151
H       27.58655631      21.84284063       6.28320164      -0.21764426       0.06023478      -0.26591558      -0.65982533       0.29349223      -0.28462300
C       23.84400124      14.73123599      10.47997085       0.26369118      -0.68158690       1.20824403      -0.29024053       0.32579851      -0.16747251
O       23.76300715      16.07581313      10.94877698      -0.61987428      -0.55149238      -0.88811012       0.07435082       0.02644235       1.00496769
C       24.00025325      16.15582615      12.37414575       0.06220831       1.45898604      -0.41725253       2.09447789      -0.34488872      -0.31669021
C       23.76868413      17.58249955      12.80266548       0.42796040      -0.19622938       0.03259158      -1.62706745       0.07541010       1.58662319
O       22.36736497      17.81182196      12.52255710      -1.54253077      -0.68108293      -1.48062207       0.90498507       0.27865332      -0.49540481
C       21.80474710      18.98811160      13.04738577      -0.39699315      -0.53683061      -1.18173286      -0.83624631       0.18454106       1.36132693
H       23.02219097      14.07568795      10.90032230      -0.02558028      -0.16225106       0.09025574       1.01024389       0.56497717      -0.08125161
H       23.66394846      14.82259933       9.40705066       0.10790661      -0.10566192       0.19666269       0.17069370      -0.28712085       0.01766403
H       24.87270873      14.36735415      10.66040586      -0.00225558       0.18102142       0.06257857      -0.59535646      -0.31687775      -0.01713038
H       23.36784532      15.38429563      12.82035156       0.10507555      -0.01663089      -0.15623274      -0.24654555       0.42453405       0.53765380
H       25.08976651      15.89239763      12.66999057      -0.15937869      -0.02921340      -0.05023710      -1.51407194       0.25853950      -0.88288820
H       24.37648277      18.31551125      12.30228558      -0.16259571      -0.05004101      -0.10945988       0.37478477       0.03475035      -0.77392203
H       23.97789390      17.81978423      13.90232887       0.12621723      -0.09268479      -0.11511174      -0.30259061      -0.86740494      -1.13952792
H       22.28320405      19.94860287      12.79078415       0.10275020       0.37388238       0.05194729       0.25392461      -0.48965681      -0.27618214
H       20.77102100      19.00493804      12.62466023       0.21456365      -0.28605233      -0.33088304       0.61572361       0.16587313       0.65674955
H       21.81133930      18.92792267      14.19669889      -0.09207866      -0.13857086       0.08641366      -0.30224454       0.17147207      -1.46826601
C       29.31272727      12.73058940      29.68096377       1.49346951       0.53603073      -0.02503802      -1.63443720       0.37806526      -1.26989079
O       28.85252259      11.56969771      30.33541084       1.00339711      -1.00846747       0.42980113       1.36537242      -0.85867167       0.38285002
C       30.02952757      10.78680615      30.73952043       0.24648974      -0.77555479       0.06829511       0.72764719       1.43589699      -0.86992258
C       29.71628793       9.53505051      31.45793368       0.28015109      -0.19300414       0.40882805       0.89317364      -0.88191998      -0.62630516
O       29.22453406       9.87819191      32.73002732      -0.19807849      -0.80564005      -0.19559662       0.03361692      -1.26593578       1.07747865
C       29.21593519       8.69450935      33.60258077      -0.07437771       0.72880729      -0.50715328       0.13812636       0.91079032       0.15491660
H       28.47922985      13.24734018      29.13386468      -0.05572582       0.04537755       0.01723189       0.40194553      -0.57649481       0.84656507
H       29.75727256      13.42270304      30.36120948       0.00510924      -0.16612195      -0.27954543       0.48898935       0.46333936       0.34586990
H       30.00614746      12.49473124      28.89739907      -0.04546126      -0.05889142      -0.01325322       0.68477154      -0.34901905      -0.42743099
H       30.63890559      10.51232279      29.83542865       0.24275536       0.25009567       0.03331294      -0.66245079       0.40915889       0.51258218
H       30.70669810      11.39840216      31.42009622       0.09358134       0.13224602      -0.06292474      -0.85161501      -0.37947235      -0.74439853
H       30.78276777       9.08864252      31.48771600       0.01251535       0.17704548       0.20173675      -1.71924424      -0.06627791       0.34792987
H       28.99822271       8.87130568      30.87494061      -0.07677668       0.07277756       0.03394176       0.86103040       0.48895606       0.66977346
H       28.31385402       8.13221548      33.42092366       0.02962396      -0.14486204       0.19001495      -0.23749107      -0.45833173      -0.34224135
H       30.12257708       8.13989971      33.38128079      -0.15030037       0.08961838       0.31936296      -0.02884441      -0.31819212       0.06340268
H       29.20658935       8.92503659      34.68953076       0.10880527       0.11710216       0.01884499       0.10634302       0.59745336      -0.87810713
C       13.99321943       9.71782422      24.90030639       0.32357447      -0.13069928       0.35720167      -0.49401382       0.88206279       0.79922193
O       14.66256587      10.60350232      24.01439699       0.48499635      -0.80077962       0.52895672      -0.93763489      -0.07102542       0.01518355
C       13.84312017      11.76504148      23.83921898      -0.12290642       0.89419338       0.56764012       1.03359354      -0.51888263       0.07294220
C       14.58205783      12.68771501      22.89940622      -0.89652429      -0.38563368      -0.87982520       1.64731562      -1.49631512      -1.31171525
O       15.02533616      11.96589031      21.67277784       0.44524168       0.06995794       0.18985138      -0.85536635       0.58535713       1.47710502
C       13.90614143      11.84309918      20.82607443       0.33503485      -0.03475991       0.46283130      -0.52973622      -0.33763963      -0.31729907
H       14.65824284       8.90581909      25.12209918      -0.12792689       0.09678193       0.10170160       0.35906681      -0.41621822       0.16624019
H       13.73001619      10.28001944      25.84603957      -0.09645434       0.00983959      -0.24132392       0.31545073      -0.65158659      -0.66626668
H       13.05998169       9.30673124      24.49674515       0.23751405       0.11566771      -0.15948965       0.13184385       0.16539717      -0.24378456
H       12.85109934      11.47835310      23.40783901       0.01649876      -0.23095394      -0.04125496       0.59426963       0.26242849       0.52646315
H       13.77248089      12.24860653      24.82877212       0.07922100      -0.10337720      -0.04379082      -0.48794067      -0.01512124      -0.39117977
H       15.53577206      13.15279435      23.24034781       0.10311836       0.04391086      -0.20266153      -1.02136481      -0.22034989       0.25744292
H       13.84891699      13.35288057      22.53456036       0.05339973      -0.14119429       0.01882022      -0.41545680       1.50691545       0.02897255
H       13.46645307      12.83819390      20.64856562       0.10881552      -0.24397584      -0.00242429       0.07681187      -0.40511972      -0.29546046
H       14.24781142      11.36851472      19.92601893      -0.10142070       0.07483310       0.07380547       0.26125896       0.13294476      -0.74573255
H       13.10496652      11.16623072      21.17193868       0.29403025      -0.03738254       0.06658828       0.28824872       0.33521381       0.45475936
C       19.83442196      16.37776105      11.77901483      -0.75432932      -0.53717312      -0.59757365      -0.30035952       0.77348977       0.20566656
O       19.66786428      17.31876370      10.72175150       0.21522973       0.63946064       0.51697375       0.46687102      -1.29087150      -1.27357209
C       19.44691677      16.58040990       9.46555245      -0.88110712      -0.26436401      -0.01765611      -0.00597817       2.61287236       0.83171558
C       19.56646572      17.61375226       8.35103483      -1.08796636      -0.74436376       0.16844624       0.28726488      -0.34281507      -0.39378375
O       20.86562081      18.24687952       8.34820130      -0.86218096       0.70090808       0.72868666      -0.85131341       0.11364364      -0.49560037
C       20.89848875      19.25838065       7.33449133      -0.02671596       0.72173744      -0.57940064       1.47112882       0.80397284       0.26999819
H       20.70677317      15.73720113      11.69088626      -0.30568550       0.13359146       0.00505211       0.43128127       0.01461140      -0.33012074
H       19.95625329      17.00561192      12.65805309       0.12576835      -0.04468126       0.21128399      -0.15606290      -0.39441574       0.17839123
H       18.97295365      15.72073740      11.84667381       0.03837095       0.09559622       0.24629026      -0.33970544       0.06848571       0.24318811
H       20.22428737      15.86103745       9.33069583       0.43704718       0.06444664       0.35368165       0.40215245      -0.96295160       0.14451510
H       18.42547969      16.18854720       9.52925103       0.22230190      -0.06529255       0.04035229       0.26095057      -0.32933787      -0.40816358
H       18.80476686      18.36181310       8.49943638      -0.12655689       0.25475619      -0.09226168      -0.20542720       0.31793827       0.01692465
H       19.41014238      17.15980514       7.34347770       0.22477336       0.02466365       0.16107159      -0.03164970       0.09021991       0.71569985
H       20.40366911      20.18336005       7.60089935      -0.14240158       0.08305911       0.19829883      -0.66259885       0.01501586       0.56762403
H       21.93989148      19.62165397       7.17003336      -0.19599646      -0.20400777      -0.16144164      -0.56904942      -0.90131021       0.23157720
H       20.48216528      18.94258299       6.39258684      -0.03190565      -0.18866116       0.08455305      -0.11506948      -0.54177248      -0.39935449
C       17.60108248      11.45593976      24.57843685       0.88199948       0.09825054       0.22908770      -1.07314932      -0.06498256      -1.81128156
O       17.46040492      10.24278460      23.81469837      -0.03138384       0.34566518       0.47800807       0.92097402       0.42168349       0.19838096
C       17.73123499       9.04817247      24.51509078      -0.38217715       0.81990000      -0.07340205       0.88083357       1.47422504       1.71373057
C       18.03397293       7.90750116      23.62434135      -0.24879126      -0.42313539       0.33651152      -0.06612944      -1.60696948      -1.53481293
O       17.11139123       7.92333651      22.48344969      -0.01118967       0.29923384       0.18194576       0.44064650      -0.98368156       0.87991399
C       16.86216116       6.56150457      21.95470740      -0.73726883      -0.38305750      -0.42901118       0.91421062       1.46116567      -0.08403443
H       18.29164318      11.31149088      25.36931876      -0.21508521       0.10633100       0.20936602       0.92642593      -0.00685423       0.75383723
H       17.94563232      12.23772833      23.83562099      -0.15014121       0.14728295       0.07302370      -0.38720304      -0.72803265       0.95792186
H       16.61020450      11.69786907      25.00244331      -0.02747137       0.26749850       0.20047909       0.37691194       0.05071238      -0.14306515
H       18.58027991       9.27272612      25.26061198       0.10277687      -0.08079589       0.11423003      -0.90683156      -0.68392009      -0.98731422
H       16.85616119       8.81249591      25.09849613       0.04738426      -0.32338546      -0.06757245      -0.35974047      -0.14637940       0.19189227
H       17.93867129       6.95549008      24.18775379      -0.13304023      -0.33063873       0.27567554      -0.37237978       0.45899582      -0.05551977
H       19.06821732       7.82297213      23.24612583      -0.08120913      -0.17258088      -0.29806477      -0.17408916       0.62534666      -0.09363899
H       17.86023808       6.06703307      21.93483596       0.06102202       0.07401759      -0.16319745      -0.81929052       0.08475257      -0.27758166
H       16.20497110       6.02391911      22.67765949       0.11857656       0.07013417      -0.26537176       0.18746996       0.30696949      -0.98257691
H       16.49087215       6.75410087      20.89815353       0.19568794      -0.13830898       0.15341758       0.06304703      -0.65432155       1.53559077
C        4.82645961       0.71941570      35.45926760       0.42051323       1.05344002      -0.27928854      -1.42918515       0.32246488      -2.73632550
O        5.24268073      -0.36915548      34.62344494       0.59885468       1.19100926       0.37006294       1.02307129       0.30197671       1.26555765
C        6.65081954      -0.47406647      34.81152588       0.24436179       1.20419274      -0.16915056       0.37155932       0.28802279      -1.87712789
C        7.19372303      -1.65322904      33.97807590       0.87776935       0.38938529       0.07287672      -0.87754035       1.30249822      -0.38991049
O        6.47191897      -2.77601317      34.30821216       0.61683943      -0.21201072       0.86539635      -0.56220239      -2.23982692       0.04744714
C        6.81366011      -3.46574058      35.53933804      -1.32589304      -0.21714430       0.03165128      -3.29421258       0.08926453      -1.37168741
H        5.22030496       1.66266550      35.03468561      -0.14001606       0.04693379      -0.19420496      -0.12068662      -0.15516566       0.11345866
H        3.72513293       0.72721186      35.31393110       0.02942575      -0.21185478       0.29327672       0.62105906       0.22084969       0.75400966
H        5.18128480       0.65918380      36.45459331       0.13012637       0.18070513      -0.11105534       0.05543690      -0.49734542       1.20890236
H        7.10652916       0.48248948      34.48783109       0.00916300      -0.06329552       0.05289730       0.08357951      -0.21703483      -0.11326957
H        6.93515996      -0.56064896      35.84986900      -0.04296393       0.02388603      -0.20520821      -0.15458423      -0.40564767       0.63310903
H        8.23828753      -1.79542092      34.18144967      -0.02308740      -0.22528383      -0.17734854       0.82764465       0.06485492       0.04010743
H        7.04806799      -1.51442296      32.86250808       0.04996940       0.10037447       0.04951986       0.17372072       0.16284981       1.20932794
H        7.78476312      -3.22360115      35.79756076      -0.21101549      -0.07961905       0.23302656       2.11614227       0.00565537       0.79891157
H        6.08244025      -3.12816738      36.28317328       0.04468691      -0.17658142       0.10789928       0.44388559       0.09993205       0.26011813
H        6.56826864      -4.53749442      35.37978405       0.17670572       0.23427114      -0.13357617       0.68864745       0.55146426       0.02245653
C        6.29848581      18.09388373       8.50367988       0.45215991       0.39785153      -0.10953950       0.95265478       1.49029672       1.81422353
O        5.59776859      17.55170586       7.44620062       1.28816175      -0.55199147      -0.13833298      -1.10112453      -0.51179719      -1.14712286
C        4.92811494      18.43594054       6.54842089       0.36121628      -0.35623831       0.27242570       1.19267654       0.57196599      -1.23669481
C        4.42761236      17.64278049       5.33821123       0.13167520       1.44644646       1.03009435      -0.88756502       1.45811057       0.93853492
O        3.14024929      17.11724602       5.67984125      -0.59012750       1.06855266       0.15602074      -0.02933278      -1.22673249      -0.52692658
C        2.56474135      16.28195786       4.60521320      -0.77084245       0.50573240       0.77866604       1.08048868       0.23690239       1.38343918
H        5.63707200      18.42377848       9.33598785      -0.31240998       0.09751013       0.01726706       0.16471577      -0.08587629      -0.48199832
H        6.98836835      17.35365944       8.92373247      -0.32049262      -0.20056849       0.17743563      -0.28225079      -0.13422695      -0.31216010
H        6.93988988      18.97089521       8.24070559      -0.03963416       0.22335104      -0.12892090      -0.51025540      -0.49892977      -0.23597310
H        4.03640101      18.92661871       6.89114033      -0.18728727       0.09037954      -0.03145751      -0.43976030       0.28839311       1.17923176
H        5.64051738      19.25554381       6.22499968      -0.02570839       0.09648502       0.14600721      -0.53240615      -0.89857841       0.28470820
H        5.20022972      16.94065623       5.12255487      -0.06026221      -0.17689890      -0.13539850       0.27480817      -1.06834126      -0.65526062
H        4.25127201      18.37069630       4.53889667       0.23992678       0.01448537      -0.04072597       0.40169662      -0.21123488      -0.27230617
H        2.66047657      16.83391120       3.68694982       0.23954408       0.23078052      -0.07918339       0.14620879      -0.01205380      -0.55222231
H        3.05033727      15.30054489       4.61079941      -0.15602298      -0.11737019      -0.04988011       0.24848494       0.27624670      -0.34998792
H        1.52282648      16.08758603       4.78930744      -0.30316282       0.17690029      -0.00604944      -0.42838255       0.33968064       0.38808137
C        2.45412233      13.45753614       6.80414978      -0.15864609       0.40413608       0.22395802      -0.21574026       0.24802074       1.01715600
O        3.58304037      14.32631201       6.83173766      -1.31524883      -0.14959667       0.56237382       0.04012822       0.11780231      -0.30698717
C        4.82871625      13.67015989       6.98942261       0.20395289      -0.44202802      -0.49576506       0.27170846      -0.14531128       0.76872832
C        5.00250753      13.40811281       8.49313496      -0.02366952      -0.45361642      -0.54644626       0.85930830       0.12501876       0.29480386
O        5.27959836      14.65773347       9.24165337      -0.51329336      -0.56239412      -1.40182215      -0.89306563      -1.42629373       0.61523211
C        5.43955892      14.31915741      10.65400510      -0.19523091       0.09191450      -0.25351948      -1.15094614      -0.80779111      -0.18377352
H        1.66044960      14.13268157       6.50961695      -0.13606690      -0.03299176       0.02807251      -0.42181855      -0.28673968       0.06760338
H        2.56668787      12.67487049       6.06400681       0.30189519       0.22670949      -0.15537942       0.17329751      -0.23428677      -0.11587384
H        2.22857853      13.02397253       7.82938743       0.32750353       0.08471211       0.19747249       0.19463246       0.40019846      -1.14587677
H        4.81705763      12.70617874       6.44742946      -0.02658524      -0.03194178      -0.07541635       0.13322273       0.32684362       0.19895124
H        5.61217370      14.32897167       6.55067848      -0.08732103      -0.08974822      -0.16420883      -0.41260335      -0.41402322       0.44426134
H        5.87612720      12.82363246       8.75156387      -0.06193020       0.12250082       0.01581196       0.25080603      -0.60544962      -0.56106722
H        4.12770891      12.79565022       8.84234050       0.04255940      -0.18915491      -0.18017774       0.42177811       1.01794887       0.11805397
H        5.98944803      13.38721096      10.84954197      -0.04288875       0.12029903      -0.08437007       0.15293074       0.13416317      -0.66595185
H        5.94656712      15.08464239      11.18197922       0.21417269       0.02368954      -0.20041916       0.59495169       1.08478153       0.05959315
H        4.48037116      14.16934664      11.19421462       0.00636825       0.00652542       0.12961812       0.14081702       0.22065543      -0.70553058
C       19.74321058       8.82964155      28.34642279      -0.59975365      -0.02364065      -0.65627507       0.34919447      -0.62435627      -0.04855933
O       19.49628528       7.63442002      29.09264365      -1.07580866      -0.31266308      -0.11165202       0.65954822      -0.95495355      -0.24421732
C       19.13431879       7.63860252      30.48031217       0.72098830      -0.02190571      -0.40820419      -1.15812159       0.53745997      -1.29289615
C       18.25340447       6.42160444      30.71271578      -0.06712487       0.51797545       0.60626166      -0.88939410       0.13170600      -0.74961042
O       19.01537035       5.30623525      30.40844667       0.33699161      -0.19363430      -0.40050718       1.03112352      -1.96459150      -0.37323463
C       18.88331942       4.04840410      31.12330251      -0.72655474       0.52147283       0.30876344       0.56053692       1.51679969      -0.06361416
H       20.78024197       9.23107644      28.43364072       0.13280016      -0.16055023      -0.08801568      -0.67638218      -0.27764404       0.31265375
H       19.61176166       8.50129356      27.27879182       0.17644696       0.02242909      -0.03729977       0.09498338       0.66938239       0.94083226
H       18.98272967       9.55261989      28.65341734       0.10770829       0.12002284      -0.08959905       0.26721364       0.40176389      -0.33961561
H       20.01691182       7.59001969      31.09518741      -0.21043105      -0.17084937       0.16642842       0.42487428       0.17396766       0.36684754
H       18.50513254       8.52108683      30.62985116      -0.00120890      -0.02045784       0.19997744       0.29894486       0.14215003       0.47947142
H       17.38107794       6.43704606      30.02234960      -0.15749403       0.08708866       0.05247050       0.30481529       0.29952273       0.15875123
H       17.79513316       6.39803462      31.69380614       0.12273831      -0.12336243       0.23644643       0.34586820       0.08840312       0.58411002
H       19.03919764       4.25609761      32.17842875       0.08227558      -0.14124902      -0.23037043       0.05574089       0.01233056       0.40926281
H       17.88100143       3.62339769      31.01975881       0.42502163       0.22381367       0.10383923       0.26708347      -0.29386827      -0.49273163
H       19.75991715       3.44041303      30.80400574      -0.05043090      -0.06448238      -0.27878980      -1.03295791       0.16153279      -0.06254132
C       20.24618130       4.61086824      13.85286206       0.23489280      -0.70092434      -1.04603034       0.95247841      -0.33803943      -0.78599316
O       19.52000247       5.76095538      13.39872155       0.89486009      -1.91616388      -0.79930318       0.18803422      -1.15627623       0.66626918
C       20.18676342       6.37689245      12.32098729      -0.37566831       0.93159074      -0.04343118       0.96419901      -0.87028146       0.30886129
C       19.71417471       7.74769614      12.19646318      -0.57354439      -0.02140695      -0.03788321      -0.66649073       1.09022355      -0.59347618
O       18.58018720       7.79487929      11.32912524      -0.26321991       0.53565288       1.07969023       1.00994158      -1.31570041       0.70570004
C       18.20141845       9.08856274      11.03862485      -0.40582787       0.11017589       0.08809547      -0.76062691       1.15325332       1.07940924
H       20.29381076       3.83413867      13.07033962      -0.13263060      -0.37286374      -0.05320832      -0.23410977       0.20580998       0.02906396
H       21.30876789       4.87270837      14.03413303      -0.11777829      -0.01184078      -0.10305495      -0.40248078       0.16387895       0.16526857
H       19.86072277       4.11054551      14.74382087      -0.07909875       0.07613661      -0.02613423      -0.49864510       0.71415097      -0.07985127
H       21.27244807       6.36577839      12.48363433      -0.28382839       0.18187100       0.13240437      -0.01937031       0.06502172       0.25444549
H       20.04411189       5.88126797      11.37527003      -0.02923262      -0.02838660      -0.08201351      -0.29102859      -0.69711399      -0.47523370
H       20.50580962       8.37434546      11.75842912       0.25877575       0.16008490      -0.05238110      -0.08152477       0.10883360       0.20753476
H       19.45746568       8.07506553      13.20331547       0.30033324      -0.06708751       0.19059115       0.00801656       0.61236912       0.08676300
H       17.71297389       9.02750553      10.08132418       0.02709264       0.05523181      -0.07472430      -0.69046175       0.41317895       0.07194868
H       17.63448845       9.55753417      11.90827385      -0.16563429      -0.24766055      -0.11687965       0.06259257      -0.54918599      -1.30341077
H       19.04210080       9.74104936      10.91764983       0.06877552       0.04825002       0.02145161       0.95930642       0.34809393      -0.19496423
C       12.75969779      24.78643596      14.73861540       0.37849720      -0.82187132       0.22431592      -0.35369295      -1.76357520      -1.38746798
O       11.55506322      24.21572944      14.29962242       0.36351144       1.04161553      -0.10905946      -2.19137859      -1.18141592       0.69840825
C       10.38808131      24.67058580      15.10136515       0.12107866      -1.11291914      -0.58114452       1.23448944       1.85320592      -0.14035858
C        9.21470933      23.72027126      15.26199210       0.04505422      -0.44729537       0.31391189       2.06416583      -0.74287921      -1.11993194
O        9.48189565      22.71116513      16.23337368      -0.58087847      -0.06677442      -1.09106493      -0.80408400       0.37387413      -0.21579120
C       10.46482655      21.77636065      15.84670137      -0.67324242       0.33820057       0.60770007      -0.07315966      -0.07059354      -1.81884599
H       13.57388982      24.30616225      14.15407678      -0.01024536       0.22827173       0.03351096      -0.41006848       0.70727777       0.13584806
H       12.61132082      25.80599857      14.58058172       0.22123511      -0.12698872       0.22504810       0.82641506       2.10728216      -0.10065755
H       12.92544232      24.54912600      15.74799526      -0.25947161      -0.12704185       0.17649175       0.35179770      -0.20541413       1.74318433
H       10.76901086      24.96064742      16.11957506       0.04798633       0.24485776      -0.08930914      -0.35384515      -0.24534203      -0.83023435
H       10.02497901      25.60422025      14.57351209       0.06294893       0.06302305      -0.33690835       0.26043430      -0.85456872       0.77079946
H        9.09645325      23.28972128      14.24934126      -0.28478011       0.29388670      -0.05767378      -0.53575909      -0.20619348       0.45505500
H        8.34808929      24.30209827      15.53997853       0.07476871       0.25573275      -0.13204284      -0.25215060      -0.03282315       0.32379749
H       10.34807250      21.43704273      14.74797807       0.03290444       0.06950355       0.07074391      -0.28367552       0.32760030       1.48868096
H       11.45430200      22.22583489      15.85058999      -0.24282333       0.30087913      -0.22780227       0.28843755      -0.04114639       0.37312353
H       10.37743805      20.94064037      16.52644878       0.19654832       0.10672745      -0.21883227       0.16177160      -0.22149956       0.06917214
C       21.87307969       2.74476974      28.17189921       0.32523623       1.16003622      -0.26511472       0.32005343      -1.40243840       0.87205905
O       21.46277212       4.01667746      28.56741424      -0.56706155      -0.38355248       0.98649556       0.01461160       1.11137843      -0.63928133
C       22.47908019       5.00903567      28.46829972      -0.39026142       0.18679715       0.90457827      -0.38508794       0.49266413       0.74451703
C       22.55953098       5.74564550      27.15922469       0.56535802       0.16831335       0.36154111      -0.75893044      -0.24131338      -0.03521583
O       21.24529447       6.22948605      26.91331230      -1.05436847       0.23421928      -0.29521632      -0.39622626       0.38350594      -0.76909935
C       21.08573584       6.81462623      25.60130940      -0.27458845      -0.81227709      -0.19909113       1.10024309      -0.65619147       0.53333360
H       22.67264614       2.40479112      28.86387364       0.06529894       0.26574020      -0.06940767      -0.24543634       0.03351860      -0.38388032
H       20.98920881       2.10199393      28.39513105      -0.06168871       0.29304714       0.29558552       0.71350580       0.14361715      -0.78391963
H       22.29392866       2.64315023      27.14325460      -0.17401243      -0.07838694      -0.17701442      -0.72307718       0.18307482       0.39452446
H       22.22194247       5.74176896      29.23253571      -0.12941257       0.05721531      -0.17584473       0.03802388       0.05415021       0.14358073
H       23.45559026       4.61058815      28.69832467       0.11626297      -0.47228017      -0.17962637       0.43781841      -0.38236484       0.22943319
H       22.86907392       5.05504420      26.36020633       0.07676683      -0.20298880      -0.19569263       0.02753579       0.38177156      -0.13095266
H       23.25816905       6.59055585      27.28792662      -0.20214052      -0.06037862       0.02011901       0.00974833      -0.31535751      -0.28539166
H       21.37589545       6.03620786      24.84896976      -0.12802117       0.00333199       0.00031106      -0.17341447       1.08024085       0.37314326
H       20.07260077       7.13968780      25.46749617      -0.00576450       0.40126763       0.18858481      -0.83344769      -0.34539101       0.06664773
H       21.64755910       7.75583557      25.57128947      -0.02464451      -0.13923606       0.14548751       0.43893993      -0.35881248      -0.35226572
C        0.94987406       7.97007666      24.03854006      -0.97471850      -1.18197115       0.22832994      -1.61294484      -0.85590732      -1.98698413
O        2.28256636       8.38377829      23.85051114       0.05679757      -1.09914697      -0.51757725      -0.05059442       0.08040419       0.57636535
C        2.89264557       8.87114091      25.04793826       0.45678835       0.21961851      -0.00455696       1.17191255       0.99907297       0.55220008
C        3.79386939       7.82073111      25.65762309      -0.01339005      -0.23314287       0.86932299       0.07815743      -1.14212430      -0.11316840
O        4.56576005       7.26376915      24.62929899      -0.11802307       1.52338279       0.42108921       1.49504495      -0.92836505      -1.37560713
C        5.89505241       6.75595860      24.99956998       0.26415683      -0.95564678      -0.09085722      -2.20202732      -1.35654235       1.44758272
H        0.59316605       7.12885781      23.34657408       0.01660622      -0.05205673       0.07414561       1.21920180       1.04054511       0.68019545
H        0.71309767       7.62201642      25.00820060      -0.01952142      -0.10101656      -0.12669384       0.20558360      -0.30816898       1.29991984
H        0.26913705       8.78359188      23.81003031       0.26640380      -0.35311309       0.05116819      -0.13170119       0.48260841       0.07846793
H        3.46604807       9.82436436      24.84418466       0.22258314       0.24759063       0.19556732      -0.50089449      -1.07031679      -0.19499618
H        2.20163602       9.11615664      25.85373464       0.27256451      -0.13699533      -0.12937865      -0.66287577       0.18309586      -0.46463150
H        3.17478483       7.02233484      26.12046807      -0.31538038       0.12041010      -0.40900514       0.16369748       0.25368422      -0.15719405
H        4.48393676       8.17352194      26.40700438       0.04598153       0.18682171      -0.17402086      -0.19704442       0.67565018       0.45261797
H        6.44970041       6.44939069      24.13824130       0.05212428       0.34046330      -0.41913382      -0.20049317      -0.14963944      -0.58434564
H        6.40298702       7.54316856      25.47333767       0.29221327      -0.24903523      -0.22824262       0.87782204       1.12004650       0.76237702
H        5.80933283       5.87637914      25.74644966       0.14418115      -0.16116024      -0.00188287       0.00744217       1.29545975      -1.21221089
C       25.55881479      10.41178511      34.63972739      -0.29874959       0.30367561      -0.10785211      -0.09544165       0.39830199       0.59280682
O       26.65502126      11.25961813      34.31649818      -0.45462438      -1.27667174       0.43287460       0.18875372       0.45138925      -0.20903894
C       26.45046892      12.67316173      34.60127064      -0.69757148      -0.05618998       0.86995333      -0.12065165      -1.56205082      -0.34019834
C       26.11865151      13.35156986      33.29764492       0.45321436      -0.04271524      -0.11786014       1.33940089       0.51480949      -0.12509161
O       27.11835155      13.10462769      32.27862718       0.25048071      -1.46032898       1.46089116      -0.18906060      -0.05450771       1.34822083
C       28.31613119      13.82229336      32.57381448      -0.15028766       0.18937199      -0.50097234      -0.60193950      -0.28058553      -3.23097897
H       25.92721405       9.36171833      34.61478781       0.03919805      -0.14556564      -0.00247947      -0.39906883       0.77957404      -0.01474738
H       25.27407017      10.71763691      35.65481908       0.04173818      -0.13859731       0.11691308      -0.12159672      -0.65446299      -0.11492266
H       24.67766768      10.55664236      33.97781098      -0.15402631       0.03182720       0.04873312       0.56535435      -0.19388475       0.12525584
H       25.62857867      12.81976850      35.32646599      -0.10394290       0.17238096      -0.01401045       0.31970477      -0.06076922      -0.17448638
H       27.39402561      13.02613104      35.04492107      -0.30945261      -0.17741009       0.12010688      -0.39037031       0.01723545      -0.14769167
H       26.02248961      14.41314319      33.51547233      -0.30564823       0.13891551       0.19435611       0.06067679       0.34958237      -0.30287847
H       25.23872624      13.02127087      32.81578866       0.11176329       0.05142368       0.35272309      -1.19170654      -0.68144983       0.09537412
H       28.14724328      14.77643978      32.10882526      -0.05440231       0.04378205       0.44094516       0.12252980       1.11857450       0.49126008
H       28.58554127      13.82689655      33.57715483      -0.07903465      -0.30248381       0.26696818       0.43314129       0.13746992       1.69732368
H       29.08641185      13.40375625      31.92980613      -0.19231588       0.25939576      -0.22509811       0.09689090      -0.34928039       0.81176990
C       28.07107060      23.93990398      21.17526866       0.85581060      -0.93134589       0.18119921      -0.26096657       1.17268646      -1.85682511
O       28.69659072      24.40101680      22.34252380      -0.46037691      -0.01911226       0.64331692      -0.09972226      -0.46735027       0.33029664
C       28.36250268      25.74911897      22.59145711       0.35029385      -0.35628879       0.07966987       0.27364048       0.19551325       0.19515046
C       28.80911314      26.08996090      24.00681634       0.90658609       1.53247089       0.46531948      -0.48045310       1.98238468      -0.62639695
O       30.19066498      25.80611975      24.17750719       0.71768642       0.38665218      -0.15991128      -1.05586338      -0.26489899      -1.03005803
C       30.71672253      26.69241848      25.10048328       1.14751274       0.23246145      -0.21297017       0.75324667       1.31877208      -0.23610838
H       28.16623359      22.86298042      21.02518921      -0.19062332       0.05902414       0.23315645       0.06889458       0.26646513       0.25622079
H       27.03475987      24.27840848      21.15490181       0.00135823       0.09979869       0.06574408      -0.32430020      -0.56000954       0.33925924
H       28.48589237      24.49408891      20.28635248      -0.14564645      -0.06518114       0.09463212       0.04081099      -0.74974734       0.66756487
H       28.84314309      26.43825569      21.82155667       0.23767525       0.13282484       0.19065042      -0.37721235      -0.67230958       0.78848159
H       27.27906832      25.83853061      22.51401834      -0.02731454      -0.11380109       0.01494792      -0.06859444       0.32701939       0.05036897
H       28.22743061      25.65259262      24.83085098       0.04320171       0.12772001      -0.14777038      -0.00383059      -0.22888614      -0.43342277
H       28.64058523      27.22587932      24.07345686      -0.32887508      -0.21130600       0.30984666       0.24672949      -1.34062052       0.09704656
H       30.09166932      26.73542418      25.97806895      -0.15645766      -0.25195896      -0.05807007      -0.18343909       0.23476559       0.39165106
H       31.65799601      26.28768565      25.36170513       0.22773869      -0.11444800       0.00682911       1.19093537      -0.18685512       0.50249082
H       30.89225464      27.72299502      24.65170903      -0.06489013       0.17075353       0.12929184      -0.39338544      -0.98572832       0.49711937
C        2.23444597       3.46935728      11.65277890      -0.06851352       0.10067786       0.95621616      -0.39062405      -0.34281823       2.24221253
O        2.88090294       4.68984938      11.94694607      -0.58524183       0.15629315      -0.43383000       0.41281524       0.91232765      -1.29411101
C        2.74873334       5.57331847      10.81372263       0.62557565       0.21321359      -0.87980489      -1.52620554      -0.53823131      -0.16413020
C        3.25247172       6.93139008      11.03990165       1.28307487       0.19547263      -0.69010893      -0.30342552      -0.11312780       0.84519529
O        4.65724609       6.88424635      11.15326462       1.14007787       1.36231144       0.14828837      -0.05433977       0.26983416       0.53416413
C        5.10948411       8.16245236      11.59046518       0.34410606       0.09904002       0.53388831       0.07771783       0.57971543      -1.29516065
H        2.56218695       2.75622249      12.42324070      -0.04719450       0.17377823      -0.11331601      -0.20922779       0.21006191      -0.31108817
H        1.16769947       3.62216026      11.75924073       0.08058346       0.18032118       0.00049342      -0.46202916      -0.10662170       0.03963058
H        2.39596311       3.02450670      10.70485071      -0.06225674      -0.08693061       0.30578455       0.67248756      -0.03124411      -1.28578448
H        3.28707088       5.18561720       9.97758181      -0.12704826       0.06744733       0.11959947       0.61118156      -0.70140654      -0.71993244
H        1.69186472       5.67244008      10.44146089      -0.13236493      -0.27882659       0.14663193       0.56239301      -0.34021598       0.73238099
H        2.75223708       7.37837355      11.90549030       0.16906090      -0.36285606      -0.17432775       0.31879312       0.01026669       0.39586323
H        2.92764327       7.52848903      10.20802233       0.10293638       0.15412765      -0.02989594       0.12138951       0.47832757      -0.71129441
H        4.94349388       8.29707210      12.63467544      -0.16836433       0.06304139       0.08184577       0.03497222      -0.10692485       0.98903489
H        6.17550992       8.24190511      11.33536075       0.15952250       0.00149950       0.00975219      -0.40027305       0.15180552       0.03613036
H        4.48791095       8.95459322      11.09907122       0.14109753       0.25383769      -0.23664774       0.84058720      -0.40728301       0.04151246
C        8.04241255      24.76184080      27.69895256       0.52566169       1.03177602       1.06755378       0.59659374       1.11408174       0.17467357
O        7.99295443      23.98948955      26.54380990       1.51434726       0.62045540      -0.28629851      -0.08744758      -0.66126066      -1.41275823
C        9.01624321      22.98707266      26.32091695       0.00245691      -0.67331930      -0.38898197      -0.87097967       0.96407402       0.58717513
C        8.97237900      21.88757174      27.39523405       0.55511065       0.41941435      -0.20282203       0.10216334       1.34916389      -1.91187227
O        7.75887322      21.21061721      27.19033713       0.20754932      -0.25519922      -0.55427410      -0.28631577      -0.70227033       1.91436982
C        7.27143630      20.72086367      28.46466719       1.22769828      -0.69356072       0.07891843      -0.22055894      -0.95625174      -0.60451752
H        7.63215816      25.78246434      27.48666513      -0.06682020       0.40375258      -0.00895347       0.27148616      -0.87809503       0.06148947
H        7.44156719      24.29262999      28.44595381       0.23823679      -0.19164633       0.00430654      -0.57940197      -0.22063382       0.92007321
H        9.06235536      24.89064784      28.10323290       0.25312896      -0.03287817       0.40065585      -0.15196547      -0.04592102      -0.24346584
H        8.82285117      22.61961873      25.30456923       0.06584593      -0.05505119      -0.13966294      -0.04132976      -0.26573959       0.34682977
H        9.92611612      23.55903637      26.26613693       0.06245525      -0.23257633      -0.09780121       0.91628134      -0.26817149       0.29013520
H        9.01753840      22.35784576      28.37085460       0.07201265       0.14385512       0.34494260       0.09655724      -0.02485558       0.28403997
H        9.81192719      21.23681442      27.22386532      -0.24885775       0.13709694      -0.30823229       0.35171789      -0.30657238       0.16135934
H        6.95899723      21.54689118      29.10802377       0.02399913       0.04006359      -0.18255138       0.11374596       0.15125994       0.00620528
H        6.38482675      20.11393274      28.21438047      -0.11552600      -0.01543315      -0.04725251       0.36307201       0.23272201       0.26426372
H        7.99156807      20.06416654      29.03618914       0.01470359       0.22001445      -0.15416336      -0.51501870       0.78129673      -0.89007556
C        3.99745016      17.74882569      28.85113257       0.38213482      -0.06676610      -0.08462405      -2.35911369      -0.92146486      -0.07730380
O        3.40972931      16.52091934      28.30605584       0.85802363      -0.79471832       0.22901811       0.01290584       0.88516909      -0.31720039
C        2.27738257      16.88193075      27.50985764      -0.53723105      -0.26369363      -0.23258303       1.50204587       0.22953817      -2.71192956
C        1.69113941      15.65545260      26.87064562      -0.58622073      -0.72217128       0.21715496      -1.62596202      -1.22116828       0.06716137
O        2.56477125      14.87920226      26.01960343       0.45333704      -0.10182908      -0.28410517      -0.27367628       0.23054685       0.25866815
C        1.92229118      13.62059915      25.70288077      -0.34110832      -1.06702337       0.00311639      -0.65306079       0.57332855       2.01108599
H        4.34386680      18.35921901      28.04540381       0.01124284      -0.04086715      -0.04637422       0.19548960       0.57102710      -0.57826048
H        3.16443105      18.23313902      29.42108096       0.13827217       0.02567390      -0.07572070       1.01630354      -0.06016835      -0.35635772
H        4.80361061      17.46275172      29.47127322      -0.08657102      -0.04313616       0.11072533       0.79016000      -0.31607357       0.76920438
H        1.57156970      17.47601627      28.07333118       0.02893618      -0.09275814       0.30357914      -0.42871392      -0.21754730       0.19579060
H        2.56889026      17.50094789      26.58333909      -0.11928375      -0.13489765      -0.16790185       0.16537154      -0.27633774       1.48618436
H        0.77981956      15.86564788      26.24499548      -0.02172428       0.13948143       0.08220361       0.73114043       0.35839203       0.67450660
H        1.35497061      14.99922625      27.68342182      -0.09729562       0.12858533      -0.08971726      -0.03265739      -0.20889977       0.03087259
H        2.56991302      13.08045590      25.03054766       0.06393225      -0.13468105      -0.04615629       0.11815196      -0.23881902      -0.02318436
H        1.71297914      13.10747967      26.70853394      -0.08195787      -0.09099767      -0.06164607       0.48854131       0.14661482      -1.46538639
H        0.92964776      13.79570295      25.26269379       0.06759775       0.26680110      -0.29180881       0.29651639       0.02093713      -0.21755436
C       22.59271660      16.67426156      16.25090731       0.14287623       1.22119052       0.28739491       0.09805129       1.56211627      -2.84675002
O       21.64729440      15.93954548      16.90996904       0.01593340      -0.45443184      -0.35915257      -0.05207739      -1.33700621       1.78702378
C       22.23559304      14.80452337      17.61037175       0.44988533      -0.06939938       0.34045961      -0.44630200       0.11703538       0.84918797
C       21.24506352      14.33726365      18.74050823       0.84614005      -0.36696042      -0.57325055       0.02966555      -1.45289063      -0.73107815
O       20.82601061      15.31864783      19.66672879      -0.26197309      -0.36731392      -0.17161237       0.02814317       0.54791617       0.33616826
C       21.71359570      15.53183890      20.79859770      -0.75547541       1.11697904       0.24501864       0.85412693      -0.09496739      -0.95684302
H       22.85908330      16.19037794      15.28690847       0.06542408      -0.07847010      -0.01911436       0.18440832      -0.11899673       0.36327320
H       22.12236828      17.62782760      15.90642969      -0.32404511       0.21838756      -0.00315810       0.19954585      -0.52826065       0.46810237
H       23.51501674      16.96127966      16.74949558      -0.35505149      -0.03104078      -0.15128722       0.04870758      -0.27693757       0.73305541
H       22.46156296      13.98507402      16.86833035       0.04500872      -0.33290271      -0.03605768      -0.29138386       0.72426695       0.90123677
H       23.15243524      15.16326281      18.12414645      -0.14015238       0.14643742       0.22242930      -0.14713922      -0.21072292      -0.49347994
H       21.64812977      13.43941924      19.28870328       0.13535327       0.10627717       0.27865903       0.07298040       0.84160197      -0.57332039
H       20.34015874      13.94422946      18.23656775       0.34323475       0.00869030      -0.14559048       0.26194414       0.47419351       0.24101780
H       21.81727449      14.60296931      21.40126828      -0.31606813      -0.05321326      -0.07659150      -0.01176406       0.54534185      -0.65532839
H       22.70395197      15.87392420      20.35818930       0.10612830      -0.05138899       0.02637979      -0.90161073      -0.47210148       0.94935417
H       21.32569651      16.31176151      21.46417766      -0.02938356       0.09801701       0.22572599      -0.09788315      -0.23062855      -0.90500140
C        7.28095708      13.41752370      -1.05900608      -0.78502327      -0.46987893      -0.54969507      -2.37343001      -0.71063662      -0.16317056
O        5.90833272      13.69459935      -0.69365133      -1.07091639       0.34997177       1.13867563       0.71911639       0.91010219       0.26057681
C        4.91059516      13.31491548      -1.63009276       0.10709619       0.09930192      -0.20208218       1.31683147      -0.81143183       0.75425398
C        3.73197530      14.23080450      -1.37058764      -0.39859324       0.57088689      -0.34790057      -0.35345998      -2.69706392       0.10443047
O        2.66108084      13.83756594      -2.21085946      -0.58989339       0.35259841       0.31989150       0.33877441       1.04554272       0.07445568
C        2.09521746      12.64033086      -1.78356292      -0.76861871      -0.00835012      -0.73566181      -0.13059275      -0.26100999      -0.18903948
H        7.59655794      14.07131547      -1.83767493      -0.08159021       0.29069038       0.17234000       0.37462655       0.52979875      -0.64643723
H        7.83384792      13.57521039      -0.16320416       0.11642806       0.04788152       0.24490401       0.73356593      -0.11703296       0.56361341
H        7.28527219      12.38722882      -1.41763233       0.10961671       0.08273158      -0.25987167       0.58529037      -0.13711929       0.08932491
H        5.27005533      13.41520349      -2.65868435      -0.01450767       0.35428985      -0.20087350      -0.03941602       0.13750811       0.11917292
H        4.77927963      12.21762509      -1.42423325      -0.08570339       0.39721101       0.10281171      -0.56612808       0.85381824      -0.46631113
H        3.97349342      15.19161967      -1.65489135       0.05980721       0.00583661      -0.03188794       0.65547699       2.22631216      -0.49582177
H        3.50146905      14.18736207      -0.29607822       0.24975371      -0.32337560      -0.11237270      -0.27995872      -0.07946821      -0.24177161
H        1.49356957      12.79375846      -0.88878358      -0.00093565       0.13933168       0.02790052       0.37597233      -0.25443336       0.63120455
H        1.38129069      12.40410346      -2.53786292       0.33415756       0.07509159      -0.26301845      -0.52079552      -0.61480820      -0.75349468
H        2.86994604      11.85870929      -1.74310195      -0.13321278       0.12021594      -0.02446551      -0.71953344       0.12121176       0.44644865
F        8.32668230       6.20497923      17.37200870       0.25954362       0.87745000       0.15192414       0.19486877       0.00222432      -0.25294989
C        9.18611471       5.83885463      18.32590946       0.09540627       1.10162069      -0.62010601      -0.57773685      -1.75341594       1.00592315
F        8.41581562       5.21970250      19.31618574       0.26099573      -0.12616855       0.36442603       0.77980548       0.46819887      -0.55184287
C       10.14517655       4.73638306      17.77778679      -0.64515910       0.73169011      -0.21997290      -2.19407463      -0.98733109      -0.70805752
F        9.27150173       3.64396790      17.50646090      -0.45309507       0.15401206       1.33885631       0.83167535       0.50797623       0.45746604
F       10.58372301       5.04424297      16.55157616      -0.32090314       1.04434460       0.61468475       0.47290933       0.64809334      -0.18127440
O       11.11059059       4.38367917      18.62320111       0.16898462      -0.26795397       0.12842396      -0.14060445       0.83637720      -0.25580680
C       12.12516817       3.54211855      18.10249288      -0.08160922      -0.13645638      -0.14199669       0.83208007      -0.74179035       0.03507573
C       13.40838965       3.92712817      18.79525567       1.22675143       0.60821127       0.15638056       0.97942245      -0.72958827       0.26860461
F       13.69690657       5.18153390      18.43817983       0.12223336       0.43497378       0.01896788       0.29632950       0.72216892       0.20516042
F       14.45170064       3.13058167      18.28147049       0.15410250       0.55057633       0.66997389      -1.23526204       0.52507573       0.58782136
C       13.39278693       3.80078231      20.34935267      -0.83345283      -0.03669594      -0.70890969       0.82021987      -1.65259838      -0.49723843
F       12.97031566       2.51052812      20.66709753      -0.30854718       0.61651499       0.18060147       0.87289351       0.78572035      -0.43908721
F       14.61388319       4.07051226      20.86862550      -1.81017570      -0.08512579      -1.24697953       0.07143276      -0.62567163      -0.45406246
H        9.66822317       6.66765144      18.78622770      -0.05669144       0.04119310       0.05725270       0.53209746       0.87226486       0.13035007
H       12.35824625       3.59321187      17.02427822       0.10238874       0.18214421      -0.03198579      -0.62046981       0.36174375       0.41458958
H       11.87335052       2.53791059      18.37697265      -0.06603648       0.28624777       0.02320152      -0.07972497      -0.77718276      -0.02515645
H       12.74468557       4.42093025      20.86287028      -0.13993422      -0.01929530      -0.11569154      -1.58118308       1.52234244       0.40130010
F       -4.59430400      11.10380561      27.65298683      -1.17869220      -0.35793541      -1.24671596       0.66404647       0.42105386       0.13558955
C       -4.05058080      11.01732052      26.43405933      -0.19433844       0.33937154       0.03891135       0.10365953      -1.43655491      -1.86537850
F       -3.18947040      12.01291434      26.11824442       0.85383625      -0.13276494       0.04253439      -0.41261053       0.69156456       0.65501797
C       -3.20371490       9.74069833      26.26432164       0.41701383       0.02231561      -1.41617318       0.65929717      -1.08378339       0.99034089
F       -2.70219357       9.60375361      25.00305518       0.35078452      -0.57677555      -0.00883822      -0.33329248       0.55021900       0.08688212
F       -2.08457419       9.72903295      27.07089888       0.01444149       0.25534607       0.51022760      -0.32500914       0.62702703      -0.21355616
O       -3.97030185       8.68553380      26.58426812      -0.68386665      -0.10554613      -0.33467351      -1.07388532      -0.38542324       0.36404568
C       -3.31755700       7.41397834      26.55541057      -0.14041939      -0.49868410      -0.53557833      -0.57436508      -0.14792779      -0.60613531
C       -4.35498848       6.29817115      26.88631920      -0.00715249       0.18915821       0.46746222       0.99323362       0.95388329      -0.98475075
F       -3.82300590       5.05783964      26.64695816       0.10939398      -0.21953384      -1.18406618       0.06143309       0.78671438       0.03815323
F       -5.42501581       6.43789964      26.04736828      -0.10760850       0.18768058       0.80437251       0.34050250      -0.07240550       0.56199199
C       -4.82583773       6.32475646      28.31383047      -0.08682658       0.47528442      -0.46708896       0.93970680      -2.04106069       0.87854457
F       -5.61217956       5.24864310      28.45057929       0.43461427       0.83282987       1.11689398      -0.25822452      -0.65831071       0.32190639
F       -3.76644262       6.20777165      29.22169851       0.16272897      -1.53346045       0.81037804      -0.67540240       0.10063045      -1.18751240
H       -4.85810834      10.93521094      25.68898321       0.13208297      -0.03253307      -0.06580647       0.47393748       0.39830640       0.56513917
H       -2.51002067       7.45579080      27.27049697      -0.01946826       0.01874741      -0.16809741       0.34359822      -0.50409180       0.11300875
H       -2.99000353       7.28806116      25.52375778       0.33076149      -0.13472068       0.13641271       0.32694811      -0.52850372       0.10754681
H       -5.38693535       7.14261792      28.59221451      -0.27218313      -0.17298540      -0.12026685      -1.00474834       2.17006803       0.35916001
F       37.18180324      12.45847739      15.44277901       0.31245399      -1.23081588      -0.47226946       0.61782742       0.47590226       0.04176972
C       37.19262848      11.39775791      14.62992236      -0.47455496      -0.64830136       0.01234159      -1.64549565      -1.53172946       1.47869861
F       37.32256411      10.27158475      15.42977905       0.31957816      -0.49551863       0.45447643       0.66092533       0.54319769      -0.42418030
C       35.79808063      11.28173091      14.00314677       0.97963254       0.11354432       0.00808982       1.66513109       1.55992854      -1.05130029
F       35.99339921      12.16495758      12.94118223      -0.12192924       1.26793694       0.12712779      -0.84011191      -0.51709068      -0.60429370
F       35.61217035      10.04870802      13.53198578      -0.01964350      -0.25068020      -0.17995327      -0.26903066      -0.37757984      -0.61405486
O       34.80280443      11.70474583      14.74780395       0.24938119       0.71683829       0.58504265      -0.01846157       0.18545218       1.43235302
C       33.53532705      11.85875801      14.15532615       0.40665184      -0.01112686       1.12476205      -0.59851480       0.04235670      -0.89716291
C       32.54828385      11.37407790      15.22504307       0.25819652       0.41318133      -0.75672027      -1.73531127       0.13239267      -0.93236411
F       32.73864712      10.04980046      15.55477525      -0.16393189      -1.68205033       0.69363865       0.23416175       1.08434045      -0.02006605
F       31.25379221      11.43062146      14.69795844       0.79353277      -0.60408232       0.44384391       1.05277717      -0.02190534       0.28885731
C       32.55384504      12.27701331      16.47011559      -0.48993300      -0.10681963      -0.21091956      -0.15750915      -0.70328677       0.79987335
F       32.39790438      13.56410635      16.10732863      -0.40240869       0.42377538      -0.05269371       0.02374329      -0.05565673      -0.21931624
F       31.49949328      11.97245581      17.30378038      -0.83135471      -1.52654072       1.32392539       0.54954731      -0.10719730      -0.60724676
H       37.91989396      11.46364859      13.83244007       0.27114087       0.06726978      -0.00422326       0.51924413      -0.14735416       0.24341154
H       33.46506488      11.26011861      13.23404712       0.18995928       0.02955761      -0.26698879      -0.25405627      -0.09939161       0.43853536
H       33.35087815      12.91849213      13.83700180       0.16802675       0.12459984       0.01800950       0.19886643      -1.06378305       0.83143169
H       33.48726829      12.13449522      17.01294591       0.01259801      -0.21534753      -0.11431670      -0.02647595       0.17909800       0.15822330
F       13.40253031      26.80825725      -2.52306275      -0.17841633       1.29639800       1.07539876       0.66912800      -1.02560198       0.96864372
C       13.78447995      25.93193446      -1.51557130       0.19745712      -1.03864136       0.35847765      -0.00306468       1.08184385      -0.73051548
F       14.45120923      24.88702209      -2.02752353      -0.73535981       0.26801398       0.02643677       0.34097844       0.07835942      -0.33181947
C       14.61035751      26.69033800      -0.47801178       1.07684161      -1.01329873      -0.30310982      -1.01366735       0.50115162      -1.10709226
F       15.46207776      27.49433957      -1.11315405      -0.09001926       0.26830115      -0.72550460       1.45944798       0.10636345      -0.14581263
F       13.75905365      27.60571875       0.11091547       0.72352103      -0.04534705      -1.65521057       0.23384251      -1.17754626       0.37886623
O       15.19315982      25.79591764       0.36041302       1.02422735       0.19833268      -0.92836130      -0.76176316       0.27812988      -1.10134125
C       16.01790738      26.40289042       1.30266047       1.21284106      -0.01928370      -0.33953757       0.96087068       0.38651031       0.96625686
C       16.28931279      25.38665606       2.42010521       0.53077637       0.36216197       0.45926281      -0.71282107       2.30220413      -0.24027701
F       16.89823194      26.10470576       3.39271879      -0.15656254      -0.09867434      -0.14196944       0.52183086       0.15855895       0.63291919
F       17.08852494      24.42136927       2.04395534      -0.67338288       1.27780206      -0.52480342       0.93484962      -1.33126688      -0.46783468
C       15.00463871      24.81664833       2.98860018      -0.56777074       0.30489712      -0.49866880       0.34146726      -0.57604903      -1.24620235
F       15.23724221      24.31872131       4.21264186      -0.12443159      -0.33041112       0.32020130       0.04052093      -0.95323342       0.03815032
F       14.13988508      25.80564296       3.15904384       0.50468507      -0.14156320      -0.47663199      -1.18338823       1.09113896       0.10735329
H       12.93244009      25.57976941      -1.02110112      -0.20931991      -0.01489031      -0.08532433      -1.54626858      -0.50893116       0.43382573
H       15.52501373      27.26768875       1.71014991       0.14117293      -0.12184514      -0.24208830      -0.36186823       0.17347340       0.55798948
H       16.95105065      26.80954859       0.88614368       0.04420726      -0.11663932       0.03763761      -0.01373455      -0.68139863      -0.03284506
H       14.60631851      24.12610308       2.20225184       0.16191202      -0.20886498       0.16197138       0.09030960      -0.16869590       1.18146503
F        2.70262399      27.76715122      24.76181979      -0.29691634       0.31600951      -0.38168070       0.87055701       0.26098081      -0.02468805
C        3.22260397      26.66955443      24.14132114       0.12946387       0.65678652      -0.33162813      -2.59068990      -0.54384363      -0.25250220
F        4.06544446      26.95284710      23.16635607      -0.86340427       1.02571987       0.29347488       1.10009921       1.13532186      -0.71026480
C        3.87293112      25.76772755      25.14146363       0.49849053       0.38377025      -0.11906583      -0.08317943      -0.33064073       0.67645127
F        4.72622995      26.55656051      25.87127301      -0.33433992       0.67764811       0.42088833      -0.14150952      -1.10369480      -0.08623615
F        2.86696605      25.32935456      26.00457867       0.10320036       0.18595751       0.85051417       1.18982995       0.32270226      -0.59080738
O        4.47404821      24.72304330      24.49320943       0.26128057      -1.22294136       0.78978735      -0.83254701       2.32173610       0.91284484
C        5.14195581      23.79566189      25.32269677      -0.53409690       0.13477874      -1.09512357       0.64298993       0.37459487       0.52661389
C        5.06794468      22.58856086      24.43336183       0.22365254       0.72273792      -0.14077093       0.04227839      -0.79127419       2.06098771
F        5.66581010      22.87720700      23.25452377       0.03485826       0.68914520       0.57719570      -0.03816637      -0.52129692      -0.07287511
F        3.76094422      22.32639967      24.25134084      -0.03464675       0.26394515       1.08091228      -0.70779139      -0.30511498      -0.82464480
C        5.67598748      21.33777328      25.11119866      -0.22173756      -0.05956007      -0.29792613      -0.24424165       0.94318366      -1.27761543
F        4.98758650      21.06862097      26.25812427      -0.12819165      -0.50108841       1.69738936       0.19819465      -0.08981755      -0.56169653
F        5.56603389      20.29836322      24.24016772       1.45583269      -0.32344849       0.38362302       0.07483647       0.03995166       0.61803222
H        2.34701092      26.22297426      23.68663677      -0.28747782      -0.25494270      -0.00157876      -0.10257091      -0.58238357       0.02545637
H        4.67289751      23.69086307      26.30856125       0.02216363       0.17564612       0.04392033      -0.37658674      -0.37748647      -0.39593059
H        6.16217081      24.11235192      25.56234177      -0.34158401      -0.07356493      -0.08651441       0.03531527      -0.12419304      -0.48088664
H        6.69208594      21.59427499      25.34078620      -0.07932003       0.18799915       0.08257921       0.65424037      -0.65452605       0.33187699
F       -0.04245122       3.33385197      29.71818639      -1.07327003       0.00476552       0.00179691       0.45175225      -0.25874615      -0.07543790
C       -0.53338725       4.09561436      30.68281794      -0.63542223      -0.01957171       0.08597437      -0.96508181      -0.31127441       1.94285989
F       -0.57879216       3.34722644      31.90304947       0.76679010      -1.31545154      -0.82926973       0.27418256       1.07172990      -1.88065493
C        0.41256228       5.31738174      30.94464105      -0.50707376      -0.06023045      -0.12367799      -1.11989594      -1.23049700       0.14867578
F       -0.21870403       6.23411049      31.70993609       1.77001002      -0.50354177      -0.20292856      -0.50812960      -0.07354768      -0.00490615
F        1.46053282       4.92109884      31.72503927       0.27595755      -0.41283686      -0.44328376       0.06559104       0.29650295      -1.14255512
O        0.71779211       5.84889268      29.71761354       1.30379497       0.05315864      -0.02598319      -1.08804536      -2.97243786       0.76501369
C        1.33716381       7.03520950      29.82873927      -0.26217126      -0.76560515      -0.19409977       1.48244727       3.08087301      -0.48231637
C        0.82175465       7.96718270      28.68735921      -0.14008322      -0.77229976       0.87998936       1.03637671       2.04720116       1.22020137
F       -0.48541698       8.35885937      28.85170202      -0.03236272       0.48220644      -0.81885950       0.62613147      -0.73303342       0.12149543
F        0.91997687       7.37990567      27.47515327       0.08703513       0.24597314      -0.70090218      -0.15899460      -0.28165764       0.08120336
C        1.69308494       9.32780480      28.56027550       0.50437740      -0.48779044      -1.02677426       1.59335029       0.07790631      -0.78066063
F        0.90142417      10.31726585      28.02765541       1.50604227       1.11711660      -0.06597446       0.31948286      -0.67451721       0.54277956
F        2.24227174       9.80940694      29.75069829       0.54903343      -0.43777618      -0.85914684      -1.26075363      -1.05102181      -0.99316591
H       -1.60343056       4.33796822      30.45899107       0.03212234       0.13901861       0.07693361       1.03972709       0.24843249       0.17267571
H        2.43275680       6.91767929      29.69599367      -0.09479749       0.03255049      -0.12155439      -0.41343424       0.32787073       0.02171549
H        1.12430083       7.43927947      30.83527890       0.04796334       0.14690638      -0.06437510       0.39407849       0.69028920      -0.78247702
H        2.60105483       9.20720270      27.85547504      -0.19240982      -0.28899231       0.02904794      -1.55980277      -0.20256068       1.19766736
F       24.60587106       3.65781975       8.11879219      -0.48310791       1.45095632      -0.84968167       0.14852175       0.94025773       0.21460602
C       25.09883374       2.49322229       7.70547268       0.38028058       0.51848154      -0.39540625       0.00900283      -0.19265589      -1.77899826
F       24.39066910       1.52934162       8.34135043      -0.72235780      -0.53505086      -0.17728970       0.45638973      -0.27204445      -0.53256452
C       24.80881892       2.41963168       6.11698823      -0.78477056       0.28928839      -0.89869043      -0.07289713       0.55975735       1.59019005
F       23.52095439       2.91126522       5.91803393       0.07355484      -0.46773073       0.20030051       0.76077777      -1.71163857      -0.04782040
F       25.53596676       3.32228449       5.41612451       0.33906348      -0.28527852       0.01957010       0.41502139      -0.43755972       0.19967368
O       25.12115427       1.12986282       5.78154724      -0.35108302       0.65412893      -0.84355514      -1.10880411       0.80407804      -0.97938401
C       24.81287381       0.69040046       4.43572485       0.81224778       0.07023726      -0.68179105       0.34877208      -1.37308002       0.82314205
C       24.49043248      -0.82257055       4.51810853       0.99925674       1.21464609       0.76292263       1.35543275       0.33152688      -1.62565422
F       25.57401931      -1.51041017       4.95954301       0.10499862       0.78404243      -0.21918596       0.06912417       0.01631026      -0.40807065
F       24.26812112      -1.11317897       3.15551770       0.21235101      -0.04722992       0.53917120       0.04155630      -0.42740822       1.44564140
C       23.36126714      -1.30665610       5.39049756       0.25395299       0.41017312       0.25714057      -0.39763206       0.59657925       0.25076792
F       22.24114364      -0.72287623       4.90777210       0.11391030      -0.99134155       0.33824080      -0.67805946       0.16097045       0.07166182
F       23.17949440      -2.65040190       5.32211194      -0.61588746      -1.43715300      -0.58938329       0.39821514       0.32244805      -0.17441057
H       26.18277272       2.40130990       7.91151312      -0.00328400       0.10567162      -0.11030748      -0.55183572       0.02624525       0.03075483
H       25.65515207       0.79240679       3.72758105       0.08143778       0.12542712      -0.19997864      -0.24056879       0.07793093       0.55164528
H       23.93008386       1.13005373       4.02803614      -0.05383019       0.20930125       0.15121992      -0.58533698       0.76631629      -0.09319560
H       23.53211600      -0.98414468       6.42751001       0.06396303      -0.08267035      -0.06743617      -0.19586794      -0.28741091      -0.31270808
F       33.91262234      20.19335164       0.95873851      -0.89190976      -1.10568460      -0.24980760       0.01698947      -0.34967548       0.60945016
C       35.11079960      19.70344143       1.39060360      -0.09904904       0.42481035       0.62384832       0.40748012       0.66874033      -2.08422351
F       34.97684639      18.93207195       2.48110762      -0.38651959      -0.70187196      -0.07919224      -0.37579256       0.22027445       0.40170193
C       35.66148615      18.79591223       0.20245536      -0.22776884       0.64423544       0.57395546      -0.88178146      -0.17438495       1.64079344
F       36.18950195      19.52587673      -0.74999141      -1.05596328       0.07136825      -0.42686510       0.35161144       0.74838811      -0.65944040
F       36.65438617      18.09072687       0.80607057      -0.60575285       0.79269441       0.23915230       0.33901230      -0.46956253      -0.26626372
O       34.75288851      17.94489723      -0.38896205       0.29325228      -0.59774088       1.24619446       0.32341111      -0.15139623       0.95035553
C       34.41347734      16.87329483       0.51685431      -0.47248179       0.29195901       0.33316900       2.59676313      -1.60281336       0.57815599
C       33.03148243      16.39723586       0.25203446      -0.82167803      -0.06734327      -0.23025484       0.35828799      -0.34672713      -0.41117671
F       32.78881702      15.36403115       1.07843813       1.20361020       0.01329770       0.08093003       0.04275255      -0.39634788      -0.17311127
F       32.86646729      15.99674238      -1.05992933      -1.27655346      -0.00063039      -0.09641653       0.30556086       0.04444025       0.73453391
C       32.00796939      17.44365878       0.49165243       0.05138523       0.29992237       0.21218925      -0.94411832       1.54108763       0.74941301
F       30.80726676      16.90833687       0.18533117      -0.13880669       0.08307509      -0.62171693      -0.52660346       0.18067129      -0.23177117
F       31.94957199      17.75858953       1.83887993      -0.16039180      -0.08106660       0.94167079       0.39984509      -0.21053949      -0.88615257
H       35.77273543      20.55975200       1.60093151      -0.19604660       0.12314795       0.11662507      -0.02326650      -0.40184301       0.00245737
H       34.54089951      17.19721305       1.57194160      -0.05477024      -0.04334646      -0.04832247      -0.64244175      -0.30622074      -0.84046191
H       35.16170359      15.96194882       0.43818860       0.21828686      -0.26974596      -0.11843746      -1.53683174       1.89835441      -0.22485399
H       32.20820505      18.37352696      -0.08725476      -0.02457431      -0.16965889       0.06756572      -0.30475041      -0.58193398       0.32322678
F       23.88702604      11.18994119      18.56719639      -0.14626028       0.66657378       0.75671644      -0.21701401      -0.17644735       0.54878527
C       25.02433227      11.87248947      18.77511152       0.14493294      -0.34928099       1.04586503       0.20885447       0.96665293       0.46864197
F       25.87762328      11.13101096      19.51529417       1.24342052      -0.38523779       0.06070273       0.11857095      -0.30424026      -0.37417263
C       25.54569607      12.12891168      17.35656640      -0.09323534       0.01630069      -0.67025334       0.98983246      -0.26154056      -1.19587278
F       25.80732937      10.94461195      16.68456023      -0.41818408      -1.79285363       2.13232164      -0.48900419       0.47082677       0.54361445
F       24.49554534      12.71009625      16.68351798       0.81640229       0.75098734       0.03196679       1.11570537      -0.07644104       0.11284317
O       26.70250080      12.87224972      17.35200808       1.51749143       0.39173142       0.00061634      -1.40527391      -0.29130021       1.49052417
C       27.53166440      12.96296011      16.24288310       0.41799651       0.43461985       0.37905480       0.64179403       0.10305579      -1.75476730
C       27.62090216      14.38960513      15.80796966      -0.43057358      -0.14905572      -0.45304876      -0.83713824       2.52221537      -0.50816506
F       28.46385644      14.55399409      14.78614576       0.09101746      -0.15911443       0.75378050       0.83629775      -0.64893472      -0.65906000
F       28.16126568      15.16665989      16.81712578       0.06194378       0.57368350       0.10370602      -0.65517491      -0.72736055      -0.11263262
C       26.29166664      15.05807553      15.37433707      -0.17574563      -0.67964926      -0.08925541       1.45553863       1.08063686       2.15169787
F       26.48863803      16.24211784      14.74730593       0.40884926       0.97668226      -0.67497415       0.56115967       0.71099073       0.51413232
F       25.68082612      14.34160529      14.49548800      -1.53656897      -0.59886323      -1.43661272      -1.58124149      -2.40971136      -1.64481878
H       24.87266914      12.81913019      19.35567178       0.04259329      -0.05131076      -0.13672750      -0.28385019      -0.66866362      -0.81418228
H       27.29841354      12.28781352      15.39731020      -0.13900502       0.27848936      -0.04187242      -0.13772695       0.41978303       0.49480057
H       28.57890731      12.86610586      16.46914513      -0.38998813      -0.18784600      -0.03410396       0.49727434      -1.14833307       0.86726034
H       25.73681858      15.19234158      16.29690019      -0.10466775      -0.06912202      -0.14262164      -0.68195021       0.31124842       0.00787205
F       27.01807055       4.97679570       2.54057758      -0.57659262       0.19198827      -1.74083817       0.75234836      -0.60763085      -1.73867273
C       26.72395901       4.72354698       1.18788599       0.22630455      -0.21630073      -0.15309233      -1.38333762       1.24483001       0.01478313
F       27.76466800       4.30099629       0.47845422       1.83290890       0.96608010      -0.25502956       0.54994863      -0.06609380       0.58661324
C       25.61538546       3.64398513       1.21125191       0.25418155      -0.60375370      -0.15116463       0.32931957       0.51524860      -1.36017811
F       25.39654807       3.19114103      -0.09282586      -0.88420325      -0.08937922       0.23791004       0.09160720       0.60438573       1.61468244
F       26.00846723       2.56940606       1.92112130      -0.78542671       0.63592156      -0.25599647      -0.45269972       0.14929329      -0.03589451
O       24.53340598       4.29970502       1.73539194      -0.35982109       0.26000290      -0.47858115      -1.20547068      -1.51061165      -0.70118690
C       23.25256497       3.63758745       1.52111991       0.29184464       0.44935172      -0.60986583      -1.05924344      -0.80087900      -0.21014312
C       22.10220280       4.60776873       1.86539257      -0.22174641      -1.39770937       0.30374238       0.43590257      -1.31124675      -1.92128778
F       22.27035840       4.95893405       3.09518061       1.03949827       0.64657235       0.33294453      -0.04774750       1.14314544       2.99239564
F       20.96948061       3.81282622       1.79161757       0.51967033      -0.04148718      -0.15758543       0.28858984       0.86773115      -0.17567959
C       21.99147682       5.88287003       0.99434653      -0.23003076      -0.33105037       0.12839548      -0.18442640      -1.55398357      -0.58765262
F       21.66375532       5.43235303      -0.25505012      -0.36057034      -0.20440615       1.27932926       0.45093629       0.31907299      -0.00589087
F       20.99746742       6.69000428       1.37695101       0.37528119       0.36103636      -0.20928136      -0.43689525       0.15023966       0.49516234
H       26.31941286       5.68730417       0.73504701      -0.04421553       0.03842325      -0.00205384       0.53820086      -1.21597600       0.60424489
H       23.04998766       2.75147238       2.19566134      -0.05698119      -0.07505669       0.18220640       0.71769869       1.03198755      -0.38512000
H       23.05414347       3.24207205       0.49922191      -0.17983728      -0.27055260       0.04321923       0.78943926       0.56817824       0.43427360
H       22.93068116       6.41986828       1.01147133       0.32183145      -0.03399901      -0.13354936       0.22633149       0.19424626      -0.24289767
F        9.18086886      18.88969030      13.64500879      -1.20236675       0.44533735      -1.26464088      -0.54764771      -0.64025289      -0.67418724
C        9.31263134      17.90922922      12.66580938      -0.37929985       0.68335032      -0.95779550      -0.08503646      -0.76038677       0.67129493
F        8.49330436      18.09698263      11.62052333      -0.49731934       0.80506431       0.48033744      -0.54188055       0.61180890       0.10723019
C       10.71995041      18.08951135      12.14793682      -0.26823020      -0.41517356      -0.85905441       1.29639900       0.10256870       0.39480633
F       10.99419736      17.33992808      11.07034678      -0.19971930      -0.15698739       0.34318630      -0.70120096       0.36630657      -0.07965346
F       10.71448643      19.40428013      11.80665413      -0.31364793      -0.99748721       0.53979886       1.07283151      -0.12909541      -0.30000401
O       11.73496829      17.74050548      13.03998998       0.98449162      -0.38499928      -0.17732184      -0.65137064       0.05791641      -0.74241585
C       12.21784989      18.69050673      13.96140347      -0.05597300      -0.03846285       0.53421644      -0.76395702       1.60903311      -0.61032617
C       12.43121104      18.02319613      15.26136819       0.61528625      -0.28841197      -0.08746444       0.52269596      -1.11763930       2.84624290
F       11.53462011      17.04358670      15.51121999      -0.54127221      -0.44154316       0.28216939      -0.86051232      -0.01204028      -0.35671845
F       12.32482479      18.90220353      16.31854483       0.43289892      -0.57590800      -0.76681065      -0.30384889       0.49785212      -0.59932739
C       13.76258456      17.36976857      15.52413439      -0.15158920       1.11164154       0.22456673       1.91805387       1.08897626      -0.52796191
F       13.83932722      16.69629958      16.65548763       1.83441463      -1.37246656      -0.34433989      -0.82253641      -0.73868066       1.31083751
F       13.92752155      16.45912586      14.52957485      -0.44830369       0.29397120      -0.99765106       0.45346627      -0.35085613      -0.84519714
H        9.08118202      16.93327418      13.08862231      -0.03839365       0.06909637      -0.18807504       0.21767738       0.31076387       0.20544136
H       11.43120435      19.44614935      14.19011753       0.20251480      -0.18547147       0.26817661       0.69023556      -0.17232686      -0.39060381
H       13.16082489      19.14328773      13.58117208      -0.00838305      -0.24084428      -0.19591638      -0.77686816      -0.11450320       0.40078661
H       14.60476376      18.08853686      15.60009070      -0.13844141      -0.03739381      -0.01190226      -0.51171476      -0.20672031      -0.82220709
F       16.78754041       8.16710268      15.70313725       0.42391604       0.85492993       0.44742789      -0.32201946      -0.96728873      -0.55026782
C       17.25365965       6.91059868      15.35263513      -0.43275839      -0.97006856       0.84239234       0.32769674       1.93079102       0.23224533
F       17.89587926       6.47341084      16.44161404       0.34553272       0.12373411       1.07950006       0.41928294      -0.62803113       0.17613967
C       16.13681166       5.95124995      15.01486327      -0.06982037      -0.67266957      -0.31225278      -1.33866084      -0.10373834      -0.51798618
F       15.26901344       5.81779160      16.06958156      -0.32372523       0.50574632      -0.13622755       0.35245246      -0.05742501      -0.46503741
F       15.40804142       6.42916701      13.96958204      -0.43410731      -0.59200647       1.50125601      -0.07818079       0.41305304       0.33516845
O       16.67896999       4.78483483      14.63315194      -0.65004553       0.35219714       0.10417984       1.76358259       1.44050336       1.06916511
C       15.92921349       3.73129850      14.21698258      -0.34539704      -0.34927882       0.20610077      -2.90358424      -1.38890719      -0.34316930
C       16.78076599       2.98292679      13.21324751       0.46503318       0.54311315      -0.47199000      -0.28298181      -1.56051421       1.42662334
F       16.20873205       1.76591488      13.05912897       0.13352884      -1.23572354       1.08849853      -0.88441759      -0.40174326      -0.38496643
F       17.96779669       2.69592095      13.76522392       0.13930361       0.92753572      -0.13548144       1.00961351       0.36516821       0.20363092
C       16.95680838       3.67312809      11.90073282      -0.06513964       0.23904483      -0.58719957       1.74576461       2.01492190      -0.03937856
F       18.05854059       3.21613368      11.20835244      -0.38481454       0.01616228       0.67374217      -1.02910471      -0.29203519       0.16086747
F       15.83135443       3.59212956      11.21119599       0.78447041      -1.07553131       0.70853465      -0.75771135      -0.66895032      -0.99715662
H       17.92400941       7.05284098      14.50200277      -0.11744897       0.01141932       0.04448982       0.03480639      -0.36208662       0.13750793
H       14.94933045       3.99596076      13.68924260       0.05734827      -0.06273583       0.22871510       1.21791208      -0.00312883       0.68665683
H       15.64824099       3.07593244      15.09790861       0.14144765      -0.00093850      -0.01173131       0.48633921       0.37536210      -1.07103872
H       17.15473442       4.73728049      12.07128811      -0.09729858       0.16598411      -0.18785567       0.08093207      -0.01614220       0.12357190
F        3.51935159      17.55763593      23.81768695       0.01009654       0.66873177      -0.02786065      -0.52078474       0.33140922       0.44053686
C        2.67117986      17.68298797      22.78159856      -0.12690542       0.30059831      -0.65021959      -0.51861477       1.07174277      -0.52714878
F        1.88079611      18.84270399      22.85843936       0.38568168       0.88569427      -0.46691987       1.56190920      -0.99571246       0.31126505
C        3.58952728      17.78214723      21.52634579      -0.36029477       0.37025634       0.18146180      -1.50243592      -0.64203405      -0.00557108
F        4.44174451      16.73626554      21.52196814      -0.67159330       0.52923953      -0.18179757       0.03590175      -0.40403631       0.09341256
F        2.76249320      17.58438213      20.44751370      -0.36129830       1.06450178      -0.44276497       0.11165887      -0.06539452      -0.20619972
O        4.22940875      18.93153251      21.43781279       0.15181161       0.51226506       0.54770991      -0.08299586       0.67345208       1.28643084
C        5.13170958      19.07856320      20.37864511       0.43480462      -0.33948597      -0.98820645      -0.11831937       1.65238702      -1.46016777
C        6.51527965      19.55745138      20.82347335       0.32695199       0.20642658       0.43593870      -0.79002875      -1.84015882       0.94565642
F        6.44419003      20.71556299      21.46562834       0.07821998      -0.06654317       1.25133568      -0.15521409       1.26579738       0.82362819
F        7.23269027      19.72896757      19.74097279      -0.49651818       1.10170361      -0.07807797       1.11446691       0.33116654      -1.81324673
C        7.25021194      18.53462664      21.71230427       0.22588403       0.86904498      -1.12292319      -2.37217522       0.24649766       1.19920373
F        7.14335475      17.36320039      21.05486589       0.60589656      -0.11665374      -0.83358906       1.17557323      -0.67748588      -0.49996006
F        8.52713308      18.93976442      21.91619984      -0.23119461       0.25155450      -0.39717395      -0.07350389      -0.58501911      -0.15181994
H        1.91260829      16.88579333      22.76131649       0.17989902       0.12414063      -0.05581767       0.70151103      -0.14700848      -0.14435481
H        4.71055799      19.84142904      19.68119032      -0.13810147       0.21514619      -0.06809124       0.52592397      -0.28033218       0.65423822
H        5.21308021      18.19701650      19.78445731      -0.03043962      -0.30387801      -0.11483884       0.31481189      -0.81991631      -0.24205810
H        6.70388309      18.34412228      22.67285351      -0.19255594      -0.10681553      -0.07905880       0.90829617       0.72998375      -0.53996336
F       27.76679015      17.71228719      17.63304210       0.09029621      -0.45349986       0.19331623      -0.34320226      -0.79845726      -1.56684458
C       27.13665761      18.08563237      18.72689978      -0.48422637       0.09356331       0.06810680       0.55258638       0.44219744       3.12255001
F       26.03956580      18.81427786      18.46093840       0.15449431      -0.28133764       0.09292256      -0.34838682       0.04716430      -0.49631327
C       26.69470687      16.82516428      19.59559179       0.67273193       0.57840985      -0.14127221       0.28581038       0.63921040      -0.73994321
F       25.97173433      17.09908443      20.71121690       0.19595410      -0.61807923      -0.73915474       0.38987443       0.67088985      -0.21442612
F       25.83631241      16.09050402      18.84600285      -0.03421012       0.16417547      -0.55503816      -0.19289927      -0.45562086      -0.55229908
O       27.82027864      16.15282724      19.89551159       0.04055539       0.01416288      -0.08472992       0.23433834       0.96171552      -0.31572503
C       27.64139315      14.84609562      20.29826921      -0.59521109       0.16887314      -0.57032571       0.77719760      -2.63588309       0.67790323
C       28.95441784      14.27711376      20.91521035       0.44314768      -0.26511917       0.36407915      -1.18193960       0.47421288       1.02042603
F       30.04630573      14.78458020      20.36174316      -0.14058152       0.35376464      -0.05673518       0.66900843       0.23979354      -0.64937806
F       28.95561207      12.93312868      20.81122509       0.83324482       0.76664978      -0.29633170       0.07003053      -1.07666349      -1.38422227
C       28.97602645      14.41807956      22.42693060      -1.04695051       1.00543255      -0.09949900       1.69319844       1.58418572      -0.55530751
F       30.24224838      14.61528942      22.90271281       0.50024293      -0.24470692       0.26677080       0.26401380      -0.28082106      -0.13764182
F       28.33373992      15.56216311      22.69878213      -1.04153479      -0.62377501       0.35053240      -0.92855752       0.27643761       0.94191033
H       27.87288253      18.70958704      19.25990270      -0.10976181       0.07611494      -0.15650564      -0.60849625      -0.16937804       0.29523242
H       27.50034859      14.17261678      19.44712234      -0.19873348       0.17421181      -0.01519319      -0.39966497       0.22185302      -0.15751283
H       26.85808266      14.68489715      21.06136530      -0.13464763       0.19267682      -0.02337362       0.30659825       0.35228530      -0.71652901
H       28.63808090      13.50590134      22.84850755       0.04480101       0.17552433       0.02121999      -1.12889493      -0.40269312       0.94743133
F       -0.66979874      -3.13291626      -4.71598309       0.18874778      -0.63961992      -0.09528739      -0.04426354       0.41648403       0.34351349
C       -0.02852735      -2.66919227      -3.59453295      -0.44334061      -0.87126024      -0.36531540       0.18847227       0.24673793      -1.28599346
F        0.22034255      -3.76337287      -2.85099646       0.96262986       0.26860881      -0.28049314       0.09970737       0.14612056       0.51272738
C        1.32622386      -2.10929814      -4.08581014      -0.24761802      -0.09429551       0.33340439       1.60184622      -0.13868587       1.29477644
F        1.97676412      -3.11501029      -4.69821626       0.29583949      -0.24556200       0.52658692       0.15821318      -0.70553112      -0.92599666
F        1.25606622      -1.13680698      -5.02530530      -0.05249612      -0.81750386       1.00869114      -0.57382524      -0.06328789       0.75611395
O        2.10815124      -1.78573133      -2.97559687      -0.16224661      -0.17665054       0.90909135      -0.36590654       1.05580211      -0.97006124
C        3.40832325      -1.16269721      -3.32390438       0.17541528      -0.08899948       0.22790833      -1.94193256      -1.12750506       0.78659761
C        3.39460797       0.28955484      -2.91538241      -1.87873985      -1.10599223      -0.48253516      -0.13677801       1.89428961      -0.76733249
F        2.59415581       1.07733266      -3.76253807       0.29060327       0.70502426      -0.79972837       1.17778265      -1.12674248       0.29741117
F        4.68723418       0.77200172      -3.02135120       0.88088662      -1.03672912       0.32704242      -0.79671556      -0.50068015       0.05904783
C        2.83511212       0.67017925      -1.55077125       0.34418274       0.14943917      -0.25422742      -1.40989077      -0.10239843       1.45031798
F        1.45259152       0.56508800      -1.60033297       0.54651254       0.66706438       0.00871993       1.07692218       0.11309811       0.00445803
F        3.23819993      -0.25275140      -0.61199123       0.53125468      -1.23854005      -0.90322452       0.23029466       0.41543341      -0.38223118
H       -0.61618549      -1.91102614      -3.08571171       0.01113061       0.13231657       0.04812665      -0.16143924      -0.28866223       0.12826705
H        3.52641563      -1.29961207      -4.37366775       0.32228187       0.04161077      -0.01693589       0.50690794       0.38212836      -0.75242835
H        4.13249079      -1.77044293      -2.79204431       0.03019315       0.12874341       0.12860995       0.28616837       0.39938396       0.17374609
H        3.06472672       1.70740908      -1.18489792       0.12499769       0.01023022       0.24744335       0.24339329      -0.93573493      -0.64168936
F       12.54722601      -7.86736978      19.52853984       0.82211737       0.10490669      -0.01322610      -1.34407771      -0.50344861      -1.35047102
C       13.37009078      -7.38074944      20.41957425      -0.39504544       0.63837879       1.22859835       1.04064488      -0.36097151       2.22481775
F       14.62312128      -7.47506059      19.91511229      -1.48358107       0.83855988       0.00057251       0.13301949       0.07991216       0.14105797
C       13.03144687      -5.90597723      20.71761800       0.15152879       0.27661708      -0.20603363       0.84707725      -0.18734905      -0.07356628
F       11.75481409      -5.84926772      21.09051234      -1.18252269       0.98132304      -1.02519586      -1.27948749       0.10130978      -0.12223902
F       13.70553050      -5.49450100      21.81260569       0.61256386       0.50145972      -0.07271670       0.60542893       0.01515574       0.16969758
O       13.31914601      -5.13641537      19.64065168      -0.24830728       0.14590197       0.48944578       0.16051896      -0.82789081       0.06345574
C       12.94045513      -3.79566604      19.70711054      -0.71945217       0.00824023       0.07297443      -1.65754294       1.59580410       1.38482630
C       14.07984748      -2.88458513      19.32696991       0.53489206      -0.10664812       0.25709230       0.51603913       0.52719545       0.03978157
F       14.59047611      -3.27683180      18.11548673      -0.32494569       1.12572230      -1.09225274      -0.11655004       0.46448621       0.28593028
F       15.08186889      -3.00957181      20.23843182       0.36940973      -0.13078227      -0.52552925      -0.00356586       0.03203810      -0.06776131
C       13.66765927      -1.35735715      19.34852635      -0.22511883       0.62121225       0.36688301       0.30639645      -1.55827928      -0.53920972
F       14.71153464      -0.53991429      19.17404959      -0.10219043       0.50120660       1.40552724       0.44377774      -0.10619427       0.28416160
F       12.82760361      -1.12458970      18.33584819      -0.27323476      -0.51312425       0.20144758      -0.70883048       0.00630160      -0.94458795
H       13.29828044      -8.02103461      21.36460010       0.10360721      -0.02108619      -0.01264022       0.15556051       1.17020226      -1.09496343
H       12.54695659      -3.46893869      20.73634452      -0.16880840       0.04343897      -0.21958046       0.81591380      -0.63288242      -1.24882174
H       12.09495000      -3.62028657      19.04033681      -0.24129574       0.23951473      -0.09493304       0.08553814      -0.03203574      -0.25577247
H       13.13816684      -1.18211809      20.25808774      -0.16902954       0.34690750      -0.08045216      -0.08115520       0.51701468       0.95141375
F       11.72745921      11.97547413       8.24930158       0.42099131       0.83465380       1.78363427       0.35905614      -0.62816983      -0.89209807
C       11.87289661      11.10061254       7.20969108      -0.08390440      -0.96997578       0.38493405      -0.71455711       0.06414056      -0.66885990
F       12.86836649      11.52541148       6.35000294       0.96640982      -0.32390445       0.39510249      -0.57992429      -0.33920246       1.15689921
C       12.16263787       9.68841290       7.75464053      -1.08466295      -0.15038801       0.90600208       0.25386012      -1.74584746      -0.12139329
F       11.00222907       9.11375664       8.24263625      -0.43434029      -0.10320749      -2.26832788       0.91261435       0.93063354      -0.38989934
F       12.51085008       8.82717335       6.67405339       0.43421650      -1.04106714       1.02558236      -0.44916782       1.35672450       0.94756228
O       13.13369019       9.68685197       8.68064404       0.09208284       0.37500884       1.16402903       0.66891736       0.84828645      -0.87753767
C       13.54411247       8.41046925       9.13421888       0.25479685       0.51029807       0.47726146      -0.33901104      -2.17510509      -0.90754378
C       14.61723717       8.47934892      10.16258422       0.13034616       0.63546370       0.23125222      -2.03564763       3.29970884       2.37430239
F       15.60507435       9.23372839       9.65199991       0.60490740      -0.40343380       0.02235998       1.05910170      -0.13144031      -0.17457174
F       15.00147724       7.32575697      10.67145422      -0.64885941       0.19207545      -0.36013716       1.17878866      -1.36050570      -1.05953729
C       14.08815477       9.19192115      11.49776788       0.15302677      -0.17842220      -0.76101600       0.05741774      -2.39305425      -0.05872184
F       15.16744523       9.43574698      12.26853526      -0.65013953       0.92191186       0.17480244       0.43010005       0.40527409       0.24656139
F       13.48269290      10.33122842      11.22073149      -0.31593122       0.71816103      -0.30952678      -0.48360157       1.00507653       0.08021612
H       10.93753890      11.02953365       6.61491468      -0.09275663      -0.05723260       0.13627206       0.42709845       0.30096015       0.46551690
H       13.87493286       7.69111356       8.32237163      -0.06626240       0.31791623       0.07159513      -0.52874792       1.08939338       0.78220403
H       12.68656460       8.04440862       9.64156072      -0.19985697       0.01560147       0.08938557      -0.80296713      -1.09784234       0.38464016
H       13.43964939       8.46375600      12.10475588       0.06141201      -0.35863325       0.18467449       0.49436852       1.15131891      -1.13838637
F        6.70510466      18.06312883      17.21013556      -1.71386514      -1.49713411       1.04907815       0.27045891      -0.02319704      -0.63510948
C        7.88660195      17.73750506      16.56466499       0.53843984       0.08163852       0.06104937      -1.19298077       0.54319036       1.16914523
F        8.81548989      18.45944853      17.22077970       0.23903804      -0.66980109      -0.41979928       0.55309159      -0.85023594      -0.17606831
C        7.96604516      16.17958104      16.67342705      -0.71036469      -0.01627350      -0.00713559       1.79405034       0.17976953      -0.53106141
F        8.41854002      15.68265076      17.85143087       0.03486351      -0.30313631      -0.77343697      -0.24190530       0.59896064      -0.04978874
F        6.71601453      15.71406794      16.53425553      -0.63224852      -0.47941779      -0.00209190      -0.03412377      -0.30000761      -0.41897491
O        8.82515987      15.77318132      15.66087853       0.88814343       1.14491734       0.30954951      -0.79086083       1.12319577       1.25448501
C        9.03949360      14.39479095      15.55334826       0.21848982      -0.74753301      -0.39735992      -2.07294607      -1.07118559      -2.18245792
C        8.81680442      14.14665103      14.01844868       0.37358675       0.38042766      -0.32954576       1.58606958      -1.28811479       0.52064437
F        9.58259876      15.04834862      13.31463533      -0.32427375       0.56954361       1.48189581      -0.04792515      -0.24597415       0.15360028
F        7.55678710      14.29197400      13.64125889       0.40067862       0.04638417       0.68484535      -0.93759710       0.88923079      -0.06557144
C        9.23441504      12.72065745      13.55536256       0.73785040      -0.37909467       0.10589607       0.46983626       0.38367507      -0.98929077
F       10.25021880      12.27820047      14.39526172      -0.06889533      -0.22495087      -0.77267729      -0.92233682       0.01959483      -0.59502053
F        8.12155724      11.98865246      13.66550290       0.55482723      -0.91127524       0.05487025      -0.29334491      -1.12956750       1.19512451
H        7.86948892      18.07554126      15.52427420       0.33121620       0.05881984      -0.22997692      -0.15818880      -0.25780028       0.09823214
H        8.27842308      13.79208259      16.10452717      -0.01473799       0.01082524       0.01821061       0.67887145       0.40348217      -0.30871907
H       10.02607972      14.04843671      15.74606762       0.23613912       0.30184931      -0.02228503       0.82173502       0.25402418       0.71238095
H        9.47816461      12.55216480      12.47275725       0.01662579      -0.29348846       0.15216138       0.61445385       0.91413653       1.05647790
F        9.00478167       7.36235459       7.99259087       0.26613919       0.02721233       0.48464319      -0.65979248      -0.06354535      -1.65703487
C        9.02953672       6.66279319       9.12249839      -1.20352926      -0.84123996      -0.28269549       1.65577483       0.86620021       1.25020707
F        7.85542131       6.14351296       9.40848304      -0.39980124       0.59997059      -0.57494163      -1.49059188      -0.71465790       0.02172125
C       10.11771719       5.58094084       9.00736748      -0.29971440      -0.16804256      -0.06080409       0.44235700       1.02654898       2.07179475
F        9.84779329       4.63826258       8.15480907      -1.20908342      -0.24625113       0.56910302      -0.34502837      -1.30842817      -1.85732985
F       11.19148502       6.27538652       8.61516350      -0.12548402       0.15216322      -0.34492421       1.17181993       0.01687048      -0.95547843
O       10.38088490       5.03771353      10.22747433       0.01914236       0.42289636      -0.59594755      -0.12994723      -0.10061001       1.04167700
C       11.25900853       3.92794310      10.43952235       0.23297727      -0.80067221      -0.24728118      -2.10857224      -0.99859804       1.34050882
C       11.71496315       3.98181858      11.88188162      -0.54254707       0.01468347       0.47366007      -0.85375535       0.40870130       0.13566095
F       12.62050817       2.96668837      12.11513135       0.03655250      -0.07499308       1.06410724      -0.76464099       1.24871230      -0.28617871
F       10.63164133       3.80909622      12.74220846      -0.07581567       0.47340046       0.49697750       0.84323716      -0.16728188      -0.61302316
C       12.24360273       5.38479135      12.24848078      -0.64684484      -1.26522957       0.60116303       0.50552684      -0.79556179      -1.13820839
F       12.82229827       5.24369368      13.44877851      -0.17142943       0.29998528      -0.28246837       0.87539810       0.44868168       0.38940573
F       13.14920641       5.79569649      11.25684578       1.00980716      -0.28041817       0.67232206      -0.82429785      -0.64020264       1.56233668
H        9.31601071       7.42243421       9.84601897      -0.08140917      -0.11590291       0.13199643       0.04342845      -0.52479398       0.67651546
H       12.13363059       3.83365120       9.90663852       0.37190050       0.12093468      -0.08773949       1.93231046       0.63540101      -1.92561364
H       10.74757784       2.96547875      10.31265904       0.27003277      -0.10378773       0.27105507      -0.25920174       0.25397050      -0.03868108
H       11.45968121       6.11980838      12.31528928      -0.12973089       0.02855840      -0.26707226      -0.29082295       0.28572041      -0.14648773
F       -0.68510580      24.09914742       7.15668589      -0.19995318       0.00338606       0.07892706       0.11093818       0.48282230      -1.43992567
C       -0.36816631      24.11331801       8.45009624       1.20317059      -0.24215312       0.06129666       0.33794889      -1.94635153      -0.75855452
F       -1.49493708      24.27596706       9.08866904      -0.27472073      -1.60761623      -0.59446367      -1.77620280       0.69777197       1.65632558
C        0.15106002      22.69283024       8.77697693       0.72525372       0.34072703      -0.52362278       2.17451906       1.24897146       1.06116235
F        0.62367673      22.80469491      10.07885952      -0.62092882       1.49949895      -0.41546071      -0.80312246      -0.07044051       0.26541725
F       -0.73723454      21.72454343       8.77005885      -0.61859224       0.17105810       0.31663787      -0.70716441      -0.22087130      -0.14330748
O        1.21683186      22.45683936       7.98217146      -0.66064130       0.28038688       0.77544548       1.06577253      -1.60428298       0.16938534
C        2.20431326      21.47783587       8.55893064      -0.01084088      -1.22604380      -0.18037075       0.02134796       2.09882617      -0.36354160
C        3.42490313      22.34791654       8.83476450       0.92319631       0.60836470       0.75344876       0.47015527      -0.18098581      -0.10126706
F        4.45889391      21.50860575       9.20095121       0.94934328      -0.68317112      -0.27969458      -0.58311015       0.55119646      -0.11051916
F        3.19672043      23.21781727       9.85018270      -0.85762883      -0.13437005      -1.06508670       0.27618074      -0.01719040       0.08892398
C        3.89459356      23.17804538       7.61453532       0.31169072      -0.70404092      -0.05808911       0.26237938       0.40260696       1.05966163
F        5.14912897      23.72096588       7.86477644      -0.85164796       0.95621326       0.44514252      -0.93869120      -0.12972213       0.07326695
F        4.03135992      22.35101769       6.60375885      -1.09472159      -0.03925656      -1.46870664       0.45495871      -1.35660779      -1.56792462
H        0.34791109      24.89108700       8.68207276      -0.26871914       0.03207661      -0.01353868       0.27024293       0.15162399       0.07095034
H        2.52029974      20.72798015       7.85342153       0.17982671      -0.02473040      -0.07652674      -0.63351053      -0.24898165      -0.41042364
H        1.89467715      21.07238694       9.50764248       0.17191701       0.07754459      -0.00030768      -0.34392846      -0.34070653       0.00307264
H        3.19219597      23.93839828       7.27981462      -0.11896650      -0.33097549      -0.11124753       0.07852542       0.31298769       0.60238457
F       24.47042821       2.49304150      18.95497654      -0.48557941      -0.38114023      -0.58529315       0.33163267      -0.27105153      -0.56874311
C       24.25316403       3.07786003      20.13148012       1.07580348       0.20002499      -0.53949059      -0.14541212      -2.65624166       3.10027122
F       25.47125170       3.15398596      20.81463234       1.90563296      -0.12511224       0.54740427      -0.81670254       0.22992967      -0.68531322
C       23.75126163       4.44798382      19.88134499      -0.63902786      -0.33787886       0.33174806      -2.34042740      -0.19518168      -0.58733577
F       24.58394716       4.97727499      19.02347061      -0.60282796      -1.22573503       0.00756878       1.53622043       1.93758953      -1.46207106
F       22.57868796       4.27235817      19.07439472      -2.35539461       0.31664911      -0.06969522       0.85507089       0.54645336       1.49417508
O       23.58870111       5.16603761      20.99291281       0.42913211       0.28426425      -0.16228498       0.18770058      -0.13658565      -0.09509712
C       23.02642114       6.47026936      20.90644566       0.65584538       0.83371954      -0.71660116      -1.54957163       0.27456346       0.95080817
C       23.87657883       7.59314291      21.50229956      -0.33556014       0.01489131       0.29652193       0.45179963       0.11902105      -0.21444489
F       23.11181625       8.71935300      21.47912467       0.61238656       0.55733679      -0.70809028      -0.09681513      -0.27595690       0.04401299
F       24.87199557       7.79671627      20.60158334       0.56469168      -0.28628373      -1.19567583       0.82596362       0.37449661      -0.45351878
C       24.54398914       7.56628991      22.90969331      -0.71338400      -0.39200931      -0.48407802      -3.57748842      -1.44316137      -0.66193575
F       23.43419779       7.37074713      23.73750374       0.50882219      -0.23716420      -0.22991089       0.64766681       0.37394011       0.03763788
F       25.30989234       6.51289549      23.08988430      -0.20597628       0.96629861       0.98521138       1.15210891      -0.95733434      -0.14675328
H       23.57638036       2.42368769      20.77348095      -0.01950363      -0.04082072      -0.05349642       0.67435998       1.06122673      -0.89261585
H       22.06394825       6.42451201      21.43534042       0.01648865      -0.13291079      -0.07608374       0.35499018       0.07110981       0.07481834
H       22.76358314       6.79596167      19.90154054      -0.19247352       0.17223414       0.07708063       0.35756898      -0.14964907      -0.29154909
H       25.02772479       8.46930913      23.14057023      -0.06267102      -0.04901064      -0.10970394       0.50543398       1.02953470       0.24167302
F       18.16192819      12.12984229       7.05620212      -0.16717401      -0.13399212      -0.93564926      -0.83401799      -0.05079099       0.38290685
C       19.32763049      12.31033895       6.48021379      -0.05054886       0.77850182      -0.79627722       2.17336559      -1.24039769      -1.63084710
F       19.26382595      11.84731914       5.16300924       0.35908751       0.46194593      -0.22035869      -0.30286232       0.15014359       0.64353603
C       19.65719740      13.79281178       6.36266742      -0.51055485      -0.33821790       0.48560057      -1.21903908      -0.33030647       0.42985907
F       18.65851851      14.38259577       5.66329479       0.07819612      -0.00337817      -0.47135943       0.16258061       0.20096420      -0.97064012
F       19.46758837      14.31619092       7.59802831      -0.15195791       0.46964506       0.01276936       0.72334498       0.42743146       0.77307194
O       20.86905986      13.98287555       5.85663239       0.02464485      -0.18833355      -0.10284701       0.00624130      -0.57684714      -0.56054997
C       21.21056562      15.27803737       5.39453390       1.09764936      -0.18617788       0.00262199       0.57883930      -0.21124378      -0.32862827
C       22.46241376      15.64994134       6.11944498      -0.36045753      -0.55665824      -0.41333543      -0.30614769       1.90135014      -0.27020717
F       22.09704774      15.96792214       7.38648256      -0.06635837       0.47811946       0.32622930       0.50002003      -0.08619949       0.22980997
F       22.95622153      16.80356970       5.50363311      -0.10342256       0.27467623      -0.14922383      -0.40516093      -0.72777778       0.56877929
C       23.64674431      14.73938481       6.19302405      -0.17173887      -0.80819229       0.34900938       1.20075774      -3.43123245      -0.60797274
F       23.46624270      13.61531383       6.97536777       0.05147224       0.02995551       0.53608590      -0.79856414       0.98243529       0.42929712
F       23.94931240      14.12887553       4.97130046      -0.73560577       0.23492025      -0.81821770      -0.40445963       1.69565201       0.61170655
H       20.14470716      11.70448859       6.93650570       0.13349131      -0.10366950       0.23247145      -0.73886001       0.64545065       0.13045363
H       20.43774674      15.95621550       5.66425491       0.05539675      -0.22354179       0.07343724      -0.48339626       0.91540962       0.21899477
H       21.39743449      15.38654256       4.32575647       0.02930042      -0.05228707       0.10530459      -0.22015892      -0.75110519      -0.12103982
H       24.49858933      15.24243901       6.61930379      -0.04709368       0.12076112      -0.12098707       0.42756268       0.50441086      -0.24775359
F       25.14908658      22.83889992      -0.86966788      -0.77925711      -0.87935573      -0.56648288      -0.44696188       0.30465308       0.38163435
C       24.55489931      22.56769603      -2.04419512       0.46669733       0.26779416      -0.14530432       0.02908407      -1.82879972      -0.70577514
F       23.24995864      22.93026421      -2.08225776       0.23981693       0.54101744      -0.31215921      -0.16075207       0.87847972       0.50689936
C       25.31094592      23.36485230      -3.13635017      -0.05339330      -0.17890108      -0.70162229      -2.40565348       1.10679090       0.71296084
F       24.78868461      23.08140462      -4.33344484       0.67403038      -0.08328809      -1.41217234      -0.29073718       0.06504292      -0.40364891
F       25.00052891      24.67677497      -2.84530725       0.17319142      -0.29101634       0.03801509      -0.10586426       0.19025680      -0.41786340
O       26.58477256      23.18946646      -3.07700585       0.24868054      -0.77104122       1.70823391       3.48545265      -1.15469694       0.22285940
C       27.57610084      24.08333207      -3.56847191      -0.23727492      -0.65740850       0.05639079       1.10804451       1.88080370       1.14537609
C       28.73830764      24.29726476      -2.44984072       0.57478282       0.20297392      -0.24586408      -0.60698897      -3.05736446      -0.22505373
F       28.34285180      24.59505825      -1.19563761      -0.62566093       1.45302229      -0.15196321      -1.05668676       0.22743535      -0.17693886
F       29.49911280      25.29886628      -2.85779626       0.54993997      -0.26040745      -0.82715559       0.46535772       0.89919209      -0.74812287
C       29.67532902      23.03446687      -2.23926707       0.21030248       0.14879182       0.61594982       1.47507060       2.16201997      -0.20079592
F       30.42609298      22.92658038      -3.39359487      -0.14499414      -0.22785993      -0.60816872      -0.51520294      -0.31309873       0.47702298
F       30.56877687      23.33981288      -1.22815284       0.66300728       1.04508924       0.67985167      -0.38345152       0.14524281      -0.59407288
H       24.46723805      21.46954941      -2.16182962       0.01236872      -0.56450776       0.11287688       0.94835377       0.42297560      -0.31785002
H       27.20575358      25.13095143      -3.68871655       0.06348118      -0.16566329      -0.15893512      -0.15706329      -0.90035456      -0.08135206
H       28.07617518      23.76799686      -4.51693578      -0.20201800       0.04529412       0.06118503      -0.64493054      -0.20651770       0.83068144
H       29.27503239      22.10823064      -1.92244633       0.15558380       0.16163433       0.28729396      -1.03198850      -0.93763143      -0.31488368
F       17.00320159      18.22024338      25.77986658      -0.50614540       0.51907306       0.47346010      -0.04996847       0.23707266       0.01418071
C       15.79772845      17.66539199      25.54277810       0.53537705       0.08984984       0.02855841      -0.74739504       0.43705493       1.07750523
F       15.21433704      18.36796492      24.51338981      -0.16386393      -0.68708422       0.80101069       0.62114370      -1.25333488       0.41887411
C       16.04559130      16.14902078      25.31602467      -0.29084854      -0.47554465      -1.07024753      -0.42006242       0.48448983      -1.73778403
F       14.83641410      15.50251318      25.35184728      -0.17072509      -0.26579699      -0.06024955       0.44090077       0.13323554      -0.09427033
F       16.57708875      15.91207921      24.08372338      -1.12355162      -0.34184305      -1.59604367      -0.56950915       0.11806455      -0.71462566
O       16.92926754      15.71687681      26.18984574       1.44597734       0.46216579      -0.95376755       0.57595694      -1.09368348       1.74926281
C       17.18895081      14.28155737      26.23321044      -0.75071861       0.34121639       0.53527648       0.73034090       0.48473933      -1.02334535
C       16.95336505      13.82393265      27.65863906       0.20172320       0.77684502      -0.62616567      -0.06778216      -1.69014287      -1.61442482
F       17.55276683      14.59211742      28.52762245       0.02980650      -0.19684070       0.99460402       0.76587725       1.02544367       1.07648432
F       17.52962925      12.54031816      27.74328855       0.41548273      -0.33408646       0.53336643      -0.78237927       1.16021776       0.10742319
C       15.47213956      13.70281512      27.99995592      -0.09628160      -0.07009943      -0.52723060      -0.90276772      -1.73410857       0.45844361
F       14.82600493      14.89339888      27.97135238      -1.16405550      -1.27010114       1.06316873       0.33846533      -0.12110531      -0.00372322
F       14.92184635      12.86908248      27.04137611      -0.23555582      -0.94623908      -1.60574407       0.07922798       0.85921544       0.12797286
H       15.13332464      17.76861875      26.44061459       0.09736542      -0.10359431      -0.20636609       0.59697497       0.05364247      -0.69907862
H       18.23271683      14.05089616      25.88276318      -0.15020681       0.18291696       0.11431182      -0.73202586       0.58139777       0.74513096
H       16.55222349      13.74102178      25.53073519       0.11923481      -0.07115682      -0.03665354      -0.22205594       0.15539661       0.31229815
H       15.28036580      13.18535148      28.96527635       0.08956751       0.29486503      -0.19996347       0.36676395       0.63379961      -0.36095452
F       11.30892736      21.16290519      21.82915001      -1.41580432       1.13090199       0.82596703      -0.61473113       0.10190490       0.51376271
C       10.04632920      21.69651344      21.93041564      -0.03659424      -0.24204091       1.20896354       0.73155630       0.71578014      -0.50864428
F        9.97490764      22.52535364      23.01629432       0.39786330       0.71679727      -0.35067434       0.11123697      -0.79445505      -0.34701216
C        9.90511888      22.59649049      20.68987762      -0.15779435       0.09797753      -0.86078493      -0.64552695       0.70504493       0.06524578
F       10.65592055      23.71510602      20.82544648       1.11110772       0.39140110      -0.34551494       0.99624664      -0.03921052       0.17520517
F       10.38411376      21.97262865      19.57778632      -0.49429048       0.20608815      -0.02052398      -0.52305329       0.00950503       0.40651473
O        8.61746692      23.01191373      20.60146394      -0.23474834      -0.31286144      -0.31766089      -0.35535851      -0.28977028      -1.62379348
C        8.41228887      23.92319730      19.45648679       0.99818558      -0.12116980       0.42906227      -0.04057584       0.88408226       1.41400719
C        6.94085855      24.34455109      19.46447727      -0.49174938       0.34312727      -1.01596273      -0.22671047      -1.77948558      -0.62978983
F        6.68099233      24.87017953      18.23400315       0.91033676       0.78025927       0.49705292       0.09040796       0.55279016       0.22477880
F        6.66279422      25.22174888      20.43879879       0.60154538      -0.25319544       0.11447504       0.14420494       0.85416174       0.05243037
C        5.90887337      23.21171053      19.70142234       0.40066015      -0.59179990      -0.67959300       0.69513631       0.32655418      -1.69413447
F        4.68669626      23.64305205      19.32208874      -0.18356527       1.26876146      -0.65744085      -0.20124656       0.28696504       0.32882014
F        6.18680977      22.15219969      18.89375471       0.64184546       0.00792316       0.39622119       0.22276977       0.15851016       0.42879257
H        9.28597486      20.91625548      21.97056889       0.02762966      -0.09167284      -0.02389106       0.21964605       0.06949767       0.18262829
H        8.70867965      23.52644798      18.48504825       0.06848671      -0.03133425       0.19511278      -0.09313127      -0.42244849       0.18988824
H        8.98988407      24.83798528      19.69237140       0.11164305       0.09263209       0.27735259      -0.27674076      -0.34846890      -0.38730401
H        5.93621646      22.96230090      20.72755857      -0.20500337      -0.05624552      -0.12337290      -0.25990990      -0.68064576       1.11147380
F       29.51112229      17.59163857      14.88969361      -0.12747039       0.53719903       0.97120071       0.82916969      -1.32760108       0.38132092
C       28.78594490      18.66309123      14.71283076       0.39720289      -0.11101196      -0.51617061      -1.19165742       0.76438046      -1.01875329
F       29.48089798      19.73204488      15.20856431      -0.23064366      -0.02214859       0.83160118      -0.29158929       0.21361406       0.67850733
C       28.69594239      18.95850430      13.19727473       0.39507672      -0.63305447      -0.09260553       0.30057880      -1.93648338       1.07477450
F       29.98275296      18.90341985      12.74926834       1.28174287      -0.07778883       0.94054503      -0.67513680       0.36548501      -0.34099811
F       28.04811855      17.88770117      12.59909261       0.22248111      -0.47766241      -0.56806053       0.25661144       0.74458212       0.07603332
O       28.06592242      20.10916909      13.02936140       0.18107625      -0.63284619       0.42812353       0.23346232       0.80622852      -1.21046340
C       28.00938130      20.54297019      11.63577972      -0.59359440      -0.15853184      -0.45753884       0.31915981       0.43850327      -0.05460092
C       28.40582434      22.02909242      11.54282834      -0.33967955       0.26247068      -0.09069632      -0.42550591      -0.92669106      -1.76009512
F       27.38361195      22.87423772      11.89751410      -0.08855105      -0.61765320       0.34645238       0.48422572      -0.34019154      -0.09700738
F       28.69072671      22.25704813      10.16966183       0.17549818      -0.95149454       0.96626467      -0.60312635      -0.12181969       1.98746645
C       29.64147128      22.43409401      12.29524443      -0.40772831      -0.66119384      -1.03832143       2.33210254       0.66553122      -1.37816191
F       29.41611210      22.62979129      13.60363224       0.29453038       0.46093643       0.45679388       0.19710436      -0.80502582       0.07767217
F       30.65943662      21.48201107      12.01842989      -0.62395227      -0.18801564      -0.18061365      -1.80149579       1.14575219       1.16131270
H       27.80951413      18.55778352      15.20141574       0.11315989      -0.11669060      -0.23711683       0.27652204       0.24347539      -0.01158774
H       26.97333789      20.44010541      11.30250112      -0.08075984      -0.06572501       0.01546915       0.32752931      -0.11031131      -0.17842583
H       28.74592310      19.98537973      11.01251739      -0.21139293      -0.01680785      -0.21127664      -0.76957291       0.30320346       0.43136510
H       30.04201720      23.37336460      11.87727902      -0.23823891       0.18399420      -0.27163963      -0.22736213      -0.22313884       0.13009200
F       18.92822459      -5.54191531       1.43988884      -0.13372850       0.84897199       0.93665615       0.96924043      -0.52909642      -1.13705385
C       17.93879141      -5.34421263       2.27935008      -0.59990286       1.08088343      -0.93799885      -0.71608090      -0.14589207       0.29879642
F       18.01498661      -6.33385579       3.22359341      -0.04646033      -0.20406104       0.85694788      -0.07751446       0.42281440       0.23683923
C       18.11328476      -3.95492221       2.87344039      -0.12626118       0.04275767      -0.04487475      -0.11731071       0.27368510      -1.26187074
F       19.22858215      -3.99637543       3.59210746       0.74283396      -0.15663313       1.43986321       1.28725255       0.67173928       0.83894014
F       18.29157189      -3.03149797       1.86201313      -0.66715085       0.42960022       1.18149994       0.01989428      -0.74861306       0.57151353
O       17.02783728      -3.69150959       3.56522631       0.09635752      -1.68535130       0.19121530      -1.85673845       1.35013270       1.36959732
C       16.58513272      -2.35095597       3.98344842       0.71351837      -0.42860223      -0.00131287      -0.58996379      -2.84731531       1.32689834
C       16.31737057      -2.36976253       5.50414401      -0.48064623       0.45095751       0.36574816       1.30272508      -1.23071671       0.08691984
F       15.19725060      -3.09737072       5.82658306       0.15321301      -0.53256659      -0.09079388       0.15331820       0.27535364      -0.13518198
F       16.14173058      -1.09075862       5.84528870      -0.96924638       0.29994642       0.50672592      -0.83126897       0.83350885       0.38263598
C       17.50821375      -2.83498530       6.42121766      -0.77536248       0.55880127      -0.33453847      -1.53062260      -0.69217098      -0.85159743
F       17.73752882      -4.20096915       6.31018193      -0.05947266       0.68581594      -0.17584429       0.04308603       1.50560880      -0.33537635
F       18.50674777      -2.08536756       5.93484362       0.09037108       0.63033269      -0.32933413       1.14662862      -0.36381003       0.12597002
H       16.97419746      -5.40608739       1.81032490      -0.02262976       0.08439622      -0.09980680      -0.47718996      -0.17061076      -0.46066916
H       15.63378617      -2.18076760       3.54954412      -0.05029353      -0.05345044       0.38055137      -0.98640752      -0.03916272      -0.68531489
H       17.18746951      -1.54369487       3.74312129       0.13040968       0.12298462      -0.14398675       1.75171649       1.14947772      -0.50691545
H       17.33357015      -2.61952942       7.47392251       0.35562011      -0.03014052      -0.07786724       0.00534620       0.07430547       0.00718896
F       -1.26105727       8.07956645       6.67525484      -0.02379429      -0.41909953      -0.00436786       0.34123600       1.38387573      -0.19732875
C       -0.84502919       8.96049948       5.66456230       0.03277218       0.33304957       0.13318549       0.76622957      -2.25823617       0.81525820
F       -1.44353050       8.40255157       4.56919462       0.05910886      -1.11494841       0.48740902       0.65821576       0.99277413       0.04384459
C       -1.28816168      10.39144293       5.89512468      -0.37419577      -0.05060673      -0.10591176      -0.83382255      -0.15301821       0.09689966
F       -2.62396177      10.41693126       5.91973624      -0.74525671      -0.91144245      -1.67886366      -1.20092022      -0.11492327      -0.26747698
F       -0.93654267      10.85396340       7.11244437      -1.40990418       0.00998263      -0.94224165       0.70724595      -0.16467273       0.37499556
O       -0.78998531      11.12316471       4.90557434      -0.20226692       0.64184463      -0.20467526       0.06797165       1.14971209      -0.75924003
C       -1.30857862      12.50084080       4.83912064      -2.05675652       0.90514881       0.06769194      -1.49508607      -1.57024205      -0.26928142
C       -0.67536698      13.12541968       3.62313032       0.33267958      -0.34406984      -0.01499396      -0.03667263      -0.83256418       0.80316204
F        0.65506088      13.11120237       3.82107225      -1.41422745       0.12896404      -0.62959575       0.80845314      -0.16862893      -0.18106420
F       -0.99963366      14.42070466       3.55456083      -0.77337479      -0.31088233      -1.15502625      -0.77077699       0.51910275      -0.39581347
C       -0.97213361      12.33991588       2.35832015       0.01768239      -0.32419044      -0.78738845      -0.24392454      -0.92919904       0.14134577
F       -2.27796423      11.90242572       2.35495460       0.08447484       1.22267609      -0.05907677       0.09258001       1.00962603      -0.12447908
F       -0.67867196      13.10768389       1.31193133       0.30526481      -0.41510800      -0.18152859      -0.45573971       0.51566291      -0.95974857
H        0.26803576       8.93081418       5.65222719       0.09360495       0.00288049       0.13762658      -0.70640218      -0.26597938      -0.45087364
H       -0.97194735      13.02294444       5.67410172      -0.05525712      -0.06105489       0.21244578       0.60547483       0.96863252       1.51145256
H       -2.43450314      12.47202586       4.87290163      -0.15750958       0.10152966      -0.15556248       1.19519508       0.17558789      -0.50471276
H       -0.41168826      11.43055676       2.26700993       0.17827593       0.12834478       0.10508260       0.73058140      -0.34490007       0.30414170
F       23.25730402       7.64094356       9.34322968      -1.75772328      -0.29412648       0.39145639      -0.29984331       0.97165251      -0.63620019
C       24.31065813       6.80916180       9.32059042      -0.33026631       0.00239433       0.79166578       0.92283362      -1.17149007      -1.10190976
F       25.46614466       7.56184128       9.37670949       0.82016281      -0.62718647      -0.27478970      -0.85545516      -0.26504397      -0.05089939
C       24.12022019       6.02269736      10.58646554      -0.32000979       1.21772031      -0.18481177      -0.36593068      -1.05742073       0.03020875
F       23.95923551       6.81986701      11.64477949      -0.78508073      -1.23422757      -0.48640804      -0.06727391       0.81749052       0.73911190
F       22.86551893       5.45323301      10.40156236       0.83903400       0.01853997       0.95682174       0.93230987      -0.48999074       0.37297264
O       25.15057543       5.18819812      10.77915120       0.51997732      -0.28912491      -0.17244731      -0.30412474      -0.16048154      -0.01826889
C       25.13904629       4.34924197      11.93864137       0.48355831       0.09083242       0.25817466       0.50041509       0.34031400       0.69684708
C       25.09458853       2.92645752      11.43758909       0.46979589      -0.44507614       0.73045503      -0.65382981       0.23324089       0.70857626
F       26.28766917       2.58269908      10.86724258       0.11115022       1.00818543      -0.62341838      -0.31773913      -0.07733943      -0.10077671
F       24.11120439       2.80890597      10.51636857       0.40512936      -0.16133781      -0.02872056       0.21179214      -0.15722547       0.30143467
C       24.81919867       1.90860317      12.56573040      -1.81456722      -0.60751168      -0.63852140       0.72762918       0.11351150      -0.57720441
F       25.79129122       2.17626858      13.49517386       0.51955997      -0.13611607       1.31452971      -0.30272827      -0.46850944       0.13509251
F       23.60458329       2.05056692      13.17178233       0.36214919      -0.11153138      -0.80403872       0.84868670      -0.05127559      -0.67539245
H       24.31411265       6.10107698       8.41513001       0.05720994       0.01210158      -0.11399634       0.04267449       1.35988295       1.12600362
H       24.28502832       4.49036061      12.61569565      -0.05684584       0.27193752      -0.22198554      -0.02582025       0.25665265      -0.52501571
H       26.04508323       4.57309682      12.56013731       0.11455050       0.08493798       0.13227228      -0.73340166      -0.40304524      -0.91217023
H       24.98106346       0.92299464      12.09484560      -0.11273423      -0.14482366       0.14691385      -0.43820575      -0.04032096       0.73476511
F       19.08007449      18.99344633      29.87008855      -1.09852839       0.70127966       0.00961479       0.74108577       1.24425566       0.55023766
C       18.18013142      18.09479543      29.61335197       0.75307970       0.06737644      -0.36182234      -1.99923158      -0.81466222      -0.55201322
F       18.25257762      17.10827884      30.52717877       0.37299712       0.22696511       0.70400554      -0.07982173      -0.29922998       0.54540414
C       16.72915007      18.64916148      29.54046531      -0.65247258      -0.03994464       0.13964724       1.00685918       0.36783269      -0.57574153
F       16.75311313      19.73240310      28.68451627       0.48756491      -0.51252123      -0.68886772       0.11470146       0.10319165       1.20303822
F       15.98011462      17.78121803      28.82979017       0.31871504      -0.02266551      -0.64429406      -0.47230285      -1.02695632      -0.03864517
O       16.20305918      18.84313682      30.75624791      -0.02403154       0.65227635       0.68874572       0.39692444       0.24455382       0.49538499
C       14.89376170      19.35452314      30.75338003       1.07110744      -0.01997290       0.14798589      -0.80236518       0.22028670       0.18592785
C       14.67674764      20.26224475      31.95675650       0.69541161      -0.38205804      -0.64740605       3.07146049      -0.64853978       0.23776475
F       14.97923542      19.46739900      33.05924943       0.04396388       0.24360922       0.84532567       0.11524298       1.19249403      -0.71508127
F       13.45157260      20.68285808      32.06869621      -0.81368635       1.26586054       0.68153548      -2.76582813       0.00602304       0.05804237
C       15.44181590      21.60326300      31.94369284      -0.16184295       0.41605441      -0.05164405       2.55984879       1.16790009       0.90680420
F       15.38997829      22.23280712      33.16340595      -0.96441471      -0.08565664      -1.16239393      -0.71630037      -0.64277917       0.84592676
F       16.79344303      21.52071870      31.72048137      -0.83754801      -0.67333071       0.03629911      -0.78630412      -0.78551906      -0.37376678
H       18.28256165      17.66134890      28.64673689      -0.06298943       0.17969487      -0.28157728       0.72376174      -0.39588031      -0.94612676
H       14.13188792      18.56905091      30.83755694      -0.08861941      -0.39745252      -0.31183445       0.22398835       0.02814655      -0.12365655
H       14.78404347      19.89772699      29.84124314       0.15814835      -0.15339829       0.20410209      -0.66400629       0.57645434      -0.61618716
H       15.06883900      22.39374846      31.31450239       0.05569700       0.31590062      -0.12288266      -0.66266543      -0.47617191      -1.14488506
F       11.40388476      19.15505760      30.76085526      -0.21204723      -0.64504149      -0.42525357       0.17631271       0.17548937      -0.55136740
C       10.72221414      18.81290554      29.63477458      -0.99953377      -0.08212518      -0.10917160      -0.94138700      -1.16338158      -0.08734484
F       10.54178471      19.88036830      28.81660581       0.07597062      -0.63710089      -0.53599321       0.30373660       0.18758558       0.74677873
C       11.47370770      17.74494366      28.82637106       0.69068376      -1.30776016      -0.94479992       1.50369322      -0.30508533      -0.83711928
F       12.80983219      18.08612478      28.62159861       1.00136216      -0.34165332       0.59506451      -0.61442930       0.46827295       0.15879427
F       11.59125606      16.62622779      29.58005014      -0.34886412      -0.56017020       0.95247527      -0.61421144      -0.12499604      -0.12408166
O       10.84193486      17.57771408      27.64224316      -0.68328033      -0.87853086       0.14794966       0.61999100      -0.19904558      -0.01554383
C       11.50659795      16.93797362      26.50725761       0.38769930      -0.42872039       0.36644173       0.02624029      -1.20341814       0.97355860
C       11.88919091      17.92801338      25.40085409       0.23983248       0.37564874       0.47307936       1.07179868      -0.03762083       2.16146994
F       12.59410098      17.30331742      24.46601477      -0.16587864      -1.32167768      -0.09494592      -0.07259649      -0.68060714      -0.85555154
F       12.79617242      18.81418733      25.95627585       0.46219169       0.26160343      -0.07762716      -0.77662730       0.39119291      -0.18797977
C       10.68407389      18.61784355      24.80650877       0.10992715       0.38611360       0.08353223       0.26979440       1.11708450       0.83921891
F       10.01883861      19.24127942      25.82708556      -0.76367893      -0.71180432       0.17841700      -0.01688313      -0.17558159      -0.47724023
F       11.10173667      19.59168010      23.96923295      -0.78458752       0.39412866       1.37601874      -0.10659266      -0.17104569      -0.34056517
H        9.74589382      18.39793055      29.94778828       0.06656232      -0.06413252      -0.21948160       0.49537605       0.42358711      -0.24829476
H       10.76979940      16.24807971      26.11449486       0.11029247       0.06712544      -0.10990958      -0.35726520       0.06321619      -0.09414911
H       12.34512180      16.25557442      26.82143466      -0.04198124      -0.00254546      -0.24594471      -0.39667207       1.13082993      -0.25354168
H       10.03698050      17.90309720      24.33166102      -0.27809112      -0.04401844       0.23710144      -0.47284523      -0.16303517      -0.44906840
F        7.83231332       6.10939219      22.52990148       1.39937159      -1.24117856      -1.11801298       0.12176745       0.18119906      -0.30579254
C        9.18311059       6.01980856      22.43065867       0.80959827      -0.34007466       0.36712675      -0.08639405      -0.54750562       0.31424794
F        9.71643632       6.45690354      23.57969213       1.18807960      -0.20321633       0.49563763       0.13781497       0.65849990       0.55653507
C        9.55456385       4.53710294      22.32361507       0.32064052      -0.16880108      -0.95895415       0.29865903      -1.41819298       0.22948213
F        8.61586381       3.77392725      21.72653819       1.03338297       0.98053225       0.69381883      -0.41813889       0.26187715      -0.33075532
F       10.66777127       4.37248272      21.57302012      -0.50405173       0.47036347       0.66653378       0.34017950       0.38516983      -0.76328403
O        9.80704732       4.06984365      23.54823452       0.08054534       0.07231050       0.05994141      -1.51302028       0.71136254       0.80226177
C       10.16253612       2.72444763      23.77597673      -0.52060224      -0.75321773      -0.02538723       1.29691398       1.21957982       0.12315363
C       11.40782469       2.96183650      24.59402848      -0.36155761      -0.74834896      -0.12436072       1.79377425      -0.73126346      -0.44308427
F       12.43109752       3.46535934      23.73244901      -0.37623054      -0.68066112      -0.86347994      -1.35449529      -0.37487563       1.04002750
F       11.86144290       1.73782571      24.97748759       1.23917379      -0.16333321       0.98918475      -0.20580058       0.70074189       0.66975623
C       11.30304584       4.03958157      25.74029788       0.78072676       0.17753701      -0.35889193       0.08961513      -0.46228743       0.19623280
F       10.13840280       3.91405599      26.42302859      -0.23625593       0.26557848      -0.17289672      -0.91443747       0.24073580      -0.91782969
F       12.18231368       3.79008446      26.74359273      -1.43214374       0.30892569      -0.68195304       1.04445481       0.22971684      -0.91456735
H        9.58894431       6.63007965      21.64416707      -0.06532607      -0.12161493       0.02683164      -0.27924645      -0.00816036      -0.56330711
H       10.46130367       2.23629564      22.88893076      -0.18092320       0.07605716       0.10353187       0.45986891      -0.53762865      -1.14144766
H        9.43147331       2.10168131      24.24151665      -0.03629148      -0.12790972      -0.09049220      -0.78647125       0.11504790       0.71376169
H       11.42872043       5.04978633      25.25589277       0.20579429       0.25488561      -0.16624600      -0.13496479      -0.88475966       0.89083385
F        9.30052107      10.70367221       4.53795228      -1.13202303       0.41700488       0.56145938       0.86724627       0.45554814      -0.16272603
C        8.03510617      10.49016998       4.83032914       0.24550399      -0.14783147       0.53994723      -3.27948070       0.00347890       1.53929365
F        7.80587307       9.13848529       4.69784562      -0.60250362       0.03841676      -0.39863137      -0.17725161       0.50031745      -0.76250231
C        7.72508603      10.71088622       6.40125580      -0.56901431      -0.02074244       0.48671662       1.91715920      -0.64412254      -1.45856738
F        8.65325924       9.89503298       7.03516909       0.10013466      -0.39459799      -0.33697908      -0.98560452       0.56277710      -0.05056238
F        8.07031234      11.97623565       6.63900740       1.68316643      -0.02355169      -0.00163706      -0.00689709       0.58280760       0.47892994
O        6.45992797      10.53929818       6.81444983      -1.87003132      -0.25602711       0.36357471       0.35653198       0.99796152       0.18428397
C        5.91526479       9.32810748       7.21069315      -0.25676103      -0.88783155       0.29062540      -0.36039859      -2.18902087      -0.73647845
C        4.60922691       9.15473757       6.43737603      -0.13628943       0.72026471      -0.10507298      -0.23049919      -0.21455412       3.69656062
F        4.79222459       9.25088418       5.15269824      -0.98292207       0.66212797      -0.02675212      -0.36095408       0.39027488      -1.73450780
F        3.61672619      10.03339756       6.89175423      -0.18903618      -1.94038321      -1.46373208       1.05380309       0.06123565      -0.77435482
C        4.10355362       7.77827250       6.81657303       0.06270949       0.28897653      -0.94796011      -1.32125509      -2.10166264      -1.19314611
F        4.29090646       7.42819044       8.14900210       0.24694240      -0.47881412      -0.86503148       0.58561546       0.37341619      -1.47391677
F        2.74432317       7.67106451       6.66068586      -0.60464157      -0.63303309       0.98621389       0.15880762       0.42291790      -0.17214023
H        7.30007425      11.13567778       4.21380418      -0.07858227       0.05567748      -0.01355395       1.29093957      -1.25738907       0.59470969
H        5.64757410       9.13241324       8.24613352      -0.12324302       0.02031855       0.08017240       0.35933030       1.33443570       0.33420444
H        6.56354612       8.43297637       7.01940503       0.02309249      -0.18398178      -0.31983173      -0.26852849       0.79134113      -0.41250747
H        4.51407885       7.07699730       6.02970609       0.10259607       0.15666117      -0.46740029       0.13765737       0.05149812       1.65581131
F        0.79399145       6.28869846       3.78019338       0.12683580       0.38732552       0.46304398      -0.62542307      -0.66400063      -0.48069799
C       -0.28245510       5.55238656       3.33561851      -0.18776456       0.49868694      -0.82932310      -0.18912046      -0.37157020       2.33907866
F       -0.68876343       5.96576988       2.17497594       0.61450987       0.63558217      -0.05643121      -0.24170379       1.25747752      -1.95155561
C       -0.00018010       4.07103038       3.23220090       0.27061724      -0.59072586       0.09522893       1.74389064      -1.26403010       0.27833730
F        1.10228137       3.79494593       2.46475775      -0.02328041      -0.54238394      -0.52945461      -0.07256711       0.42579216      -0.08232640
F        0.34121385       3.59895177       4.46732445      -0.31143253       0.57307756      -0.90047282       0.08629630       0.24744022       0.27298325
O       -1.08283817       3.47573990       2.77136451       0.53553637      -0.96693928      -0.73475452      -1.42553103      -1.41038871      -0.99560851
C       -1.02255528       2.10226191       2.19372417      -0.64315643       0.86056829      -0.13659672       0.21877402       1.20757794       0.70278573
C       -1.59522935       1.03708065       3.15749530       0.01571288      -0.33663507      -0.50979098       0.21745244       1.49733543      -0.15154156
F       -0.93913570       1.16204518       4.35495732       0.01004307       0.06237038      -0.36383590      -0.24322309      -0.17647360      -0.25085574
F       -1.19727907      -0.10885214       2.58688465      -0.39290553       0.18676152       0.50422138      -0.38208392      -0.81089216      -0.03949271
C       -3.11293766       0.95775913       3.57122776      -0.70409331      -1.29891249      -0.19407604       1.27222574      -1.75483632      -0.44806021
F       -3.45052356       2.06316845       4.22375266       0.74683342      -0.83445754       0.11832290      -0.32139197       0.58694535       0.34373268
F       -3.96180769       0.78890462       2.51676358       0.41510288       0.53834674       0.94925148       0.55391943       0.25266412       0.22322059
H       -1.11217303       5.61859223       4.05803493      -0.08262266       0.04901052       0.04217534       0.35279763       0.40938449       0.05998889
H        0.04193361       1.85228172       2.02785067       0.05786172       0.49306901      -0.03005304      -0.65901101      -0.04346332       0.05257776
H       -1.54603849       2.14849052       1.23027072       0.06885102      -0.11420121       0.00855948       0.04356651      -0.12219262       0.51330841
H       -3.15007040       0.04311306       4.21509172       0.22509663       0.27122162      -0.05881980      -0.37148917       0.64938748      -0.24350895
F       21.05050342      -0.58346892      10.17917696      -1.39624881       0.22776263       0.25520446       0.11562055       0.32677016       0.21559896
C       21.66493430       0.21990615       9.28751635       0.25439938       0.28217708      -0.06183672       1.62318683      -0.88431060       0.12734170
F       21.68427058      -0.49622712       8.12250415      -0.59312188      -0.03610727       1.28004699      -0.26726833       0.87281668      -0.10037037
C       21.00456502       1.59033007       9.24474270       0.69005070      -0.09871620      -0.09836510       0.01475441      -0.07714277      -0.70502448
F       21.04265558       2.00598144      10.52401424       1.55657914      -0.11531616      -0.18730947      -0.05410075       0.54547369       0.60588413
F       21.82395199       2.39917684       8.54133711       0.00103518       0.76833575       0.21777681       0.10776688       0.33571482      -0.14974847
O       19.76520738       1.59342367       8.75382080      -0.29221839      -0.17228564       0.62511548      -0.83326209      -0.06074760       0.11423555
C       19.22701832       2.72691246       8.08532918      -0.15153744       0.44649168      -0.16441064      -0.10459071      -0.44786707      -1.87908304
C       19.13551673       2.31867584       6.51903166      -0.25165904      -0.02588427      -0.23904885       0.61207157       2.32316136       2.50462127
F       17.86946224       1.88215438       6.27676796       0.31439266       0.13525667      -0.52386003       0.67374265      -0.09083786      -0.51356262
F       20.06440925       1.40520102       6.26940015       0.96395458      -0.53501718       0.82082006       0.10835021      -1.60977042      -0.36582112
C       19.57559338       3.46121012       5.59210190       0.48441202       0.35869649      -0.08909275      -0.92042911       0.23961221      -0.40166175
F       18.79023268       4.53856242       5.70115552       1.04004222       0.23591200      -1.15659510      -1.35062027       0.51463699       0.14426084
F       20.78593202       3.92305664       5.92312989       0.59585119       0.26755127       0.28555150       0.92710906      -0.62220007       0.22480513
H       22.74233672       0.43691220       9.55625650      -0.25536371       0.14459753      -0.00159768      -1.09410083      -0.51953435       0.05428652
H       19.73443940       3.68064242       8.22414055      -0.02801535       0.02495101       0.15830438       0.47035307      -0.44484907       0.03073845
H       18.21070582       2.88813827       8.39176192       0.15902596       0.18020987      -0.13985081      -0.46469319      -0.22948286       0.43864590
H       19.54447108       3.12295842       4.56454134      -0.12974056       0.07262054       0.17476489       0.25262699      -0.17458062      -0.44144064
F       15.13539926      16.17998463       6.14096671       1.45067527       0.27555838       0.53514057      -1.15724730       0.65133244      -0.55434620
C       16.08422657      15.44733646       6.70626619       0.77364276       0.82708190       0.30276028       0.26299691      -1.10149097      -0.44254330
F       16.83612381      16.26440405       7.43079697       0.20196004       0.47046345       0.35175789       0.83377844       0.81368709       0.45175177
C       15.47230594      14.37873142       7.64717462       0.41201418      -0.32177379      -0.65137552      -0.99580508       0.31096017      -3.14987445
F       14.25706424      14.70554040       8.09135658       0.11156119       0.28792349       0.24518468      -0.48409659       0.28478304       0.17510225
F       15.27483852      13.23735334       6.87360102       0.02066756      -1.06056275       1.04780870       0.05378908       0.34907028       0.33785897
O       16.33556737      14.20434733       8.57977684      -0.38635316       0.14540378       0.39514330       1.55579770      -1.47492230       3.06981277
C       15.96869333      13.18448854       9.52163680      -0.01150329       0.36617226      -0.27119448      -1.94499767      -1.20795798      -0.46317965
C       16.81523046      13.22383776      10.71243437       0.34550271      -0.44250739      -0.19014992       2.81031799      -0.56218624       0.18413036
F       16.44989954      12.26275372      11.57137696      -0.88864942      -0.50146104       0.46937884      -0.22988491      -0.24403372       0.10300346
F       16.67907306      14.40146238      11.29282442       0.01108152      -0.45522030       0.64356422      -0.44590390       1.97919822       1.27988648
C       18.32336916      13.11715240      10.38038947      -0.29740128      -0.33393359       0.73472053       0.64043611      -0.70051044      -0.87087953
F       19.22949086      13.37896680      11.36132316      -0.32748439       1.13615549      -0.49061448      -1.01120472      -0.42725301       0.14219217
F       18.52507951      11.83407819       9.92994053      -1.20783638       0.44482398      -1.13570326       0.09088961       0.09061390       0.32199082
H       16.69341432      14.97970594       5.91895995      -0.05001440       0.18607941      -0.29940993      -0.32204953       0.07663572       0.33881590
H       16.05149408      12.18417489       9.05898966       0.02427868      -0.31390512       0.20096303      -0.19909371       0.44720766       0.11735122
H       14.94578764      13.32388051       9.98398919      -0.02577660       0.03449862       0.18782559       0.71305811      -0.06203412      -1.01863420
H       18.59492483      13.75229534       9.55092183      -0.13340245       0.15519343       0.22523949      -0.26906401       0.45953393      -0.16767772
F       13.38236860      -0.91075023      28.89269994       0.14792477       0.53247021       1.20268904       0.07801262      -0.67609531      -1.04950023
C       12.94274240      -1.32693425      27.62177861       0.42594573       0.31579399       0.06216254      -1.46498764       0.24743676       1.66708159
F       12.06248307      -0.34844619      27.24955603      -0.78542601      -0.25353681      -0.54460106       0.18059643      -0.92924732       0.06467357
C       14.08295099      -1.29336212      26.62335254      -0.71584603       0.10960640       0.41805367       2.13083982      -0.44203520       1.11866498
F       14.82561864      -0.18970117      26.96400206      -0.41621491       0.29882974      -0.19765356       0.19412772      -0.33972159      -0.38515377
F       14.91471070      -2.38935766      26.85035453       0.80402210       0.14412476       0.62440787      -0.45217332       0.63114977       0.23992255
O       13.68742659      -1.27730755      25.38342919       0.02743817       0.48376774       0.72275581      -1.86303377      -0.07553223      -0.79472136
C       14.54837902      -1.49450882      24.28950962      -0.97015112       0.16330051       0.16646827       1.54351389      -0.77139580       0.04801370
C       14.49447072      -0.25294063      23.40258222      -0.09382139       0.90844881      -1.63919428       0.43551484       0.28313848       0.12880729
F       13.18851743       0.15720508      23.25467621      -0.59583101      -0.42388353      -1.25745879       1.40192568      -0.36378172      -0.34343782
F       15.02147193      -0.65747720      22.19412550      -1.50410159      -0.95171598       0.12506593      -0.69396961       0.47128734       0.40886033
C       15.42594753       0.91798020      23.94107286      -0.11733622       0.42845337      -0.20376171      -1.96240640       0.39433026       0.37085205
F       15.79061425       1.75664965      22.96977808       0.89671914      -2.26717217      -0.15094917       0.40657198      -0.43607429      -0.63750690
F       14.69332175       1.71903983      24.79782063       0.51113779       0.04254284      -0.18132054       0.42609620      -0.97568089      -0.06842002
H       12.45235404      -2.33049150      27.81285283       0.10715426       0.15653036      -0.00658973       0.51814604       1.25224030      -0.82392383
H       14.30955136      -2.40722035      23.69712941      -0.04164084       0.20000750      -0.12452494      -0.55978060       0.75652933       0.48457858
H       15.58200142      -1.73586213      24.66047830       0.16919233      -0.18117232       0.00460082      -0.71405065       0.65388680      -0.49569589
H       16.25601799       0.46621567      24.47868312       0.20458241       0.10367228       0.05335100       0.37248245       0.33277979      -0.11249662
F       24.15656777      20.97124389      21.98706558      -0.65250274       0.15056489       0.23221191      -1.01553214      -0.09643326       0.97909868
C       25.25826655      20.61154077      21.36825866      -0.45052446      -0.63126681      -0.19581345       1.96673417       0.45953459      -0.39129895
F       25.67068481      21.68807192      20.65705826      -0.94414622      -0.28862482      -0.41739962      -0.34407690       0.33243752      -1.01407182
C       26.44211842      20.35558061      22.30198127      -0.13267363       0.03552183       0.38828365      -0.19402781       0.63233167      -0.57263291
F       26.57085579      21.37267439      23.16979860       0.18319553       1.06762203       0.51926603      -0.09889368       0.22295395       0.48782921
F       26.14555179      19.26049550      22.99703563      -1.78610461      -0.24873804       1.03533595       0.36805293      -0.69516772       0.53752285
O       27.57485924      20.26815754      21.52133682      -0.98673042      -0.09071705       1.15905260      -0.26737687      -0.10413631       0.98883504
C       28.81266295      20.33657617      22.24737551       0.40537220       0.33126551      -0.71210883       0.00886849      -1.86910760      -1.03754485
C       29.32780245      18.89427285      22.38374320       0.61611639       0.35474663       0.54997129       0.90068805      -0.27630460       1.01361406
F       29.19950280      18.23606218      21.21390863      -0.32410122       0.85080695      -0.67718299      -0.17487818      -0.05708299       0.10258933
F       28.65522691      18.22258787      23.37426563      -0.32414880       0.12052117      -0.20547768      -0.15804742       0.05899680      -0.57078797
C       30.81449546      18.78665471      22.82929329       0.27807889      -0.29737568      -0.19730712       0.37783602      -0.63950342      -0.92871010
F       31.35192234      17.52781784      22.63111471      -0.14633069       0.47724548      -0.97549937      -0.88571227       0.36888269      -0.10830753
F       31.55911429      19.61406940      22.06705802      -0.58501181      -0.29867690      -0.01976418      -0.13857311       0.34899229      -0.02490869
H       25.12711407      19.72824216      20.77109962      -0.01404046       0.16610152       0.08803876      -0.43914390      -0.28580683      -0.68658674
H       28.73627786      20.78857811      23.20812929       0.00938508       0.02881068       0.31725344      -0.15792316       0.46754232       0.69231141
H       29.52727051      20.83369624      21.61978211      -0.04848231      -0.04009542      -0.14557074       0.17200685       0.57694864      -0.28843671
H       30.94670241      18.97076779      23.87456731      -0.16132939       0.01563965      -0.10422171      -0.04250289       0.57258821       0.71781653
F       30.49937303       3.54889102      11.57369344      -0.59427449      -0.27081721      -0.50484647       0.72590923      -0.20517044      -0.27908042
C       29.28553883       4.00736072      11.87654817      -0.55591612      -0.42984113       0.26466272       0.57126474       0.19342269       0.19842032
F       28.97320350       3.57015541      13.09146565       0.09008814      -0.23430802       0.38628730      -0.36971593      -0.41135281       1.39579535
C       29.27761354       5.52957983      11.91987927       0.39276474      -0.55567775       0.19785840       0.18453962       1.75326216      -1.21867168
F       27.97263044       5.88388407      11.95886912       0.07600827       1.07582872       0.41757550      -0.76537287       0.18829034      -0.02979158
F       29.80024702       6.11844643      13.01946862      -0.09352840      -0.35843988      -0.07967285       0.33741388      -0.70475221       0.07170304
O       29.87190884       6.02068358      10.78387909       1.32310991       0.05405839       0.15298562       0.15609099      -1.44997108       0.17939106
C       29.88635504       7.40122244      10.53029670       0.99867245      -1.12247532       0.00751366      -1.49683750       0.79661912       1.57179081
C       31.25934431       7.91834909      10.43049553       1.05965845       0.38087751      -0.78295964       0.88656849      -0.48881790       0.05224862
F       31.78887122       7.40672643       9.30866440       0.12564687      -0.09920712      -0.67432956       1.07998312      -0.44707742      -0.86303687
F       31.97887538       7.45549175      11.49456762      -0.23095750      -0.55734691      -1.47692881       0.20509186      -0.13049281       0.03579329
C       31.45799100       9.42127760      10.38531078       0.07507833      -0.83617176      -0.89468729      -3.72004819       0.02685121      -1.68361056
F       30.78251841       9.89821226      11.49309208      -0.65269257      -0.05193922       0.48945716       0.52190691       0.35792840      -0.38423413
F       32.71239269       9.69595682      10.43132064      -0.12535509       0.73918037      -1.33794592       2.53827715       0.67214692       0.60626841
H       28.55271860       3.61027671      11.20660617      -0.16749143      -0.11033104       0.02369753      -0.42005938       0.04204370      -0.86720610
H       29.47370300       7.94653092      11.36306525      -0.25176115      -0.01308947      -0.18053734      -0.61267149       0.15481332       0.36274040
H       29.28982951       7.63005227       9.66696600       0.17730021      -0.09862117       0.18900718      -0.13289717       0.17760272      -0.49314129
H       31.01792776       9.84172078       9.41506301      -0.14813896       0.19817780       0.11542141       0.27772745      -0.31083694       1.49268198
F        1.57002743      25.53126657      14.64622449       0.73450392      -0.62086555       0.53691454       0.16005045       0.78588712      -0.21623385
C        0.64125509      24.58705620      14.78966115       0.70744844      -0.22835035       0.41660957      -0.43733016      -1.03660369      -0.20579289
F       -0.34342556      24.71324512      13.88040894      -0.18362145       0.51226911       0.69512798      -0.47991613       0.73692322      -0.40105918
C        1.30757808      23.26180244      14.43685251       0.11128270      -1.00234206       1.54838996       0.55986172       0.40004373      -0.93202561
F        0.42135882      22.21227102      14.41507785      -0.49439924       0.72372657       1.46255028       0.06076573       0.67784011      -0.36421493
F        1.79660644      23.39944569      13.14973623      -1.22161012       0.15890104       1.38012321      -0.62151873      -0.51213396       0.33876649
O        2.30096618      23.06894297      15.26851992      -0.21266755       0.40685636       0.62991866       0.25102112      -0.13547222       0.24042389
C        3.13963445      21.91385072      15.09373245      -0.10341644      -1.79722969       0.27016296      -0.25178993       1.00814939       0.78451627
C        2.91264575      21.22297245      16.41509409       0.08416669       0.31922748       0.32336690      -0.29787856      -0.36274543      -0.27154022
F        1.62621572      20.76271520      16.30325243      -0.52255409      -1.33328487       0.72485155       0.10100468      -0.39224002       0.69387251
F        2.94448920      22.07639986      17.47483557       0.41460010      -0.16262404       0.12931657       0.14485626      -0.64487511      -0.73413140
C        3.87230030      20.06358141      16.68191059       0.47586646      -0.31995444      -0.17029391       0.92347050       1.02177811       1.01667500
F        5.07522427      20.71116087      16.97700849       0.00238179      -0.37691962       0.75623040      -0.85237527      -1.00280726      -0.62370867
F        3.48389471      19.42900318      17.81662813      -0.10715156      -0.17667167       0.25775866      -0.02986542      -0.07111116      -0.22564292
H        0.22187022      24.65002926      15.77557158       0.00532722      -0.07756683       0.03339672      -0.18789572      -0.23627038       0.64334655
H        4.09867596      22.35913435      15.03808106       0.01745993       0.12664595      -0.15383326       1.29688895      -0.09539924      -0.12836999
H        2.92861842      21.29636782      14.21593400      -0.24000686       0.10320751      -0.06326692      -0.18085699       0.10910983       0.23933974
H        3.99648119      19.32713839      15.88643448       0.12796894       0.06668510      -0.18076596       0.05566987       0.24017012      -0.02383175
F       14.52495106      17.14658158       1.94953099       0.23682652      -0.39387802       0.79170268      -1.14757478       0.11113444       1.47944164
C       13.52431532      17.35079607       2.89925279       0.88210534      -0.49323793       0.03983185      -0.46660849       0.05116394      -1.17876828
F       14.05025155      17.44799313       4.12064761       0.42352311      -0.14174805       0.68459972       0.80012196       0.07984163       0.53441954
C       12.71924596      18.64904268       2.61923233      -0.53107020       0.92695536       0.87487641      -0.05095511      -2.03795910      -1.55092132
F       12.22706347      18.49212395       1.31171350      -0.77302804       1.03392036      -1.09764919       0.87534076       0.70074749       0.15348169
F       11.60976194      18.44521656       3.31495255      -0.05003728       0.57133375       0.52536313      -1.39573407       0.31460744       1.44453573
O       13.29904973      19.80979426       2.86911541       1.36955864      -1.28639714       0.59701362      -0.43874064       0.83405846      -0.04656438
C       12.36507210      20.95742855       2.74899052       0.28546496       0.14563256      -0.37809806       1.30008149      -1.58622563      -0.30015749
C       12.23823382      21.53011281       4.12862795      -0.82884661      -0.18160015       0.48532103      -1.22116792      -0.03220475       0.07059015
F       13.44357452      21.81895385       4.60429568      -0.42430483       0.81446169      -0.13204506       1.24629247       0.38150361       0.44716817
F       11.71588085      20.57760455       4.95817941       0.03240907       1.55500409      -0.54289652      -0.15695751       0.86917877      -0.25840876
C       11.40792948      22.86409735       4.11203809      -0.46045244      -0.67874764      -0.68803447      -0.48520714      -0.05135066       0.15206079
F       10.54224578      22.71953377       2.99601013      -0.16314771      -0.56444521      -0.31643197       1.02131641       0.86862135       1.25148976
F       10.60507082      22.92388040       5.20906413      -1.08537028       0.11303792      -0.33292403       0.64290595       0.16515285      -0.79452872
H       12.74639927      16.54180532       2.94620762      -0.03282003       0.13600921       0.17468702       1.11730683       0.28925583      -0.61961424
H       11.45983882      20.59096758       2.29048371      -0.20977371      -0.19925609      -0.16011274      -0.39258879       0.29957607       0.15678740
H       12.87830373      21.62703561       2.08397831      -0.06233440      -0.30661896      -0.25260855       0.02544692       0.54688752      -0.25714365
H       12.08482799      23.82029520       4.07157806       0.23145717      -0.03498856       0.01846547      -1.40955031      -1.74419796      -0.26718241
F       25.59775701       2.59674805      26.19832005       0.76257667       0.62070978       0.18541505       0.43453181       0.39848569       0.14363603
C       24.90397489       2.93271631      25.08236535      -0.34932139       0.16587009      -0.70184907       0.29927877      -1.10150588       0.10761482
F       25.72954879       3.67883125      24.27043212      -0.39527684      -0.40796009       0.66013615      -1.01760411      -0.74691063       0.58890229
C       24.50486531       1.56132474      24.44385389       0.64613295      -0.73075553      -0.07610677      -0.60037237       1.92452145      -0.40240452
F       23.66619644       1.88814061      23.37077483      -0.77401675       0.17506046       1.03869186       0.93860066      -0.91878861       0.29755181
F       25.60336604       0.98428818      23.93649989      -1.00799974       1.42301396       0.51384404      -0.21935979      -0.38274384      -0.04585228
O       23.82446037       0.83546396      25.36037483       0.10698384       1.08605081       0.60634172       0.14356899      -1.34409344      -1.04842043
C       23.52800975      -0.55617312      24.89262435       0.72794847      -0.07154446      -0.14344783       2.04127622       1.22302067       0.09529664
C       22.08594352      -0.81274437      25.05010270       0.47257020      -0.05859725      -0.79105345      -0.49124348      -0.56515008       0.43137696
F       21.66655847      -0.40047843      26.29109794       0.63717122       0.79478912       0.05308628       0.10713992      -0.68041062      -0.41439787
F       21.92903185      -2.20251598      24.93320400       0.39910630       0.03632054      -0.14068794       0.01221812       1.25376308       0.13094497
C       21.13761697      -0.14597467      24.06284513      -0.01278591       1.09141418      -0.61826816      -0.01246810      -2.60524297      -0.76881492
F       21.54685239      -0.46078244      22.76499481      -0.46966602       0.62477906       0.54880647      -0.53889680       0.59945703       1.47642231
F       19.93442575      -0.75389160      24.30077665      -1.44609861       0.14591750      -0.89150903       0.07062321       0.40171453      -0.50822985
H       24.00455032       3.45006325      25.38559641      -0.03692160       0.17020784       0.08263520      -0.02989744       0.57017469      -0.27583683
H       24.15556703      -1.26393702      25.45017715       0.07008565       0.25657528       0.08612706      -0.39729229       0.30093208       0.32232952
H       23.84476847      -0.66317444      23.85793722      -0.19849785      -0.28382954      -0.02626368      -0.29374284       0.07226145      -0.12135139
H       21.02315709       0.88478889      24.23363556      -0.02070930      -0.17307133      -0.04929591       0.05939754       1.43070674      -0.22603172
F       22.30573708      15.14064437      32.18490572       1.07254637      -0.54699791       0.28073793      -0.01170414      -0.03301424      -0.48416987
C       21.30502234      14.36083416      32.56783232      -0.27046210       0.78912854      -0.50058972      -2.93427420      -0.09486043       0.87779802
F       20.43242001      14.09303443      31.47442345      -0.91537816      -0.24644162       0.84129214       1.95751500      -0.15221922       1.50642133
C       21.83916791      13.12993450      33.37851554       0.44593923       0.08918021       0.13902739       0.22671880      -0.03423312      -2.20163012
F       22.47781559      12.19408325      32.61678098       0.72343152      -0.60301840      -0.06668185      -0.29167846       0.64942604      -0.23337728
F       22.83018295      13.64840256      34.14007177       0.16980635       0.11840959      -0.45434373       0.02185711       0.09700429       0.85743380
O       20.83968395      12.55963475      34.07045308      -0.37302275      -0.24682248      -0.43245017       0.15140507      -0.88768369       0.00525815
C       21.26663631      11.26901865      34.62476376       0.48755164      -0.22005147       0.40522761       0.30066767       1.72360146      -0.25235131
C       21.03775579      10.00126035      33.84370570       0.25616762       1.19261024      -0.33871188      -0.50545555      -1.14709353      -1.14968681
F       20.96668512       9.05822558      34.84310780       1.33185571      -1.03735119       0.13786610       0.15045671      -0.08609223      -0.39765823
F       22.10121066       9.64580104      33.00550382       0.83629882      -0.36581464      -0.74137318      -1.40581524       0.36935860       1.23035395
C       19.69205979       9.92659002      33.01046314       0.05506280      -0.41213985       0.80925881       1.00739956       1.49178171      -0.05548899
F       18.75545189      10.60057724      33.72074822      -0.13855578       0.32578650       0.43463268      -0.09295442       0.21254176       0.26484481
F       19.92601031      10.65922400      31.86547843       1.74485197      -0.13571900      -1.47724306      -0.31748351      -0.82191557       0.57239991
H       20.62989360      14.87342748      33.31320539       0.21514032      -0.06900630      -0.16322272       0.78708178      -0.02846506      -0.76817667
H       20.79230606      11.21562105      35.58091802      -0.05689612      -0.14058815      -0.31332398      -0.48398691      -0.21797855       0.32800505
H       22.32231090      11.37452948      34.78170992       0.11556523       0.20045643      -0.07119095       0.63994449      -0.41565669       0.34042424
H       19.25870449       8.95165172      32.80410608      -0.03237611      -0.21043930      -0.31106261       0.50696182      -0.22872722      -0.19753158
F        3.86559099      15.94464204      13.84648250      -1.15847510      -0.55941863      -0.38272066       1.87220633       0.96541858      -1.55607593
C        2.70402914      15.71281084      14.39213239      -0.59506881       0.49363433      -1.18414840      -0.75720000      -0.51740372       0.93446970
F        2.80276502      14.45551626      14.85001553      -0.97207552       0.50528314      -0.55820980      -0.60314524      -1.00554144       0.30416197
C        2.59519527      16.63499255      15.59806964       0.46524100      -0.15929348      -0.11246528      -1.23339295       1.00951087       0.23335934
F        3.76296141      16.75219418      16.26473619      -0.08434974      -0.31629909      -0.48329283       0.13198616      -0.04936356      -0.21256664
F        2.34730193      17.88080163      15.02658755      -0.10802938       0.78981731      -0.39016525       0.36369157      -0.10317101       0.58704847
O        1.58593314      16.27581994      16.42805144       0.25738598       1.47854860      -1.22557975      -0.12110254       0.77104497       0.64548159
C        1.50850706      16.99976223      17.71213836       0.16572650      -0.13532905      -0.07707563      -0.49619624      -1.18602169      -1.91221237
C        0.40905100      18.01821643      17.88539368       0.61699836       0.40839348       0.28256096      -0.62160742      -1.51421976      -0.44262514
F        0.22586474      18.73689625      16.75827844      -0.81488571      -0.09419256       1.27440261      -0.26835001       0.19870809      -0.39360544
F        0.82031301      18.81511033      18.86334502       1.09460134       2.16670721      -0.15012446       0.15886585       0.80953515       0.68161100
C       -0.95073073      17.40752515      18.32494529      -0.47283341       0.20740297      -0.29008823       1.35900438      -1.14748406       0.22129589
F       -1.83098404      18.37277464      18.41790124      -0.15738226      -0.02832441       0.41486030      -1.13617933       1.18094826      -0.20860197
F       -1.35687611      16.49212925      17.40074062      -0.91464269      -1.32477802      -0.77363088       0.16656281       0.31297019       0.21081205
H        1.88511935      15.83634792      13.67112695      -0.07426438      -0.00398033       0.14924442       0.17497613       0.02466871       0.32906643
H        2.42366353      17.42755641      17.95006213       0.27755029       0.05979444      -0.03906086       1.60787356       1.06724095       0.09173127
H        1.37605369      16.25800516      18.44224378      -0.05780873      -0.11949113       0.07876940      -0.40186748      -1.24250579       0.95673901
H       -0.87569013      16.93141569      19.31704160      -0.07116220       0.18355902       0.28251795       0.16807471      -0.10207958      -0.34285542
F       25.41082280      -3.04411514      13.58639504      -0.31416106      -0.25515773       0.25042433      -0.10978766       0.54407305       0.24801524
C       25.28922118      -1.73533122      13.98972632       0.42146732       0.42529136      -1.17983344      -0.91980928      -1.62641585       0.38019109
F       24.04036273      -1.33752520      13.59279718       0.65301602       0.26272963       0.09137108       0.89396584       0.31163254       0.07823034
C       25.36396852      -1.66881874      15.57141406      -0.45485127       0.36081519       0.56855946       1.67170811       1.06879580      -3.15727711
F       24.34785101      -2.02691093      16.30449289       0.53135910       0.59946693       0.77262332      -0.92246956      -0.77073914       0.23731910
F       26.44236304      -2.42005935      15.89351790      -0.22903994      -0.34321236       1.21637714       0.01763117      -0.44942522       0.49892196
O       25.64435047      -0.35209702      15.69823999      -0.06393049      -0.61909455       0.44501762       0.15208972       0.49496996       0.77471536
C       26.04207929      -0.02130051      17.01934544      -0.12694211       0.33993701       0.50624689      -0.59645694       1.11855555       0.62818021
C       26.90981780       1.23231454      16.95939227      -0.53492439      -0.30716487      -1.04107256      -0.03356684      -0.74639100       0.43280718
F       27.39453200       1.38652297      18.23803278       0.58425410       0.18700650       1.24592728       0.17541192       0.09932947      -1.09393084
F       26.22996452       2.36868008      16.65374484      -0.04294638      -0.58783059      -0.62205689      -0.62476701       0.00724036       0.21156143
C       27.94810475       1.12720112      15.86338821       0.05178361       0.02781598      -0.41500788       0.25877115       0.24249052       0.20079587
F       28.83599332       2.13721227      16.02837342       0.07035181       0.35729662      -1.27492095      -0.10599907      -0.03433447      -0.56504321
F       28.56828316      -0.05066174      16.03375374      -0.91546322      -0.11110689       0.21947263       0.68232584      -0.51299930       0.08035652
H       26.13496781      -1.18264246      13.52596423      -0.19785040       0.18625545      -0.14433957      -0.91398621       0.01393744       0.36612308
H       26.52219561      -0.88190889      17.50812673      -0.28208161      -0.12950542       0.30192021       0.18227512       0.64866281      -0.02682397
H       25.17829526       0.32569900      17.58494486      -0.28591894      -0.17509009      -0.09704863      -0.16373140      -0.42859328       0.24503687
H       27.49945315       1.14451041      14.85518951       0.13863460      -0.45232770      -0.05006421       0.17506528       0.24862511       0.45521647
F       34.10285194      13.07948184      11.09329765      -0.36013520       0.32124472       0.79144395       0.04593840       0.55883253       0.00546208
C       32.97445321      13.59966599      10.55827812      -0.08749903       0.90751501      -0.46252434      -0.63992602      -1.47285986      -0.09155203
F       32.41362723      12.53016467       9.84396454      -0.18654608      -1.21665151       1.19636420       0.54172510       1.40727973      -0.22022131
C       31.93457171      13.80675800      11.66566852      -0.97713147      -1.19254078      -0.20320567      -1.24189925      -0.03391288      -0.32256228
F       31.53404044      12.59928653      12.24747401       1.22255324       0.35287173      -0.03752090       0.73086858       1.30502796      -0.49123728
F       32.43859110      14.56852138      12.67811761      -0.73727199       0.13677219      -0.38460921      -0.30152234      -0.31883201      -0.46620497
O       30.82733684      14.38752396      11.06614644       0.24833983      -0.04954115      -0.67708864       2.18632817      -0.42104566       0.81603301
C       29.90500006      14.87922090      11.99445027      -0.75197303       1.05211664      -0.43801943      -2.69891143      -0.42654595      -1.14654922
C       28.53759054      14.27062050      11.52813036       0.51509184       0.31220830      -0.39065053       0.69202840      -1.00999045      -0.62269872
F       28.35004349      14.47883833      10.13865774      -0.38013236       0.40007155       0.87086320       0.12290075       0.17101535       1.46864760
F       27.52162742      14.81293714      12.19948983       0.99237249      -0.49926043       0.85008970      -0.31856117       0.40261456      -0.20627779
C       28.50959618      12.72922275      11.72573902      -0.39135453      -0.38127349       0.26325451       0.38038409      -0.70547003      -0.84809148
F       28.60386189      12.50310862      13.05045828      -0.66881338       1.03803543       0.60918589       0.40276453      -0.10190715       0.52151573
F       27.32600056      12.13515815      11.36504638       1.45309206      -1.63827197      -0.23699997       0.40783539       0.81124038      -0.26780194
H       33.15166286      14.53167959       9.96078249       0.07552835       0.03906500       0.05507124      -0.11185268      -1.05658007       0.31946319
H       29.78990911      15.93137208      11.90354402      -0.03571420       0.13924988      -0.08037478       0.13543500       1.09410822      -0.18730934
H       30.07735721      14.65654529      13.02596616      -0.08880337      -0.17595311       0.08423614       0.25329402      -0.51175994       0.51970357
H       29.35288755      12.21965638      11.17226829      -0.03580066      -0.24347751      -0.09986289      -0.92673647       0.54316455       0.58343935
F       15.99927609       4.88120806       7.52048478      -0.35231679       0.03411132       0.02211467      -0.13897677       0.05925558       0.48874113
C       14.98641027       4.51273338       6.71019436      -0.32758256      -0.83531857      -1.66249730       0.71087575      -0.00444555      -1.61357176
F       13.93432559       4.07671191       7.41641583      -1.52424437      -0.19024885       0.60299058      -0.03845496       0.42306575       0.08257879
C       14.67076083       5.74700727       5.79098584       1.26217222      -0.25787709       0.00311995      -1.40952277      -0.46749192       2.40592790
F       14.66733616       6.86928089       6.56435596       0.08201222      -0.50137858      -0.94204033      -0.33808225       0.40695265       0.79255021
F       15.62797968       5.96741771       4.96797543       0.20587449       0.65545395       0.75771832       2.88221216      -0.15551475      -2.06921554
O       13.51218286       5.60964434       5.15267332      -0.30540593       0.02560170       0.76602836      -0.79712397       0.07036824      -0.25478035
C       13.11155730       6.80889875       4.45767201       0.18632747      -0.84370550      -0.29103839      -0.94612569      -0.39150196       0.23233832
C       12.70734163       6.36233028       3.06786908      -0.09820152      -0.99364410      -0.84284360       1.38530481       0.34745771      -0.10059024
F       11.64321737       5.56666157       3.09798334      -1.18769688      -0.96173497      -0.41763078      -0.49101675      -0.75736964      -0.37159628
F       13.81717129       5.69939606       2.56719592      -0.05186669      -0.14578422       1.66937632      -0.50309306      -0.51498032       0.35784930
C       12.55946101       7.46863095       2.03325096       0.26957996      -0.58765890       0.72221965      -1.11702800      -0.40739265       1.01824248
F       12.43441897       6.97022040       0.80326994      -0.89668095      -0.63749054       0.03660252      -0.07829242      -0.33428511      -0.56673801
F       11.42895457       8.12706808       2.32580052      -0.13574987       0.65117755       0.64180939      -1.33538663       0.74341726       0.14242895
H       15.37915899       3.71541372       6.06623950       0.12342694       0.14104744      -0.02865653      -0.30909482      -0.12956539       0.10355716
H       13.87832326       7.51378138       4.25868559       0.04680488       0.08307544       0.01611044       1.37304294       0.52416736       0.31315812
H       12.39399915       7.31057007       5.11509433      -0.09776878       0.08295790       0.18097285      -0.37407172      -0.19836964      -0.78526396
H       13.33419403       8.17019468       2.09487732      -0.24254356       0.10148905      -0.25424864       1.58823121       0.83399582      -0.18250845
F       12.82566542       6.45504094      28.01021054       1.03252179       1.07839171       0.13295399      -0.04104317       0.57960922      -0.49563900
C       12.63983524       7.77492175      27.77975850       0.47427293       0.25318216       0.54089193      -0.87468094       0.54619074      -0.22661398
F       11.98291981       7.98155682      26.56844539      -0.74955466       0.33015331       0.11345810       0.77672380      -0.60116935       1.14664936
C       11.76993768       8.35251157      28.90764815       0.41512076      -0.41007192      -0.69575826       0.10808776       0.58613575       0.60105562
F       10.55905472       7.79477486      29.13693179      -0.51461258      -0.11503928      -0.15132213       0.17351253      -0.29129407      -0.86772364
F       12.43562005       8.15139237      30.06972293      -0.23845807      -0.30877965       0.65366062       0.28932345      -0.32474029       0.28193805
O       11.66395210       9.69747637      28.69236440       0.73385840      -0.10075436       0.03299435      -0.20428197      -0.51163483      -0.27981582
C       10.80955766      10.31245953      29.64752766       0.54083524       0.11635205      -1.16689997      -1.50439429      -1.03729045      -1.74538827
C       10.57904750      11.70260448      29.21789172       0.33111645      -0.70064836      -0.49041441      -0.11549585       1.66861832       1.14209473
F        9.92118513      12.31059176      30.33074296      -0.63916993      -0.49420270      -0.05711535       0.78722399      -0.39646968      -1.63970518
F        9.75868205      11.79462505      28.14544919      -0.19479952      -0.44071250       0.72878210       0.51316750      -0.12543236       0.56270784
C       11.93303188      12.36352545      28.95992287      -0.46118938       0.36629803       0.43340465      -1.33648431       0.62411445      -0.95137066
F       11.80459204      13.63227764      28.53939492       0.54240373       0.48666533      -1.91468569      -0.10486948       0.45576367      -0.45423144
F       12.53618909      12.40865166      30.12562341      -0.20779867      -0.42427387       0.82381421       1.21093905      -0.00250450       2.16192150
H       13.57383256       8.37035763      27.80753896      -0.01340952      -0.16896680      -0.06714546      -0.16023088      -0.60423321      -0.28772792
H       11.15531120      10.12077700      30.62034775      -0.18547232       0.04097710      -0.12890858       0.52030474       0.42790416       1.36805189
H        9.80617586       9.93518292      29.52295549       0.08757018       0.09783181       0.27765563      -0.42135939      -0.78576946       0.31676811
H       12.54140218      11.78977031      28.28886371      -0.06064919       0.19338626      -0.23172038       0.22714591      -0.24619427      -0.69373083
F       18.31359921      -1.32715084       9.22546018       0.25649667       0.52991665       0.22694489       0.53297192       0.81876850      -0.89357895
C       17.86127782      -1.60870754      10.44725410      -1.17263346      -0.25762644       1.33779740      -3.86935186      -0.98534101      -0.04555921
F       18.78616907      -1.51560014      11.34251603      -0.08388379      -1.00770423      -0.57524069       2.03841019       0.50043952       1.58852601
C       16.65035123      -0.62582932      10.84531562      -0.00779391      -1.30820950       0.41072880       2.73966527      -2.28725243       0.03665944
F       16.07313533      -1.05401411      12.04149658       0.53667295      -0.03004162       1.98379641       1.07762504       0.14986287      -0.48548335
F       17.18039631       0.58389228      11.07453989      -0.57617670      -0.33552201       0.38703666      -0.35337025       0.25442675      -0.20216066
O       15.72419381      -0.67522455       9.88324135       0.57989366      -0.51318453       0.10560783      -0.85438907       0.87039167       0.67294943
C       14.55828994      -0.08688308      10.51114377       0.18663941      -0.22245084       0.44700229      -0.60600173       1.01368189      -1.35089743
C       13.73547387       0.62152320       9.41706577       0.71548940       0.03733851       0.77518418      -1.43277812      -0.82343978      -0.96254677
F       14.26709462       1.77288822       8.94216269       0.28853733      -0.19838566       0.15714741       0.72250283      -0.21713519       0.45005175
F       12.56507433       0.96884992       9.99478639      -0.47639436      -0.06327768       0.01658233      -0.59981412       0.17619467       0.46074978
C       13.40522802      -0.22132701       8.11135461      -0.04972441      -0.67620837      -0.19093217       1.29077363       0.07503247       1.43521655
F       12.55753241      -1.22788702       8.33414418      -0.89338045      -0.48031535       0.29242539      -0.45923615      -0.50022298       0.65354007
F       12.87003250       0.52341994       7.14326462      -0.18654217       0.64913408      -0.19404580       0.05900795       0.64977217      -0.22717465
H       17.47972985      -2.63677971      10.40488919      -0.07391314      -0.09384733      -0.09626303       0.14567412       0.56206125       0.09953985
H       14.87837081       0.70589224      11.20762316       0.18553429       0.11628038       0.14484851      -0.36647239      -0.25616270      -0.21930197
H       13.99846130      -0.86760553      11.04166916       0.02603159      -0.04590865       0.29590673      -0.13577439       0.38491076      -0.41066694
H       14.36722134      -0.63568337       7.85919974       0.15251953      -0.36026198      -0.01821972       0.38267949      -0.18901171      -0.96154612
F        7.96284770      -3.93860961      -1.17080745      -0.41700313       0.15446353      -0.00586578      -0.36935121      -0.56113267       1.40816355
C        7.34627534      -4.87085745      -0.28709639      -0.34945252       0.52599504      -0.44429738       1.39955604       2.13252687       1.44492722
F        6.80772193      -5.74122734      -1.08364835       0.72569296       0.08035404       0.40509492      -1.19552886      -1.38070893      -0.58557343
C        8.47144460      -5.58220981       0.57378615       0.22363069      -0.30826136      -0.48452124      -1.52554083       0.43777713       0.55694568
F        9.15915552      -6.33211701      -0.27193402       0.38325742      -0.69007830      -0.86144196       0.97919923      -0.91472125      -0.47434998
F        9.33755043      -4.72495133       1.14923378      -0.26214401       0.91809167       0.35524703       0.05528544       0.47461462      -0.26024589
O        7.83231748      -6.29835558       1.55160436      -0.28894601      -0.46017830       0.06009056       0.57398516      -0.64309347      -0.12890089
C        8.59575332      -6.83529318       2.69289381      -0.45292476      -0.85692069       0.03026750      -0.24251768       0.76680863      -0.41443214
C        8.19173613      -8.27162261       3.00450799      -0.66293441       1.31226511       0.13764440      -0.08009268       0.00247080       0.16236834
F        8.22284807      -8.43865580       4.35395495      -0.50410465       0.89379625       0.20684000       0.65242565      -0.26652738      -0.21325146
F        9.13673150      -9.08779400       2.39987554      -0.06540346      -1.02374550      -0.15718691      -0.77867514       0.05132670       0.54098314
C        6.79360856      -8.70893695       2.56624376       0.98497462       0.31551900      -0.52003070      -0.90937382       1.22245359      -1.26367819
F        6.52654284      -9.98386862       2.81982057       0.73783322      -1.59146369       0.51687397       0.58564574      -0.84268051       0.24058202
F        5.86137410      -7.99057074       3.27753598       0.87516077      -0.01245983       0.61843720       0.51407015       0.23799266      -0.08367616
H        6.62465999      -4.34356287       0.39989629      -0.07710963       0.04271545       0.00543510       0.80527931      -0.36669657      -1.01945555
H        8.37279885      -6.16351487       3.50966247       0.06340481      -0.01656611      -0.17215083      -0.14426345      -0.17398252       0.37485632
H        9.69122045      -6.85029411       2.60078428       0.06744358      -0.44593937      -0.16772593      -0.32846868       0.21716663      -0.50076610
H        6.63150348      -8.49711215       1.49437562       0.27832414      -0.25021327      -0.12669629      -0.00674767      -0.20660359       0.38267618
F       24.19984337      17.91332417      24.35147167      -0.42228019      -0.27165694      -0.19498755      -1.23276496      -0.42564040      -0.34908840
C       23.07222616      17.68795148      23.54787853       0.02081935      -0.05418174       0.75613889       1.04957139       1.57384360       0.73161310
F       23.52892647      17.18606924      22.40002909       0.25579147      -0.56982982      -0.12178810      -0.10832303      -0.50036103       0.22403677
C       21.99356896      16.84513418      24.23048826      -0.47452430      -0.59460903       0.07281825       1.51827431       0.89949685      -0.15817864
F       20.98166055      17.03696253      23.36249319       0.71103858       0.93389576       0.02483041      -0.95180011      -0.58875418       0.77508241
F       22.35556524      15.57428971      24.28604066      -0.87930101       0.44891683       0.51864576      -0.34338221      -0.87900019       0.07971822
O       21.64258407      17.31501955      25.45609592      -0.13202087      -0.30140086      -1.03178442      -1.14513767       0.42493054      -1.00321960
C       22.39746077      16.98329594      26.59036449      -0.00683087      -0.23604223       0.61630357       0.98012227       0.82918268       0.02859118
C       21.76113915      17.79537008      27.71389014       0.47283367      -0.08881115       0.33976704      -1.53997326       0.82055849       0.36360428
F       22.15498292      17.28020569      28.90446895      -0.38458215       0.58485860      -1.49701513       0.36064783       0.60833597      -0.35812020
F       20.35962752      17.67939455      27.72935833       0.84187376      -0.75974062       0.48573110       0.93549258      -0.72070098      -0.50969058
C       21.84440894      19.37572167      27.65017257       0.59498421      -0.64877834       0.06376843       2.40491557       0.18435977       1.07675171
F       21.12926481      19.88820872      28.65892044      -0.82707122       0.03645063       0.59047697       0.28655598      -0.11053588       0.85706967
F       23.21510607      19.78704531      27.83698220       0.34116930      -0.46913243       0.81081765      -2.31491947      -0.85763967      -0.41095147
H       22.56034427      18.64160509      23.38646244       0.00593335       0.19824902      -0.08055726       0.50728083       0.19201691      -0.22427526
H       23.44984476      17.32899416      26.45124990       0.14903317      -0.04662890      -0.07525442      -0.61861819      -0.25692627       0.36957958
H       22.38099510      15.91713403      26.78284167      -0.13953706      -0.19917152      -0.09944216      -0.17865838      -0.21573803       0.28792512
H       21.43751119      19.89573741      26.80543444      -0.00866241      -0.32531356      -0.02612119       0.28941828      -0.66178530      -1.01469338
F       19.95432790       7.98990175      17.67467982       0.22896457      -0.56048873       0.10969887      -0.21674341       0.10443143       0.52296036
C       20.91161597       8.94673328      17.59416567      -0.13951863      -0.22645330       0.87746946       1.94135761      -3.33480978       0.16220637
F       21.57987052       9.03869519      18.78722664       0.78679164       1.15483632      -0.49468231      -1.11130202       0.68080354       0.05322392
C       22.04780550       8.33483939      16.68178690       0.00861314       0.36776058      -0.01413360      -1.60271537       3.05743718      -1.30734718
F       21.54752689       7.81741021      15.54991963       0.49159645       0.19918824      -0.71777046      -0.56557560      -0.51901728      -0.32164353
F       22.67939591       9.50410819      16.21664047       0.62450923       0.52915439      -0.86963632       0.35586494      -0.60015541       0.47152203
O       22.82680513       7.47596003      17.29759864      -0.73056065       0.51299853       0.10318669       2.54288387      -0.30548242       0.46656534
C       24.27992546       7.62515604      17.01345198       0.88118680      -0.25021920      -0.82771326      -1.81491828      -2.04371572       0.48837018
C       24.74232225       6.72840615      15.86137581       0.56861644      -1.03260022      -0.12901412       1.47212505       1.07104683      -1.76439250
F       26.04847085       7.23824686      15.77590282      -0.98755486      -0.40588594       0.68169423      -0.21941464      -0.59022933      -0.50774997
F       24.12126655       7.05021314      14.64053412       0.06658230      -0.40766551       0.35619559       0.46496505      -0.28968364       1.64531147
C       24.92163542       5.18075468      15.86323565       0.19940164       0.53116662       0.23237855       0.75844502       0.72140503       2.95074439
F       23.69635808       4.67985252      16.09391148       0.40982684       0.05311809       0.22556943      -0.32706824      -0.60951751      -0.38407904
F       25.41543766       4.76379933      14.69271680      -0.64301225      -0.44322477       0.24677346      -0.21301432       0.07208384       0.03366064
H       20.46406055       9.83833217      17.25541327       0.30233319      -0.04451211      -0.04092771      -0.13725641       1.36090410      -0.23344158
H       24.83282263       7.29947666      17.92296603       0.00792614      -0.01532337      -0.04183602      -0.55319399       0.48033059      -0.53933501
H       24.47180594       8.63731373      16.70222892       0.03632142       0.00865949      -0.01556723       0.29777664       0.23345412       0.16046564
H       25.62834607       4.84351519      16.72338569      -0.03105773       0.15147529      -0.01944917      -1.16204214       0.56671804      -1.54853451
F       29.09092963      21.08443553       0.80053420       0.60315738      -1.07507950       1.63119195      -0.01720591      -0.12173268       0.11050706
C       29.03329602      19.83163468       1.34482608       0.68046330       0.18484659       0.11154164       0.52171421       1.74842787      -0.18826753
F       29.98444614      19.74775753       2.30979676      -0.96360641       0.70455827      -0.00077183      -0.42174670       0.14903165       0.07479223
C       27.63716782      19.69901480       1.98260254      -0.98000969      -0.00767508       0.17060390      -0.62517804       1.46159232       1.32129192
F       27.36039333      20.85964407       2.73886233      -0.43819314       1.46348712      -0.53841065       0.33015326      -0.99847269      -1.09637034
F       26.61249611      19.60172620       1.10544555       0.25543449      -1.06095161       1.09557259       0.36635491       0.09944959      -0.27508041
O       27.70749840      18.66906226       2.79137305       0.87488379      -0.35310018       0.56918960      -0.02829482      -2.20741725       1.05431092
C       26.63811475      18.22284685       3.67868323       0.08704371       0.39508589      -0.85289115       0.61893922       0.63171786      -1.98682427
C       26.87671771      16.75820109       3.98644406      -0.31871421       0.03333225       0.11432296      -0.96593094      -0.15029435      -0.48017558
F       26.56991111      15.81695055       3.01817851      -1.00700923      -0.93286070      -0.20912760      -0.29310158       1.23867750       0.05079739
F       26.02780225      16.55164468       5.01533071      -0.49910660      -0.48722501      -0.34697887      -0.13763332      -0.69377029       0.54200977
C       28.28648282      16.42658881       4.32898555       0.59223267      -0.35288886       0.06219021       1.87204981      -0.34780493      -0.18424143
F       28.57541820      16.96696879       5.52490802      -0.56508844       0.04054566       1.06121952       0.31786206       1.46656311       0.67602533
F       28.46219832      15.12538852       4.55787613      -1.71189275      -0.32861405       0.18213419      -0.37762663      -1.29458594      -0.56237012
H       29.34974800      19.17453254       0.56171623      -0.20401186      -0.01793078      -0.10829275      -0.58363938      -0.94282919      -0.46428680
H       25.67273849      18.37457676       3.21009705      -0.06946598      -0.13150309      -0.11885356      -0.19754073      -0.17121965      -0.07298343
H       26.68843373      18.80074605       4.58086894      -0.07505284      -0.05743403      -0.31376365       0.15914407       0.14827274       0.59949642
H       29.00160380      16.72213562       3.51719611      -0.11491425      -0.24224849      -0.07079246      -0.56562960       0.16285259       0.82408053
F       -0.11245429      11.48239231      22.30526485      -0.43812718       1.02619810       0.78966836      -0.26357713       0.08425188       0.50590461
C        0.80184355      11.16951183      21.35245699      -0.02211241       0.62728522       0.82239424      -1.11739349      -0.54103959       0.28674769
F        0.11524290      10.87091722      20.23980637      -0.49322888       0.25882862       0.38804259      -0.08049452       0.02325250      -0.58823895
C        1.61760107      12.41942291      21.10972172       0.44631177       0.37421597       0.01641503      -0.62773246      -0.58579594      -1.36583328
F        0.77509864      13.46485527      20.90251628       0.29622558       0.14837027       0.53323075       0.13990715       0.20317008       0.40591431
F        2.35127508      12.65487986      22.17900234      -0.29487961       0.19463049       0.27719640       0.59204513       0.60330784       1.42596960
O        2.37490122      12.23339706      20.01180714      -0.06120274       0.05479406      -1.09902507       1.36917758       0.49154359      -0.42703471
C        3.56086026      13.07123216      20.02705295       1.12330250      -0.30770249      -0.16338806      -0.42782322      -0.71092308      -0.29323047
C        4.31709628      12.93155156      18.75926509       1.00160450       0.27480946       0.41282760      -0.63840657       0.17316732      -1.31213617
F        3.44992522      12.98512576      17.70936652       0.39173395       0.46284194      -0.07710712      -0.27891102       0.37034371      -0.38619423
F        4.96316822      11.76220535      18.61425647       0.20882967       0.62622935      -0.17367559      -0.02145304      -0.40097448       0.52701408
C        5.34189389      14.04540015      18.53993402       0.83625453       0.84174703      -0.03194885       1.00464153      -2.16248441       0.15731703
F        4.82267143      15.22654776      18.71606798       0.28916411      -1.50426860      -1.41326204      -0.87000686       1.83016789       0.11478084
F        6.32226693      13.87011636      19.48534061      -0.34459493      -0.79546527       0.29853912       0.03865875       0.10476082      -0.25359857
H        1.30920833      10.26563887      21.68785035      -0.04964038      -0.04784939       0.14744190       0.64466119       0.26802891      -0.10522774
H        4.24950246      12.68757627      20.74066146       0.01195215       0.01277169      -0.18855870       0.33783093       0.09923491       1.13495743
H        3.33603216      14.12449157      20.15533876      -0.06883390       0.06276753       0.14689082      -0.20839399       0.06502089       0.31979778
H        5.75020994      13.91562111      17.54149718       0.35885176       0.48892144      -0.28585428       0.20683932       0.17423092      -0.06282254
F       24.25466777       6.40566733       4.89312614       0.15368891       0.56648321       0.82840442       0.05453464      -0.22857621      -0.42463583
C       25.24821692       6.33677399       3.95082742      -1.04049635       0.19762291      -0.00472922      -1.61488986       0.81805634      -0.09119786
F       24.85704697       7.08532094       2.86767387       0.49916692       0.64343510       0.83524324       0.05788494      -0.54055721       0.49227098
C       26.43735510       6.98433651       4.56303970      -0.07821623       0.05387627      -0.41502682       0.30813453       1.15436685       1.83123612
F       27.30892035       7.41087448       3.67814957      -1.34734603       0.01082638      -0.25134859       1.34301805      -0.20592412      -1.39263666
F       26.08042369       8.15833252       5.18369725       0.22447972      -0.20208818      -1.29528653      -0.50423956      -0.07354248       0.30603865
O       26.94075984       6.11782724       5.46755079       0.91059674       1.09368722       1.71307405       0.50939804      -0.01064417      -1.00755584
C       28.20309054       6.44893418       6.05345662      -0.74269285      -0.56682528       0.53590568      -2.38101435      -1.40277898       2.56744242
C       28.22869553       5.31780950       7.17684667      -0.58142163      -0.06220825       0.98314031      -0.31760240       1.34853709      -0.12364714
F       27.82622708       4.15365388       6.67497806      -0.03978049       1.06658960       0.66839019       0.35470799      -0.53078574      -0.24228148
F       27.28290471       5.60062082       8.18134312      -0.24429149      -0.28512380      -0.37835721       1.16425359       0.18755506      -0.80537057
C       29.61711524       5.21501920       7.79356884      -0.52737639      -0.96046137       0.66754148       0.84523296       0.52404767      -0.37090564
F       29.76459239       4.16465941       8.59277220       0.73325720      -0.36549556       0.75698222      -0.41334110      -0.75248283       0.59773290
F       30.49823224       5.00388844       6.75036537       0.50979531       0.04949189       1.59354007      -0.35892150       0.43117675       0.35797432
H       25.44662269       5.32505364       3.67320020       0.02270863       0.00965076      -0.07536857      -0.34659687      -0.41854483      -0.03172322
H       28.08751804       7.39029731       6.54117821      -0.01591236      -0.00218349       0.12921198       0.09898116       0.81681556       0.60256559
H       29.05239767       6.51695444       5.43884769       0.12949034      -0.16384904       0.16875840       0.84883404      -0.57736248      -1.15208161
H       29.89436006       6.12328512       8.36430356       0.02194830       0.02231334      -0.22269944      -0.07429628      -0.41132668      -0.66809028
F        5.52219827      14.33787167      22.04656080      -0.39949356      -0.52196682      -0.20024400       0.29979390       0.22514944      -0.73607475
C        5.84174669      14.65472776      23.31353175      -1.16260002       0.71110467      -0.63553258      -0.66240495      -1.03365934       0.17326131
F        4.85587076      14.05424364      24.04511696      -0.68297891       0.93926365      -0.18003957       0.08650018       0.14647532       0.58452886
C        7.19183335      13.96341681      23.63718576      -0.11001271       0.23506282      -0.06102473      -0.49037689       1.08144784       0.20565522
F        7.38828016      13.98187569      24.94559245       0.28188803       0.09230309      -0.34515209       0.14324196       0.32318738       1.68623185
F        7.24762806      12.66177336      23.34550081      -0.84830729       0.73801823       0.51390057      -0.28192836      -0.02834808      -1.12244916
O        8.12604240      14.75771356      23.03697116      -0.30587556       0.45940134       0.40262736      -0.66567892      -0.18358646      -0.46058196
C        9.21764643      14.17373152      22.43365369      -0.50369018       0.40229375      -0.14002468       2.17456341      -1.57532299      -0.28562197
C       10.46479847      14.31887438      23.36116970       0.14949628      -0.52735649      -0.40875916      -0.17485555      -1.88404822      -0.60323298
F       10.71196781      15.55920289      23.72662970      -0.06583673       0.10643007      -0.53935293       0.14597282       2.06978846      -0.29264295
F       11.55687686      13.86206345      22.64740793      -0.30540662       0.49685559      -0.13188641      -0.46862835       0.17842656       0.01930280
C       10.45533472      13.58698585      24.71196794      -0.80505992      -0.20129364      -0.67232756       0.18783274      -2.57980490      -1.60279417
F        9.94309996      12.30525636      24.48846013      -1.10557323       0.26327011      -0.59259878       0.33455217       1.08347976       0.38773933
F       11.73885438      13.41746872      25.11909943      -0.65871429      -1.66060060      -1.12846515      -0.46048710       0.42318586       0.21607096
H        5.81681331      15.74105178      23.48154065      -0.25324207      -0.00919875       0.18043282       0.27337548      -0.47591358      -0.06302986
H        9.42997478      14.60387916      21.46541803       0.11808631      -0.05087900       0.08593479       0.12244134       1.00946772      -0.02368393
H        9.12973257      13.10508251      22.10277387      -0.19360845       0.05521996       0.11753196      -0.25132272       0.62270957       1.03728724
H        9.87182299      14.09096278      25.43698793       0.28520629       0.06114135      -0.16081421      -0.57370448       0.41903999       0.97322190
F       17.94196453       7.08874345       8.19802288      -0.30854721      -0.43229521       0.77373895       1.21048701      -0.20156670      -0.49778265
C       19.32805150       7.10741420       8.26687038       0.10977638      -0.93897525       0.21467633      -0.91936463       0.15330727       1.25200689
F       19.81192337       5.84769940       8.09041518      -1.22419141      -0.21438616       0.22718263      -0.32073456       0.54089010       0.31049457
C       19.89421630       7.98819997       7.15051987       0.30556658      -0.71666284      -1.22510215      -0.93229783      -0.12729090       1.36638093
F       19.41864373       7.55646971       5.98027683      -0.49341958       1.33578223       1.70725550       0.11145706       0.31302691      -0.55678797
F       19.32348107       9.24562449       7.38805152       0.72828540       0.15759752       0.00519676       0.76963919      -0.52540165      -0.59852439
O       21.24533424       7.97469637       7.22065920       0.35942783      -1.41580068       0.04116920       0.08783180       0.68622190      -0.64165258
C       21.86553432       8.81124638       6.21906132       0.14737168      -0.54608941      -0.41500151       1.90269637      -1.30074513      -0.93086922
C       22.69499246       9.91470705       6.88044587       0.45734249       0.06984826      -0.75182546      -0.06300855      -0.61688292      -1.44311047
F       23.77726186       9.49453250       7.60190808       1.02039881      -0.21166648       0.12392921       0.10579017      -0.47987869      -0.20066437
F       21.91084295      10.51851871       7.73917772      -0.08059976       0.35353403       1.12333413      -1.00112438       1.66104758       1.58265126
C       23.24388156      10.86902060       5.80489007      -0.00123882      -0.98118109       0.43193649       0.51258552       0.26971668       0.11314491
F       23.65144277      10.07347981       4.77324500       0.09896481       0.82898173       0.60866616       0.17336026       0.23561737       0.15916987
F       22.22611054      11.62323697       5.32414489      -0.66147369       0.47569556      -0.55967445      -0.14720400       0.03174646       0.13041328
H       19.51171137       7.51166099       9.29697012       0.10221199       0.15376126      -0.29857655       0.41372812      -0.55908704      -0.90146166
H       21.06945398       9.21561904       5.58271098       0.22707963      -0.26643054       0.14830967       0.53554583       0.30655301      -0.01314565
H       22.64710628       8.26301124       5.55455233       0.08196765       0.33878740       0.11222780      -1.80936038       0.22633190       1.23205674
H       24.07897485      11.52187870       6.15497642       0.24958769       0.35504864      -0.05772904      -0.66124076      -0.58826762      -0.31311369
F       13.43576392       8.52790946      14.49313666      -0.06531552      -0.61488652       0.79543322       0.97589582      -0.20132989       0.75354820
C       12.90950099       8.23838725      15.72912889      -0.53668968      -0.32673703      -0.72832994       2.12761688      -2.45152545       0.33919391
F       13.50737495       8.92503675      16.72571856       1.01614332      -0.09734640      -0.92791940      -0.16929522       0.75534225      -0.59680903
C       11.48844351       8.58220740      15.52637045       0.02313343       0.68130776       0.63688147       0.63944584       0.72167349       0.25724319
F       11.51552727       9.79334930      14.98122173      -0.10486879       0.89459719       0.34859714      -0.76125467       1.47460651      -0.69015747
F       11.04395685       7.72371191      14.62205135      -0.45825482       0.22372863       0.21799412      -0.94542825      -0.95290238      -0.47407764
O       10.76623231       8.55899945      16.63820015      -0.28811746      -0.29687431      -0.61063332      -1.12199390      -0.87151152       0.69972628
C       10.38893801       9.74509690      17.27869206       0.21825257       0.16873420      -0.03627774      -1.77411890      -0.67385769       0.66922015
C        8.86916345      10.05780443      17.08606014      -0.64712658       0.33064735      -0.12721942      -0.03404324      -0.93268526       0.12985031
F        8.08269666       8.94101567      17.46624923       0.93281440       0.33359521      -0.12435989       0.91201073       1.49191558      -0.22096197
F        8.48365037      10.32980658      15.78418143      -0.19852884       0.20908960      -1.00563320       0.83199179      -0.23175295       1.57574141
C        8.54122664      11.23862430      18.03612142      -0.36548730      -0.15601560      -0.51126601      -0.82880270       1.56094277      -4.13732624
F        9.46549875      12.27939345      17.78218868       0.24942110      -0.22705821      -0.51802316      -1.12720251      -1.52192044       0.75698352
F        7.29940113      11.73950220      17.69331003       1.40696635       1.48804597      -0.41412282       1.06739902      -0.23968738       0.10991536
H       13.10951356       7.15890297      16.00246814       0.26287492       0.15489031       0.14188702      -0.47645143       0.94945604      -0.72709113
H       10.86875254      10.61464186      16.94756290       0.18918795      -0.16341779      -0.00141536       1.08583307       1.02778161      -0.71286345
H       10.64242767       9.60594417      18.34067411      -0.09146909       0.12197852      -0.02146322      -0.45894033       0.15993445      -0.37313822
H        8.48693281      10.92016241      19.00773835       0.12700345       0.26723205       0.05176823       0.46124208      -0.30010828       2.56139898
F       19.98010800       1.40635236      34.55592576      -0.53857042       0.21676728       0.05552269      -0.28038371      -0.87104893      -0.34805575
C       20.29078254       0.06684705      34.69153671       0.56242893       0.05453314       0.12934370       0.57172728       1.44779968       0.96912134
F       19.19850952      -0.66804449      34.84708365       0.56779644       0.70272313       0.53538942      -0.76879853      -0.04647565      -0.21106321
C       21.14019317      -0.39856650      33.53383853      -0.70230173      -0.49794336       0.69746021      -0.60482305       0.15288652       0.80785841
F       20.52994411      -0.22740331      32.36716171      -0.63482034       1.43462499      -0.72157890      -0.09369152       0.34242353      -0.83835572
F       22.24563832       0.39980464      33.56554493       0.43338137      -0.70290088      -0.15873044       0.22889194      -0.30715191      -0.42107993
O       21.39841401      -1.70123370      33.76001851       0.00966625       0.11876250       0.90629684       0.40141761       1.02082229       0.43838394
C       22.30993743      -2.27588955      32.85057278       0.55828792      -0.51203643      -0.51269570      -2.42822361      -0.77739924      -1.46666765
C       21.99898347      -3.73749223      33.00942609       0.07230487       0.31308390       0.34344517       0.07064731       0.55543286      -0.10980563
F       22.89285662      -4.36344330      32.22448460      -0.18525397       0.25976250      -0.73397656      -0.16733262      -0.95545709      -0.99144351
F       20.70436748      -3.97205945      32.62363017       0.21851649      -1.81260412      -1.58312356       1.21293759      -0.18597268       0.11590614
C       22.25137542      -4.26335508      34.41635661      -0.32392486      -0.24453332       0.11655170      -0.48716724       0.75459743       0.12900722
F       21.82189222      -5.51991908      34.47360407       0.82197164       0.09250073       0.28091913      -0.34284496      -1.18595064       0.27842721
F       23.58709622      -4.26370668      34.59441243      -0.40321503      -0.14895662      -0.61897437       0.67784470       0.01293383       0.24549167
H       20.89361468       0.01966588      35.58343816      -0.12358424      -0.10828720       0.05744490       0.16609059      -0.27015427       0.39779040
H       23.31523053      -2.08787608      33.10338482      -0.29490506       0.42679289       0.01277155       1.24800575       0.50755727       0.07421184
H       21.97339660      -2.03386229      31.79570129      -0.03519975      -0.10853154      -0.05234999       0.91790754      -0.03184313       1.00748551
H       21.80362680      -3.66583615      35.21058226       0.04281443      -0.24116081       0.18846837      -0.15968466      -0.03756820      -0.06029122
F       10.73752319       4.83968537      -1.96906144      -0.43670930       0.14323364      -0.75481116      -0.96711004      -0.07589740       0.38705257
C       10.07554047       5.14710517      -0.81391498      -0.85845200       0.67906290      -0.60412808       0.53701425       1.08560443      -0.79178053
F        9.05525656       6.04791679      -1.07660269       0.02887950       0.08312980       0.57836333       0.62304908      -1.30982566       0.02265906
C        9.55248911       3.85952621      -0.17257852       0.43505188       0.42125717      -0.38017269      -0.28353676      -1.35075259      -0.85874647
F        8.88575242       4.08647052       0.98412262       0.23763709       0.07594660       1.85230913       0.17145965       0.29431736      -0.06987825
F        8.62837124       3.28668125      -1.01621949      -0.61396300       0.47653421       0.52611057       0.23906262       0.59640652       0.15396844
O       10.58595423       2.97985641       0.00745684       0.65402618       0.15960725      -1.19337636      -0.72761023      -0.76726854      -0.06889436
C       10.17395020       1.57088972       0.21804852       0.14371673      -0.33507281       0.38203562       1.59789610       0.31487328      -0.45132181
C       11.05168173       0.64176396      -0.71894846      -0.74442814      -0.39390701       0.11521624      -0.10288059       1.50712848      -0.40255970
F       12.32526646       0.50339432      -0.30451808      -0.30070774       0.77036949       0.21124246       0.79424572       0.61334759       0.59945065
F       11.10764791       1.20659592      -1.99077829      -0.28892979      -0.41454655       0.31693194      -0.14525579      -0.63852882       1.21865952
C       10.56099775      -0.77535585      -0.83328596       0.50627585      -0.80473107       0.67344142      -2.41795754       0.49235776       1.79916203
F       10.17284821      -1.17907485       0.49883651      -0.13297373      -0.19685467       1.24761407       1.17647195       0.23464112      -2.01152682
F        9.39652196      -0.67420714      -1.49373119       0.26139716       0.80756378      -0.92888864      -0.42982513      -0.64840746      -0.46200773
H       10.80474054       5.67083429      -0.22331538       0.31449718      -0.05710297      -0.17218662       0.15993351       0.06386528       0.78005630
H        9.13692602       1.37012603      -0.02526997      -0.00579227      -0.05203983       0.17179396      -0.11287346       0.26667351       0.01213563
H       10.39128808       1.37499426       1.26652997       0.14912259       0.24602778       0.13409974      -0.10578883      -0.33540660      -0.18502104
H       11.23497301      -1.46724383      -1.30813733       0.17958711      -0.08236902       0.33324906       0.25644213      -0.32600620       0.16243005
