2000
Lattice="32.051635360647936 -3.37883565958908 5.380094471903915 0.0 25.557590981598043 0.6440043675754834 0.0 0.0 25.96033083036653" Properties=species:S:1:pos:R:3:momenta:R:3:forces:R:3 charge=0 spin=1 energy=-2944522.591644287 free_energy=-2944522.591644287 stress="-0.008460994809865952 -0.0007676425157114863 -0.0012542319018393755 -0.0007676425157114863 -0.022620389237999916 0.003265592735260725 -0.0012542319018393755 0.003265592735260725 -0.024674145504832268" pbc="T T T"
Na       6.58870574      23.11368683       6.77395500       0.00835898      -0.74425611      -1.42990806      -0.54649186       0.02125509      -0.05975398
Na      20.02914117       8.48778260      27.54143198       0.84293059      -0.96602220      -0.57727983       0.24594021       0.17027119       0.25152346
Na      -0.87058119      17.15260691      29.39999948      -0.00783340      -1.87848422       0.56607267      -0.20932519       0.36842263      -0.31888938
Na       8.28048439      11.45328763      29.23916925      -0.03395675      -0.04584443      -0.36717993       0.19089881      -0.47491479       0.24075465
Na      11.99519125      13.82156081      13.25513216      -0.60746426      -0.50963489       0.24502587       0.30923957       0.34236950       0.00386087
Na      28.33617441      11.84400690      10.07574072      -0.20796389      -0.36950353       0.04559335      -0.05753411       0.12643233      -0.33821696
Na      14.37345946       5.20676534      27.84620373       0.50390533       0.50865852       0.47682090      -0.03237842       0.08271635       0.00711358
Na      21.57851146       4.00108908      14.03033397      -0.50435976       0.56337168      -1.40451365       0.35672402      -0.34838891      -0.26315695
Na      21.83949204      -0.25468569      18.25373144       0.03267001       1.00321214       0.65201977       0.07581872       0.16334032      -0.37481290
Na      -1.91432111       1.19060900      21.19597520      -0.66335087      -0.81054624      -0.47804805      -0.07064931      -0.15494160       0.39851794
Na      15.63103363      15.89860868      17.06025379       1.02533834      -0.70465759       1.03493294      -0.13638401       0.10455207       0.25732136
Na      30.17685407      16.52507323      22.51353787      -1.13314363      -0.52558085       0.30430546      -0.24457340      -0.34858012      -0.16535172
Na      13.87685741       9.09576772      10.46066005      -0.54532505       0.17037457      -0.62800355      -0.15212184      -0.13903563      -0.16909251
Na       8.02279126      17.57394981       4.57619546      -0.25774822       0.65442404       0.03954284      -0.10610954       0.15874439      -0.08613972
Na       3.87724740       4.67903338      19.19371900      -0.06562420      -0.38426862      -0.18753808      -0.08282331       0.23318410      -0.36929971
Na      30.58560670       1.28984942      22.19262274       0.68478366      -0.55832795      -0.45766484      -0.02825532      -0.40186447      -0.08956327
Na      18.54192120      21.42453834      14.70424174       0.37839020      -0.15192885       0.52532958      -0.27383888       0.05226243      -0.06602585
Na      -2.64294280       8.43881901       9.75513741      -0.49738535      -0.01935571       0.70895374       0.58126354      -0.07529908      -0.02824409
Na      15.75883829       4.35245155      17.72169556      -0.35486068      -1.28821235      -0.18000451      -0.06109647       0.11679130      -0.18523556
Na       6.78197748      19.83316690      20.16939754       0.69908939      -1.06079284       0.68171411       0.23487552       0.16605099      -0.18827932
O       27.59524989      16.54166941      23.77728277      -0.31873699      -0.69900286      -0.06200888       0.41320542       0.72555739      -0.28121012
S       27.07777709      15.21700992      23.65513416      -0.17904526       2.02755977      -0.33088758      -1.48879313       1.40285873       1.31880045
O       25.66613862      15.03724906      23.61843292      -0.69817720       0.22232982       0.24152406       0.32575667      -0.23217565      -0.33164987
N       27.70996814      14.24705794      24.68155418      -0.32514457      -0.56397859       0.26642260       0.88348234      -0.83394897       0.60092515
S       29.10812695      14.58927521      25.32148411       2.12149465       0.44270494      -0.45737957       0.73639286       0.27798277      -0.92021710
O       30.09963435      15.18410029      24.41883785      -0.09327436       0.06640815       0.17319701      -1.03730369      -1.17999983       0.72671294
O       29.49050902      13.52029778      26.18774706       0.04178223       0.14819264      -0.33622198       0.37550670       0.31092209      -0.47330651
F       28.79962164      15.78620048      26.24741423      -0.54632640       0.62205370      -0.62157712      -0.35567275       0.48835042       0.70251602
F       27.65097014      14.74640535      22.31766151       0.26712744      -0.22355178       0.47493938       0.44771811      -0.79641610      -1.68032765
O       28.72765499      -3.03602230      24.66883310       0.24054272      -0.31024554       0.45142126      -0.37756807      -0.18302013       1.34687197
S       29.85004513      -3.25220339      23.83357950      -1.97140629       0.56547228      -0.13068931      -1.29723561      -1.01413310      -0.93103099
O       31.12141321      -3.52394400      24.37839213      -0.25692959      -1.07521182       0.79584707       1.37490106      -0.53342927       1.15160251
N       29.84241471      -2.10711380      22.83478082      -0.00065815      -0.75830061       0.27839011       1.01248193       1.20053506      -1.45162857
S       30.82205080      -2.07238117      21.60630516      -0.42671374       0.05124762       0.18897091       0.94988108       1.31561685      -0.08638638
O       30.62540635      -0.80951585      20.96237131      -0.69978070       0.30289499      -0.29788518      -0.18358430      -0.01008609      -0.20491037
O       30.85391268      -3.27111199      20.86235192      -0.37939411       0.06943324       0.11118741       0.33126739      -0.56278491      -0.31144884
F       32.36744544      -1.89404690      22.10027282       0.41739672      -0.35735790      -0.76224819      -1.49383140      -0.32731804       0.26308426
F       29.47914350      -4.56110595      23.01656035       0.23125275      -0.67577859      -0.03011821       0.19306196       0.35163197       0.23580433
O       12.41955080       0.41085599      24.11410979      -0.20627687      -0.26659871       0.39544289      -0.34670955      -0.11053067       0.66734761
S       13.46368860       1.07262816      23.40804904       1.76020462       0.96676681       0.21848521       0.57988155      -0.82713258       0.68048620
O       13.32926031       2.41555829      23.04163155      -0.22966163      -0.42346710       0.26244033      -0.57546586       2.36405683       0.04302680
N       13.98220119       0.32708407      22.19317436       0.74119466       1.13216113       0.35508753       0.98280543      -0.91018391      -1.77559078
S       14.17783805      -1.21496543      21.99211373      -1.46372684      -0.60340869      -0.09250879       0.84589458       1.85930562       2.15446615
O       15.06996650      -1.80480039      22.93051830      -0.06580673       0.60869714      -0.60513259       0.06887987      -0.37674835       0.87633002
O       14.43777609      -1.48996679      20.66038107       0.20525887       0.61040063      -0.48286002       0.01899077      -0.67454648      -3.10006022
F       12.75767418      -1.67234755      22.34220977       0.22905144      -0.41474589       0.45215382      -1.11666870      -1.35519159       0.09910488
F       14.74239670       1.06464631      24.37352256      -0.66275051       0.79838442      -0.68852702      -0.45027986      -0.13830157       0.17626017
O        5.88198947      19.20624946       9.13468855       0.06402699       0.18598555       0.40916932       0.30780306      -3.13893461       0.61474043
S        5.80063362      20.53686636       8.76176468      -0.10803900       1.47464234       0.21606136      -1.03363132       0.64296532      -0.13230929
O        6.86933340      21.08317893       8.01814228      -0.30914910      -0.23916430      -0.86665981       0.68498969       0.82230383      -1.23580563
N        5.36312433      21.36215539       9.96733961       0.05037431      -0.03234233      -0.26743086      -0.00936108      -0.90344507       1.26940775
S        4.87042632      22.79643148       9.93368999       2.54427639      -0.48773118       0.62561946      -2.47281265      -1.93119717      -0.07050541
O        5.34610214      23.52577327       8.87078161       0.87844881      -0.00070459      -0.62316020       2.01306367       2.79535031      -3.67112303
O        4.82111294      23.33660899      11.20216353       0.28397172       0.50224169      -0.90371523       0.08785754       1.47177827       3.29975057
F        3.33400744      22.62181023       9.54254244      -1.22669433      -0.26928339       0.66782603      -0.19117263      -0.22623217       0.11234058
F        4.50887386      20.57654308       7.80009570      -1.14310438      -0.92072165       0.11971243       0.42634690       0.36424384      -0.14732316
O       16.44559416       8.48388500      13.90213430       0.73852773       0.20558722       0.46067378       1.11378813      -1.29957438       2.28784466
S       15.68205758       9.24309369      13.02713142      -1.20427533       1.07338526      -1.15062406       0.59175408       1.34194875      -1.41484237
O       16.04622202       9.13520441      11.64864581       1.21618260      -0.57009057      -0.42986742      -0.39740327      -0.11084966      -0.82619613
N       15.51842826      10.72152455      13.54291970       0.02740110       0.14474113       0.00294592      -0.43776453       0.51095337      -0.29844290
S       14.84529529      11.72124305      12.50970956      -2.07439678      -0.26302892       1.70379722       1.54951739      -0.97937417      -0.05313307
O       14.16340296      12.75292863      13.17044559      -0.48284529       1.51201449       0.10513110      -0.77935982       1.54092431       1.09093904
O       14.16726194      11.07440384      11.45120052       0.84415911      -0.23478727       0.24938963      -0.68281674      -0.28089792      -0.93896115
F       16.06741320      12.43694634      11.82287445       0.48474950      -0.40207532       0.14487418      -0.23346776      -0.15836120       0.40108928
F       14.24006739       8.67872967      13.08094502      -0.41857162      -0.39301014      -0.25430404      -0.79546142      -0.47869638      -0.15705009
O       22.66374477      12.13631233      18.09509338       0.47420502       0.30925819       0.80297295       0.93857616      -0.61515886       0.30486289
S       21.78282672      13.12395042      17.59763383      -0.85694437       0.47509914      -0.29852053       0.19775522      -0.55847740       0.73681450
O       21.02512376      12.84723552      16.45523886      -0.24409155       0.43686909      -0.24827653      -0.85166442      -0.53744268      -2.65957451
N       22.42675238      14.51199615      17.70649811       0.45431503       0.12158903       0.42289784       0.79733753       0.60396218       0.17460519
S       21.84984318      15.71033220      16.90990219       0.53244041       0.16082215       0.47685909      -1.05767238       0.51492906       1.75416958
O       21.62564259      15.53468158      15.55532747      -0.14676242       0.35205386      -0.57707254      -0.28263018      -0.93510914      -3.35736799
O       22.50748809      16.88852392      17.30055052       0.74950518      -0.63194282      -0.93888773       0.68118274       1.36275542       0.83609879
F       20.32982330      15.82910523      17.45624592      -0.26447954       0.35611376       0.27570085       0.89060259      -0.08885619       0.24021681
F       20.66866763      13.22277763      18.64524238      -0.38648238       0.15440536       0.39803567      -0.96540058       0.06249066       1.81307065
O        5.42292987       6.30598313      22.97115449      -0.42677905       0.57164276       0.48062884       0.00450101       0.09426019      -0.67862952
S        4.96936469       6.85750187      21.72842886       1.05751686      -0.11970464       0.08050231       1.07079446       0.77103150      -1.50054276
O        5.04850121       6.08987067      20.50093048      -0.52769806      -0.27757950       0.61516109      -0.10698139      -0.06300785       1.33562136
N        5.53043342       8.32111642      21.51000965      -0.06963013      -1.09532500       0.31675398       0.06674895      -1.51915419       2.21932292
S        5.33237261       9.09477864      20.19975088       1.65020238       0.52124477       0.71081229       1.91518712       0.36389726       0.39917353
O        5.27769129      10.47726593      20.46793995      -0.00111704      -1.77194649      -0.48245892      -0.16624723       1.32139921       0.02069595
O        4.41606855       8.49119592      19.33901828      -0.55290156      -0.34969772      -0.31526766      -1.45539594      -0.65143651      -2.08426356
F        6.78678896       8.92576285      19.52653790      -0.25620643      -1.21691462      -0.79269171      -0.65857029      -0.02341726       0.01267747
F        3.45738133       7.11663617      21.95514523      -1.20551571      -0.27280924       0.48360103      -0.64704573      -0.20203544       0.10122358
O       30.84874922       2.29006041      20.14888781      -0.09250608       0.45049665      -0.37761629       2.74620247       1.52404583       0.50369924
S       32.09696096       3.07855444      20.31139592       1.14824581       0.40138570      -0.58539842      -2.90754986      -3.27449179      -1.63739038
O       32.84609532       3.28149608      19.11471368       0.09781224       0.15040638      -0.47406542       0.63162488      -0.30130631      -0.09985983
N       32.81967771       2.55648477      21.60011891      -1.08957760      -0.13232668      -0.79091132      -1.05084014       0.07137749      -0.73805672
S       34.11227050       3.22634048      22.12994267      -0.33684636       0.20094933       0.68209955       1.02239144       1.91234076      -1.24573708
O       35.11823933       3.56528152      21.14081367       0.79510023       0.37345207      -1.65170056      -0.91685438      -0.66061282       1.07462597
O       34.45196285       2.62368436      23.35500811      -0.03026935      -0.18775211       0.65561819       0.81296098      -0.87469202       0.92747474
F       33.54434510       4.63493451      22.56646440      -0.09307942       0.52018673       0.58908209       0.12867713       0.23379835       0.05046997
F       31.61678689       4.48826370      20.57818382       0.67325623      -0.53006940       0.09587261      -0.53159189       1.86531186       1.17076647
O       24.46526769      12.32347009      27.89792091       0.06551571      -0.42849923      -0.20921623      -1.66190004      -1.82700825       0.77445972
S       25.21298227      13.28242361      27.23954209       1.30673310      -1.04020713       0.94542939       0.64310288       2.19977570       2.49911118
O       26.59700402      13.35842530      27.38847683      -0.46888470       0.74454537       0.30523364       1.65249944       0.12825002      -0.39847499
N       24.58394322      14.74832816      27.65734281       0.02680380      -0.32533916       0.44180934       0.35545018       0.59508038       0.09832670
S       25.34556135      16.21990864      27.82550321      -1.86392637       1.02775124       0.27452015      -0.59504086      -1.46983051      -0.10200500
O       26.59435281      16.10613775      28.48684795       0.66123433      -0.30211952       1.29790187      -0.50980127       0.18489520       0.07744421
O       24.31078990      17.13205992      28.16764513       0.37025619       0.07740711       0.34808576       0.53725052      -0.16273831       0.26290402
F       25.67983737      16.48522219      26.35221102      -0.29053440       0.46054484      -0.41852595       0.29827356       0.27678910      -0.68349004
F       24.87224199      13.20434713      25.79014437       0.09030130       0.38481977      -0.75937584      -0.44981813      -0.04425479      -2.36596298
O       34.11051892      -1.62395921      26.91946822       0.34733726      -0.74687243      -0.76061301       0.34555268      -0.22911882       1.02371967
S       33.61897770      -0.61092319      26.07574304       0.46461082      -1.16737153       2.42359679      -1.49495113       1.60795832       0.38073635
O       34.21071753       0.70423710      26.01484426       0.41947743      -0.64422499       0.21847595      -0.06691930      -0.84731573       0.17278065
N       32.03888361      -0.54943967      26.16287823       0.76493064       0.16812048      -0.63209316       1.50097322      -1.27733767       1.11315727
S       31.12519126       0.43911647      25.45083490      -1.23223270      -2.42607330       0.84760096      -0.19471733       0.11494410      -0.63170147
O       29.80206814      -0.08729350      25.51102439       1.04635868       0.56714768      -0.26773818      -0.84063321      -0.11083218      -0.09920356
O       31.61246535       0.92776933      24.20273017       0.37560444      -0.01855955      -0.12143902       0.03291389       0.32311875      -0.31024826
F       31.08430173       1.65984340      26.39461156      -0.18636927      -0.64668846      -0.30179560       0.07884321       0.84806186       0.34417480
F       33.80380707      -1.21282670      24.68878991      -0.16036338       0.37053436      -1.64032719       0.35423371      -0.22423171      -1.81771314
O       26.34856091      12.62020025       9.42133856       0.45167517      -0.94499648      -0.11559683       0.10142947      -0.79950249       0.88468063
S       25.69896575      13.67775796       8.72602183       1.05842406      -0.89674541       0.78030854      -0.02671593       0.56134278       1.52522790
O       25.17585062      13.37399986       7.47826835      -1.14211121       0.70577531       0.16674872      -0.71209288      -0.48530000      -2.78720379
N       26.47014879      15.01549344       8.80661500       0.13501799      -0.02230902      -0.25372947       0.64986950       0.96298277      -0.52391434
S       27.93163606      15.13151747       9.31300204       0.57415348       0.47144175       0.76405946      -0.20836331      -4.01052761       0.02377319
O       28.48325753      16.39512272       9.17781375      -0.40078594       0.71964467      -0.45891302       0.75016880       2.37031221      -0.37275991
O       28.79677696      13.98339004       8.92769491       0.49290713       0.36238308      -0.27092608      -1.07354510       1.53307092       0.78276253
F       27.69488825      14.92334711      10.85995468       0.39527726       0.33857995       0.12598836       0.47574091      -0.13674293       0.17952576
F       24.41138706      14.05312353       9.53187337      -0.25927784       0.26857154      -0.55969163       0.24834108      -0.08995397       0.59008509
O        8.62405654      13.59590798      29.62656599       0.20114046       0.63055853      -0.29355052       0.90051389       1.54552567       0.86633015
S        9.67097229      14.45031576      30.15395661      -1.01114476      -1.47248225      -0.76386314       0.47628298      -1.83641410      -0.10831351
O        9.50140875      15.84257881      30.16131711       0.15577695      -0.22627246       0.15957423      -0.86123681       1.72239745      -0.00145254
N       11.11395784      14.16430021      29.61185994       0.66231468       0.50968656      -0.29937601      -1.06468809       1.26617742      -0.08970277
S       11.56854696      12.71232500      29.45012360       0.43263370       0.16453567       0.80080948      -0.09513338      -0.60362297       1.33735669
O       12.41510635      12.58005232      28.33997365      -0.62014783      -0.20018510      -0.58829782       1.35690939      -0.42651847      -1.61457753
O       10.58254415      11.73944507      29.73600870       0.29862901      -0.48121660       1.04722641      -1.06793427      -0.94091165      -0.20013888
F       12.48993981      12.53340229      30.69528589      -0.43107922      -0.62262441       0.27372583       1.07675350       0.14240561       0.74379426
F        9.83495670      14.10671497      31.69816198       0.28870310      -1.06001772      -0.20898206      -0.57094944      -0.34587422      -0.36282775
O       23.97695272      -0.04416768      17.15952703       0.26998873       0.56353850      -0.44881924      -0.38071629      -0.28160238       1.90239203
S       24.56731077      -0.00242277      15.88280102      -0.34254184      -0.04531161      -0.05083896      -0.25421077       0.12588289      -1.23078179
O       25.92663979       0.37549837      15.73404540       0.32201971      -0.44469284       0.59375981       0.14496455      -0.01286706      -0.09897449
N       23.64126106       0.70343365      14.83815346      -0.88223585       0.24032287       0.14837641      -0.04307779       0.64691782      -0.36727020
S       22.11723425       0.93768180      15.06734744      -1.20998409      -1.27609946       1.57047564       1.65237141       1.55945802       0.94843119
O       21.41262564      -0.09415221      15.69357724       0.51413848       0.25710324       0.00302038      -0.98446834      -1.93388915       1.43181968
O       21.54696714       1.53526163      13.93825431      -0.25415620      -0.88731501      -0.37856292      -0.80963635       0.96777338      -2.39406013
F       22.01468091       2.18129175      16.10878285      -0.14393343       0.09872578      -0.59847728       0.35473117      -0.90827221      -0.27882338
F       24.50958084      -1.48022040      15.35146745       0.43300237       1.22494207      -0.35562461       0.07646580      -0.40150014       0.11065686
O       17.78150807      19.87615164      16.20150697      -0.04374758       1.01115938      -0.73508322      -0.01360065       0.71895063      -0.66455841
S       17.69112667      18.60295986      16.83257296      -1.93909999       0.65632661       0.48919619       1.14576721       2.01668787      -1.79949379
O       16.75414665      17.72124713      16.22713403       0.56628321       0.30929725       0.70169309       0.04096760      -0.89907730       0.58953106
N       17.73938208      18.88933716      18.33671962       0.15243602      -0.64330005      -0.64076604      -1.05309606       0.31881601       0.86508751
S       17.55268211      17.75822123      19.35750107       0.42070404      -0.53814682      -0.74774054       0.82686979      -2.20249104       0.17922392
O       16.79878133      16.61142203      18.92982795      -0.02364056       0.04843129      -0.54944691      -0.34383354       0.49153304      -0.01110469
O       17.34383774      18.27172162      20.65074467      -0.08321342       0.31678804      -1.12865899      -0.54298466       0.63902336       1.15042555
F       19.01183679      17.16795026      19.42812555       0.29386576       0.14571585      -0.50077019       0.15656203      -0.01234990       0.14379127
F       19.13826367      18.01994207      16.64074086       1.53498617      -0.70946397      -0.45650191      -0.29861796      -0.64991462      -0.45914766
O       17.09079179       7.16017667       9.03246117      -0.20864255      -0.46491551       0.07533831      -0.75851476      -0.48636067      -0.32844895
S       15.92060536       6.53089048       8.47570563       0.09888488      -1.11842778       1.82181992       2.44182611       1.90016806      -0.41446584
O       15.85046389       6.27244380       7.09532863       0.24290002      -0.11763637      -0.47817740       0.69425285      -0.93667078      -1.60478282
N       14.66705948       7.29175245       8.90493641      -1.19147707       0.01219290       0.06760800      -2.13904166       1.34933460       1.16646838
S       13.33879682       7.23361703       8.06229406       0.94986382      -1.07297335       0.03020584       0.86542314       1.67476153       0.07583562
O       12.40350394       8.07413470       8.73533837       0.00471934      -0.00069444       1.38882432      -0.50732762       0.40124458       0.40331805
O       12.92092514       5.97767945       7.60076588      -0.39402393       0.15823143       0.28166824      -0.31020796      -1.23332596      -0.52935791
F       13.68855210       8.09396892       6.77471177      -0.19805241      -0.56557629       0.21385596       0.11641523      -0.40570128       0.19513389
F       15.78924724       5.20586300       9.19803191      -0.18819781       0.86729082      -0.66690082      -0.04729923      -1.79419231       0.80708498
O       30.77845700      11.93711290       9.93343782       1.13774761      -0.37632241      -0.17750042      -0.98573357       1.17053580      -0.67044902
S       31.53545648      10.98310134      10.65179910      -0.16810068      -0.22176598       0.71354995       0.45453352      -2.47327662       2.03564143
O       31.96389640       9.80817275       9.99038273      -0.41878679       0.59555193       0.49196664       0.27941734      -0.15809453      -0.35531852
N       30.89992351      10.55757359      12.04433732      -0.20622157       0.20308713      -0.98489637       0.58744484       0.44019526      -1.08923721
S       30.08335424      11.66739239      12.79988343       1.52936465      -1.12628523       0.31692230       0.05744674       0.06448787      -0.45084479
O       28.80195186      11.92729604      12.25364532      -0.33099946      -0.14787593       0.59426493      -1.26454866      -0.13683981      -0.61351103
O       30.80102456      12.81992723      13.16366190       0.02944048       0.53649884       0.22753535       1.47233617       1.20350015       0.46660486
F       29.81394819      10.89899079      14.08184253      -0.00521508       1.13841707      -0.06631319      -0.14605314      -0.87534148       1.17397368
F       32.84582809      11.75060803      11.02116819      -1.09333329       0.12127476       0.66387519       0.00169431       0.20801826       0.19667150
O       14.87163671       7.52759851      28.72656635      -1.15438645       0.35044714      -1.01344044      -1.31946421      -0.93750596      -0.16715275
S       15.81445007       8.51068351      29.09554234       0.85289879      -0.58272727       0.58133239       1.20543969      -1.46465623       0.42924240
O       15.58786731       9.82622324      28.69442920      -0.18960934      -0.60444589      -0.27919074      -0.49483633       2.51526380      -0.40167075
N       17.30057504       8.12043208      28.72161803       0.42530360      -0.03481172       0.23482127      -0.14880867      -0.01730335       0.06191123
S       17.74210582       6.61625127      28.77247349       0.18318198      -0.63097282       0.67627357      -0.57150966       1.85887408      -0.12109327
O       19.02537962       6.60737023      28.17696775       0.12764085       0.28021531      -0.49986000       1.05139613      -1.03800440      -0.48135853
O       16.77297826       5.65739915      28.41971160      -0.88072269       0.84401681       0.11212723      -0.68745077      -1.34141135      -0.69783890
F       17.95399243       6.36087284      30.28256302       0.00535566       0.68343145       0.91951171       0.48152763      -0.25087917       1.07184315
F       15.84012292       8.48496627      30.66434557      -0.02035735      -0.73745999      -0.46512423      -0.11142381       0.12200929      -0.14733557
O       20.05565978       3.39726143      18.58019401       0.74974502       0.01121400      -0.17645634       0.31022954       0.00883269       0.32910770
S       19.38278561       2.23252460      18.11185343      -0.35197191       1.21849055       1.57587204       0.30935469      -0.92217594      -1.47527862
O       19.86707427       0.91383857      18.44218451      -1.55352002      -0.35568591      -0.29376008      -0.21042769       1.18374300       0.28674072
N       19.04274130       2.23985605      16.56472546      -0.67228124      -0.64918969       0.45121816       0.13707530      -1.19706631       1.82709861
S       18.77881508       3.59375105      15.88982818       0.07891129       1.70580581      -0.17022546      -2.61074424      -1.33835495      -0.50058931
O       19.95187316       4.22010291      15.49175222      -0.90957924      -0.55464922      -0.00118196       2.38398528       2.10483575      -0.82572651
O       17.70811929       4.35666801      16.43389472       0.11701715      -0.39930399      -0.16953130      -0.23839700       0.56122911       0.47063363
F       18.16335933       3.04001149      14.54890950      -0.06169838      -0.07910273      -0.10337817       0.04789566      -0.04885047      -0.13079640
F       17.97626055       2.32842905      18.79594545      -0.33000669       0.46532689      -0.37470009      -0.22423384      -0.10319386       0.31914917
O        6.00445210      21.86029218       4.91935925       0.18044026       0.14412060      -1.20636716      -1.08056211       1.42454028       0.79984170
S        7.06974005      20.97536964       4.64875617       1.47731114      -0.43925618      -0.02060977      -0.97694629      -1.64450336      -3.72166705
O        6.69625289      19.59845989       4.53458696      -1.05280942      -0.14017523      -0.77649832       0.29247326      -0.36437193      -0.00513043
N        8.29372607      21.28910077       5.43103371      -0.98700757       0.77533694      -0.94772599       2.15339541       1.37140596       1.45885503
S        9.68543188      20.57920151       5.51091296      -0.03384146      -0.91314000      -0.18281399      -1.49008763      -0.62997818       0.22595225
O        9.55559995      19.17428064       5.31994858      -0.30327172      -1.17978984       0.22737274       0.39361408      -0.43834335      -0.15725210
O       10.43330148      21.06706750       6.60049032      -0.01177190      -0.12337993       0.35539738       0.37722152       0.38039041       0.79226971
F       10.42407086      21.09988461       4.27526694       0.60345546      -0.78388753       0.31204540       0.39204562       0.36718386      -1.06611836
F        7.45448489      21.39083766       3.11449808      -0.00223609       0.41314776      -0.39304161      -0.03816359      -0.49591371       1.27887905
O       13.58238142      16.83231801      16.34156885       0.38602164      -0.19876260      -0.47226748       0.60382843       0.64155883       0.02367636
S       12.56213577      15.97949666      15.83285558      -0.18378764      -0.15398464      -0.60502528      -0.75831723       0.33304042       0.60398382
O       13.02348325      14.79875356      15.18547467       0.09682381       0.42509628       0.79028556      -0.38289452      -0.51856023      -1.05740893
N       11.33524762      16.65868853      15.12713710      -0.71835037       0.19103150       0.59871967       0.88831192      -1.48002017      -0.12283720
S       10.89732813      18.10466920      15.53821899      -0.78709838      -0.89227205       0.27003352       1.38611233      -0.22201854      -1.24401379
O       11.23990336      18.44760770      16.85893016       0.37783768      -0.24338434       0.60163740      -0.11004189       0.59084940       0.95783299
O        9.60627649      18.34455707      15.01992604       0.63210577      -0.24419780      -0.62367149      -0.84448695       0.30461353      -0.40855652
F       11.88887799      18.93326721      14.57443675       0.40718558       0.87865359      -0.84879137      -0.57792252       0.02721584       0.70482278
F       11.91310652      15.40415691      17.14836393      -0.75049767      -0.30009867      -0.13158275      -0.27568051      -0.11266396       0.40003759
C        8.78645423      14.76601940      13.55563289      -0.06004621      -0.69209286      -1.00664583      -0.73987514      -0.57767314      -0.27759853
O        9.96151958      14.76332326      12.80184940      -0.83013318      -0.97726717       0.02591088       0.47214296      -0.47404060      -0.71190065
C        9.91372327      15.80141249      11.84238962      -0.70853442       0.53792454      -0.45917840       0.79769897       1.32037032       1.20288694
C       11.21204827      15.78992278      11.05336833       0.22737694       0.77903248      -0.85202804      -0.68275636      -0.62651843      -0.38763133
O       12.37282592      15.68004987      11.85347070       0.60533612      -0.81175338       0.34278936      -0.50866145      -0.80551064       0.47286701
C       13.02252932      16.90758808      12.04365587      -0.38798825       0.75252004      -0.44864528       0.32372418       1.03860188       0.11215345
H        8.80710347      13.95874575      14.28471349       0.04589523       0.11251251       0.27677409       0.18065092       0.19165254      -0.04976548
H        8.68748800      15.73262959      14.02816009       0.19665993       0.28743595      -0.04550730      -0.28208986       0.29117575       0.45880827
H        7.94002746      14.58262933      12.87158837       0.16282154       0.08098427       0.29235537      -0.00164394       0.23220047       0.31792384
H        9.01694993      15.75063583      11.23521782      -0.19304884      -0.04641373      -0.14211847      -0.08983870      -0.40392289      -0.56585890
H        9.80324394      16.74159099      12.40204175      -0.12297977      -0.25826967       0.19820302       0.14487192       0.13544080       0.04560830
H       11.29508819      16.64257898      10.38932635       0.08143024      -0.17248178       0.13214503      -0.14034721       0.30530211      -0.08805415
H       11.11606378      14.90923395      10.42260556      -0.34305623      -0.04033196       0.19997924       0.57491064      -0.28283086      -0.19353493
H       12.31403933      17.71004105      12.29096339       0.29362850       0.04951055       0.00092327       0.07256670      -0.23087445       0.15176930
H       13.78094334      16.86639505      12.85592034      -0.01540592      -0.03308118       0.04474686      -0.53593761      -0.34328184      -0.58945215
H       13.48693835      17.17498469      11.09273399       0.27046222      -0.00644853      -0.05087936       0.35521951       0.17935105       0.06543569
C       18.84365267      17.32841801       2.34422596      -0.54515388      -0.15611767       0.18487221      -0.45007125       0.45454416      -0.13830899
O       20.24891837      17.39598432       2.24660429       0.49344073      -0.20600548       0.26265228       0.34120506       0.31231657      -0.40437749
C       20.95770804      16.50470414       3.08752345       0.29005409       0.41486577       0.21465444      -0.01882911       2.14370108       2.81557894
C       20.90864533      15.03607976       2.77877225       0.31259557       0.30540383      -0.96631039      -0.24557766       0.20791586      -0.49665651
O       21.85978266      14.77202068       1.75122697       0.82540231       0.17259664       0.75268986       1.13985467       0.52056533       0.27782702
C       21.50346219      13.73192510       0.91105346      -0.97426308       0.30988559      -0.48218550      -1.59335065      -2.01218677      -0.74153948
H       18.45224973      17.11896369       3.37435623      -0.14771827       0.18568572      -0.00984225       0.43265224       0.46798939      -0.76082146
H       18.39794012      18.22174664       1.85164346       0.09667893      -0.01769757       0.09243034       0.40251720      -0.06106797       0.90885037
H       18.52671687      16.57243981       1.67561181      -0.15141699       0.02597498      -0.19220675      -0.71169508      -1.40013945      -0.40494761
H       22.02192997      16.88378306       3.06803558      -0.07174426      -0.07398889      -0.05177774      -1.00360358      -0.65085042      -0.00584476
H       20.54678860      16.80171354       4.18161015       0.13239028       0.14129292       0.19606672       0.99070936      -1.36029279      -1.94179630
H       19.90313576      14.69023159       2.49040970       0.08733965       0.08025746       0.15419752       0.21601577       0.19031425      -0.11733316
H       21.22074319      14.45811022       3.61596759       0.20923212      -0.12306726       0.09786437      -0.01180748      -0.30218649       0.97061700
H       21.17330389      12.78977690       1.40608172       0.00043133      -0.02089068      -0.11080484       0.40455818       0.57256579       0.34983677
H       20.61463781      14.07026286       0.39725585       0.10462826       0.06619908       0.08534523      -0.31630787      -0.07413723      -0.77947611
H       22.23557802      13.36918078       0.17362848       0.10776496       0.05887916       0.05092562       0.24867892       0.94846863       0.45766500
C       31.64922314      17.01148805      34.18867086       0.84808662       0.73965732      -0.62250754       1.09218895       0.31858218       1.12559068
O       32.25041551      15.72990707      34.14981298       0.22766938      -0.82136783      -0.25152546      -0.86311746       0.27793440       1.71759486
C       32.98479369      15.45697563      33.01606611      -0.00064098       1.03764383       0.36048482       0.82504100      -0.02239940      -1.18985486
C       33.92817056      14.26850509      33.26615124       0.14723442      -0.02445409      -0.06952684      -2.53413749       2.07710719       2.40391207
O       33.12664074      13.18064030      33.72912714      -0.62366225      -0.06536778      -0.49822046       1.88611662      -0.06946002       0.29625902
C       34.05348095      12.15400640      34.24424563       0.38157415       0.04167012      -0.22498673      -2.15352678       0.93213642      -1.22404444
H       32.46684257      17.69659051      34.26578993      -0.09171657       0.05764434      -0.02504867       0.38596737       0.76961720      -0.31127524
H       30.99855286      17.31717064      33.38764113      -0.03308252       0.29443743       0.14666946      -0.26298937      -0.44728833      -0.54381973
H       31.15412337      17.12007059      35.14675561       0.09594604      -0.12106773      -0.05631781      -0.43709099      -0.31361488       0.01717967
H       32.19110468      15.11211381      32.34604669      -0.24045440      -0.13811537      -0.13283119       0.63722956       0.25478339      -1.22129083
H       33.59665575      16.36067301      32.64751055      -0.01111635      -0.01492844       0.16692420      -1.11491764      -1.31194866       0.34071007
H       34.74715930      14.58191896      33.92357956       0.07074030       0.11455264      -0.14653626      -0.28597781      -0.35361192       0.44965392
H       34.30896563      14.01906333      32.37423098       0.18001527       0.43138826      -0.13820966       1.74312580      -0.96838778      -3.31453753
H       33.32556906      11.37755331      34.40993398       0.12548211      -0.03687130       0.03576870       0.55281806      -0.78756618       0.63374621
H       34.77497949      11.85926807      33.49017001       0.04122726       0.12176155       0.10801905       0.10735501      -0.02261593      -0.22225562
H       34.51807790      12.60955334      35.09077289       0.23867280       0.06213697      -0.06452153       0.45787132      -0.28935537       0.89537430
C       14.01242085      12.87677576      19.29970552      -0.13645972       0.43643072      -0.00373539      -1.37981188       0.48904777      -0.12066770
O       13.60626080      12.08709402      20.36780099       0.08290482       0.35628778       0.73377891      -0.15090083      -0.67443788       1.02449453
C       12.34122529      11.52589908      20.15878538      -0.23257241       0.75270456       0.02935293      -0.83598661      -0.32610965      -1.22180712
C       12.11965555      10.40732990      21.10735741       0.03294870       0.24162331       0.31099512       1.13851345       0.76298714      -0.26866350
O       12.95647439       9.36323436      20.71057747       0.63209895       0.17556895       0.12351667       0.27448097      -1.14279318       0.62252218
C       12.71936348       8.24271723      21.57083414      -0.08528925      -0.00160377      -0.40019830       0.15793556       0.50351775      -0.12715000
H       14.27173674      12.28273107      18.43799508       0.06361135      -0.11807857      -0.05599885       0.02899526      -0.22881946      -0.44181329
H       13.14857505      13.53523480      19.10400741       0.29888501       0.07157086       0.17185809       0.61722934       0.22232153      -0.59735900
H       14.85776972      13.41208915      19.62811632       0.00999957       0.14264165      -0.22209154       1.02344549       0.85103834       0.17643394
H       11.49527813      12.21242255      20.24182866       0.03000336       0.11552912      -0.14088369       0.25387779       0.62761635       0.18110451
H       12.28403108      11.14767124      19.12021095      -0.06895445       0.17882198       0.11477692       0.01470235      -0.06676798       0.24067405
H       11.09819695      10.11776672      21.13040997       0.09218541       0.09842390       0.08972900      -1.16966188      -0.36962032      -0.01660184
H       12.41405945      10.76027444      22.08794126      -0.10218026       0.45353828       0.06459789      -0.11467502      -0.00259912       0.70108402
H       12.73652353       8.50771887      22.61821769      -0.10974747      -0.00224319       0.04229248       0.39258853       0.35550040       0.32508814
H       11.72756368       7.88890041      21.40701272      -0.08994637      -0.04307001      -0.02422399      -0.87230039      -0.64542747      -0.38172406
H       13.44745728       7.47607780      21.38766999       0.04760945      -0.16185767      -0.08192137       0.31194285      -0.30560881      -0.25265056
C        7.11470565      23.21819087      14.38298893       0.34560929       0.60659927       0.50887129      -0.68315709       0.98087019      -1.37201035
O        7.36683814      21.87135559      14.13909273      -0.20578927       0.20613375       0.03390609      -1.05215657       0.30561012       1.38815272
C        7.56643078      21.63115721      12.81076590       0.02714895       0.82118753       0.01191235       1.19648004      -0.82366014      -1.17459774
C        7.78405831      20.14032337      12.66173058       0.02877746      -0.34419353      -0.09739202       0.23217884       1.44206429      -1.74550390
O        6.58548701      19.46403605      12.78290420       0.03398020       0.06387842      -0.36237028      -1.37703717       0.67784268       0.69090188
C        6.75690126      18.09835206      12.77881590       0.02561002      -0.22145427       0.07447072      -1.25409079      -1.49383092      -0.90036470
H        6.64553225      23.27975881      15.30316461      -0.10673118       0.10444677       0.18432561      -0.16266181       0.13793036       2.58243966
H        8.01923298      23.84620318      14.29927134       0.07804560       0.04416655      -0.07252725      -0.30050549      -0.14065370      -0.00003973
H        6.25312708      23.63558993      13.79524505      -0.07656378       0.07215502       0.09453182       1.06406331      -0.38233760      -0.54530710
H        6.76432070      21.93906322      12.13440917       0.05776753       0.16202868       0.07231667      -0.33280933       0.15882152       0.32602507
H        8.46320130      22.21310466      12.53565008       0.03809355      -0.23331138       0.25449380       0.04056593      -0.40415913      -0.51091158
H        8.55008819      19.79294705      13.31327709      -0.00711162      -0.34707002       0.01604750       0.61636722      -0.44609535       0.83732939
H        8.09927656      20.00685121      11.63564225       0.06662912      -0.06536567      -0.06847448       0.62058866      -0.23372822      -0.53870440
H        7.23120061      17.73419694      11.83632403      -0.02135722      -0.04528258       0.12385259      -0.08783714       0.21592622       0.45953584
H        7.32045307      17.79106476      13.63346855      -0.07336910      -0.20490337      -0.07388550       0.66776419      -0.43527851       0.60338348
H        5.74770979      17.61319348      12.84251806      -0.03289465      -0.18641173      -0.35364916       0.78060567       0.44735464      -0.07565986
C       27.57807126      16.68801063      13.83782274      -0.25010719       0.44610209       0.82962008       0.82140744      -0.93002856      -0.77546012
O       27.95319536      15.87052261      14.91531613      -0.26579443       0.03659227      -0.07098865       1.04903233      -1.68973780       0.78411949
C       29.19466200      15.17697506      14.67086428       0.02449691       0.52935139       0.39200804       0.90706223       1.62392306      -0.18028672
C       29.52049845      14.12365423      15.66623539       0.08228100       0.39166938      -0.04323262      -0.66535467      -0.95816255      -0.83450675
O       28.52217927      13.06483078      15.50734699       0.51338937      -0.18602594       0.25637340       1.18442106       2.52903676      -2.02568936
C       28.39810852      12.38392310      16.66320185       0.38350473      -0.53680475      -0.42760059       1.01082051      -0.13169301       1.34341776
H       28.38004445      17.48616824      13.74538097       0.00699583       0.03917322      -0.22534615      -1.19392443      -0.62616509      -0.33924362
H       27.44959923      16.00660890      12.93904227       0.34629696      -0.07635006      -0.00310613       0.47918057       1.34443796       0.63451016
H       26.59299825      17.01978245      14.11271357       0.13806522       0.15124981      -0.12519110      -0.25030044       0.80818415      -0.18316841
H       29.23820271      14.58084430      13.76283573      -0.14526432       0.15173854       0.15069192      -0.58064270       0.60654211      -0.86145538
H       30.00958348      15.97381637      14.63410455      -0.04257442      -0.19649225       0.01485464      -0.78408206      -1.19100308       0.01133256
H       29.37689484      14.45912162      16.65654178       0.09237291      -0.01381915       0.02519669       0.43833986       0.58681792       1.35522628
H       30.53752272      13.71141348      15.44484379       0.27762394      -0.08001099      -0.11334460      -0.73876423       0.38389280       0.43568623
H       27.62192118      11.72340666      16.46775969       0.08377093       0.02885714       0.01412626      -1.28674054      -1.86006880       0.27733794
H       29.36181707      11.90816194      16.87902571      -0.04173837      -0.27959749      -0.06686051      -0.21990982      -0.47481984       0.43247852
H       28.11661096      13.03204976      17.49479454      -0.15265136       0.02344951      -0.10737797      -0.03633539       0.09164575       0.34158799
C       33.52466971       8.84390750      19.83708623      -0.87378074      -0.15607021      -0.45139217       0.27220127      -0.16847779      -1.69003808
O       32.39117992       9.63610681      19.42734601       0.36541133      -0.84333964       0.28193594       0.55190122      -1.57188797      -0.46960577
C       32.57248959      11.02947686      19.42237401      -0.07249417      -0.14965028      -0.65207443      -0.57083571      -1.87226486       1.65299821
C       31.21764800      11.64040815      19.40799673      -0.86396172      -0.13341825       0.13859052       1.17457306       2.05764389       0.67827320
O       30.46955690      11.44188905      20.61209636       0.36440354       0.55947391      -0.26552435       1.48306155      -1.31549525      -1.43559849
C       29.25063486      12.10224797      20.57498452      -1.00548562       0.22012902       0.49080484       0.75300092       1.44603217       0.43233007
H       34.44036613       8.86808079      19.11675817      -0.40075766      -0.09566348       0.15434680      -1.34760296       0.70402431       1.06559873
H       33.83246551       9.04114049      20.86606258       0.20061464       0.05563891       0.02778191      -0.08166427       0.07560886      -0.28404972
H       33.19626878       7.81016883      19.69212810       0.05783678       0.04145070      -0.15370414      -0.09987952       0.26289377       0.56721365
H       33.07604314      11.18779140      20.36262892       0.54549024      -0.07780196       0.22614469       0.29948279       1.09967673       0.38315165
H       33.21253212      11.31041488      18.60987603       0.34836636       0.16087835       0.18950643       0.22016412       0.66227353      -0.68676043
H       30.68468356      11.42171571      18.52696447      -0.29521823       0.20701697      -0.15285948      -1.03839958      -1.14000690      -0.99635327
H       31.44755105      12.70638933      19.21975235       0.17389079       0.06076668       0.10347460      -0.38931188       0.27495119       0.63131362
H       28.63132543      11.92411696      19.72629882      -0.03916425       0.12072843      -0.16080835      -0.46693990      -0.58564150      -0.82454848
H       28.75899329      11.84950110      21.48314106      -0.07618402       0.04450190      -0.20717757      -0.71434098      -0.10281347       0.68033051
H       29.51373611      13.15901292      20.56610562       0.18655503      -0.05552177       0.19020539      -0.56684041       0.53490835       0.07033380
C        6.38689368       6.38873235      17.44567677      -0.58657346       0.22349255      -0.28411564      -0.80261946      -1.57362485       1.24742126
O        7.30745140       5.37920927      17.07003815      -0.05698338       0.46163455      -0.46347374       0.38465768       0.75415611      -0.93531716
C        7.16592918       4.06391569      17.49100366      -0.29389703      -0.32549693       0.49967804      -1.77456141       0.01068637       0.66313899
C        6.08012065       3.28021338      16.71296491       0.86746300      -0.01760956      -0.82285892       0.70768839       0.65640569       3.20485544
O        4.77487003       3.63021899      17.18655741      -0.07931181      -0.24886405      -0.15356379       0.73273671       0.74631906       0.02231581
C        3.79773708       3.33192604      16.23482104      -0.47644125      -1.05374359      -0.04482125      -1.06473660      -1.11810088      -0.56866711
H        6.72799431       7.26980608      17.00514288      -0.06542150       0.19023298       0.00298997       0.36657426       1.48309374      -1.04003406
H        5.31377177       6.21129707      17.19739790       0.10231569      -0.06663596       0.10883785       0.75525302      -0.10966939      -0.06373540
H        6.47555319       6.57071330      18.51018432       0.07114684      -0.12800721       0.00285450      -0.24903877      -0.12274018       0.43921664
H        8.08908823       3.54944801      17.26536483       0.21139788      -0.00225652       0.18236464       0.53988379      -0.00689588       0.09749936
H        6.96503513       4.03862175      18.59831422      -0.02691678      -0.01464254       0.03953693       0.16163670      -0.21475556      -0.84719771
H        6.30354428       2.27570705      17.02284815       0.11754558      -0.08085489       0.14478642      -0.22576888      -1.01431704      -0.31472063
H        6.26077531       3.41337549      15.68550944      -0.43705850      -0.10217244      -0.03702178      -0.33163851       0.27016720      -1.53023124
H        4.11667059       3.74155612      15.27024063       0.04525435      -0.00521916       0.11247496      -0.34736773      -0.28311762      -0.07935839
H        3.63750387       2.22511633      16.22332684       0.16867459      -0.31466054       0.13726461       0.25819862       0.76012486      -0.44577992
H        2.80116125       3.72386395      16.49221664      -0.10317089       0.10185349      -0.14459216       0.55535692       0.32851887       0.22597857
C        7.20229808      17.62137416      22.50344641      -0.35542144       0.09313467       0.13837617       1.12058210       0.03039288      -0.57228941
O        6.69481320      18.89211319      22.20455480       0.23585656       0.14975602      -0.79432219      -0.14309116       1.56478941       1.20748925
C        6.77261843      19.83699550      23.30475711       0.04348334       0.21368780      -0.24203057       1.34731138      -0.54767311      -0.33314368
C        6.17109472      21.11918167      22.90586231      -0.05373829       0.19323878       0.26688963      -0.11077311       0.28228766      -0.89196014
O        6.90074637      21.61229703      21.80536020       0.68654076       1.53043960       0.41088810      -0.16405983      -0.16696079      -0.07298104
C        6.71647259      22.98170612      21.46068487       0.55294244       0.29731557      -0.21253086       2.29407048       0.30011153      -0.57523829
H        7.10570778      17.07468512      21.58407161      -0.10603218      -0.05164581      -0.12711949      -0.09857596      -0.53568500      -0.27206722
H        8.26902578      17.57734809      22.78590116       0.04657596      -0.17601797      -0.27186544      -0.32991153       0.51837742      -0.00281447
H        6.62583330      17.18972993      23.27047204      -0.00820069      -0.23015611      -0.02978625      -0.74535239      -0.81187153       1.04512167
H        6.30278384      19.53651927      24.21430902      -0.25766368      -0.03654814      -0.00825466      -0.84902751      -0.96457887       0.57940543
H        7.81903651      19.99601734      23.61374388      -0.20874846      -0.05586495      -0.01315164      -0.06998660      -0.10983208      -0.47051495
H        6.17841607      21.82354410      23.69988785      -0.30238101       0.02577062      -0.17958169       0.40587947       0.65571874       1.13046634
H        5.11517443      21.00421574      22.70104713       0.02407162      -0.02202354       0.14236403      -0.51701671      -0.17570312      -0.58800417
H        5.71443879      23.19505349      21.10263592      -0.05756745       0.04725176       0.07583321      -0.11824051       0.21493867       0.25387484
H        7.13196009      23.69142969      22.23977143       0.03938934       0.02819406       0.05927788      -0.92403716      -0.89608926      -0.60050720
H        7.44831705      23.08683051      20.61938274       0.06970137      -0.26271019       0.06187054      -1.01033032       0.26917079       0.58573073
C       30.90384258       6.63712478      17.72304082       0.33363017      -0.17636169       0.02672784      -0.65995204       0.27579936       1.76151609
O       29.84054053       5.77595252      17.36462094       0.29337764      -0.73772728       0.03064416       1.43219590       2.13420820      -2.99069381
C       29.47614845       4.90475191      18.31128885      -0.15527273      -0.17654091      -0.15752277      -1.69349277      -0.03069145       0.91321874
C       28.23215711       4.28144291      17.81281188      -0.24929178       1.01131084       0.46002192      -0.66107523      -1.17114639       1.07776320
O       28.49800715       3.57887310      16.64611303       0.88317387       0.23435452       1.13667862       0.58369255      -0.46440339      -0.63753879
C       27.51895007       2.57072919      16.30838598      -0.72964782       0.24335091      -0.10770380       0.20658609       2.89132071       0.39676061
H       31.37402841       7.00076627      16.86537492      -0.03137376      -0.08794890      -0.01437939       0.77980357       0.37954468      -1.47907019
H       30.41677436       7.46341461      18.21651630       0.32156183       0.25978675      -0.07731985       0.20344144       0.65635097       0.36080420
H       31.66369514       6.25757290      18.43588785      -0.04466632      -0.14864904       0.21258605      -0.47116163      -0.48828650      -0.48942190
H       30.27109779       4.23528595      18.39935350      -0.36321338      -0.30005528       0.26146936       1.02445209      -1.68182206       0.92752153
H       29.22609039       5.43164540      19.22394853      -0.19049969      -0.03176086      -0.05441020       0.15240043      -0.01441049       0.80691987
H       27.40956857       4.99152861      17.79322663      -0.15050016      -0.16230433      -0.00339771      -0.15775719       0.68952847      -0.84101897
H       27.85530301       3.60036029      18.54983615      -0.23781036      -0.31461359      -0.19352560      -0.01577311      -0.80765229       0.74674690
H       27.26287181       1.99511939      17.14469076       0.06220194      -0.12215889      -0.01017427       0.10207374      -1.22064769       1.42601943
H       26.62540102       3.20530207      16.18636558      -0.18616990      -0.10295558       0.09887095      -0.23211145      -0.95622224      -1.29393256
H       27.98702108       1.98706737      15.53991831      -0.20053216       0.11315873      -0.11198621      -0.56821817      -0.11046800      -0.67669874
C        7.69547384      11.01420421       6.71055437      -0.00202217      -0.33653664       0.04885774      -2.00487661      -1.28178179       1.32124412
O        7.33100844      11.71759238       5.59835548       0.33616961      -0.59574295       0.87162044      -1.19206357       1.82174897      -1.60658789
C        5.88479821      11.89507986       5.48990205       0.93989284      -0.17951582      -0.38240752       2.22952175      -1.48997259       0.29426700
C        5.62563866      12.78936710       4.38228737      -1.14733872      -0.60604130      -0.06663029      -2.30876660       1.64875591      -0.64328206
O        6.12873528      12.27530926       3.19872639      -0.08448578      -0.39620116      -0.43931398       0.35287669       0.36263663      -1.08725107
C        5.88481646      13.20101428       2.13835748       0.42788051       0.74934773       0.20124071       1.40747964       0.05089816      -0.38263068
H        7.47076726       9.99174261       6.52853834       0.09576217       0.00877684       0.08418421       0.22981685      -1.50008571      -0.17284615
H        8.70734604      11.11957326       6.97782274       0.33288629      -0.10679960       0.02310973       1.03268087       0.48271227       0.23256533
H        6.98350718      11.19250949       7.53705325       0.22340118       0.15527447       0.13714884       0.60718805       0.59565037       0.28600413
H        5.42773487      10.94180947       5.20744864      -0.06027490      -0.12695331      -0.12204487       0.00071588      -0.31702441       0.48016375
H        5.53266221      12.25628487       6.44238044      -0.18051454       0.18689299      -0.21876261      -0.43591255       0.17461142       0.34115621
H        5.97545333      13.81002951       4.51337185      -0.08277227      -0.06033687       0.11772640       0.37618309       0.21406730       0.31265798
H        4.50348476      12.86935219       4.27193621       0.00437822       0.12546002      -0.09169800       0.69125611       0.03214207       0.22407141
H        6.33018015      14.20866538       2.27209600      -0.03012245       0.20964493      -0.11037359      -0.40698752      -0.37121347       0.76785636
H        6.42359943      12.86268139       1.26001695       0.23466819      -0.31769416      -0.05823756      -0.07411380      -0.65859336      -0.34141585
H        4.84735986      13.25148049       1.90640530      -0.21776681      -0.02723451       0.14989239      -0.99352020       0.14993605      -0.06875832
C       28.54208510       8.92719433      19.60669345      -0.25836176      -0.13413785      -0.43535895      -0.45089450       2.88630772      -2.83336210
O       28.32397394       8.84727418      20.93471014       0.39162455      -0.65164737      -0.27147971       1.11168885      -0.28917399       1.73938966
C       29.43990586       8.09871912      21.44828646      -0.15428100       0.90033123       0.07644900      -0.55470651       0.81370652       0.43709278
C       29.29518420       8.05285329      22.92420636       0.52442891       0.55650572      -0.70097496       0.08278131      -1.45804429       1.70506179
O       28.05765686       7.40924624      23.30681805       0.26755119       0.17834354      -0.23134196      -0.06666011       0.62440425      -0.35382104
C       27.86367291       7.46298346      24.71956757       0.26672326       0.54218060      -0.33240716      -0.65633601      -2.57358146      -0.43938577
H       29.54104905       9.29634440      19.33725303      -0.11607872      -0.12700274      -0.02265311       0.37294158      -0.64105225       0.26746705
H       28.29400387       8.01914533      19.10026072      -0.11220121      -0.02229477       0.03339991      -0.10390930      -0.79529417      -0.61207265
H       27.95952023       9.77939791      19.16146859       0.03110283      -0.19257767       0.04779884      -0.31935379      -0.94056207       0.39058217
H       29.41668882       7.12691133      20.94692484      -0.26245686      -0.07862737      -0.00021804       0.22150362      -0.23871467       0.28158078
H       30.39309479       8.62447868      21.24182629       0.18492305       0.10486718      -0.03098673      -0.35354674      -0.22405830      -0.22614062
H       29.28554020       9.05553096      23.38925842       0.00619453       0.14963172      -0.24760219       0.35715756      -0.29899263      -0.40705284
H       30.14854451       7.43136627      23.34988038      -0.03686560      -0.03598598       0.05588524      -0.71118587       0.91194719      -0.36778638
H       28.52163927       6.68724889      25.11000775      -0.03879458       0.06329277      -0.15839224       0.46277052       0.42505458       0.70705962
H       27.98797521       8.42603211      25.14344052       0.00845656       0.04272224       0.05526830       0.39599866       0.98419154       0.37775093
H       26.85947588       7.06346690      25.01326002      -0.07489342      -0.08625309       0.11261719       0.46682194       0.58114988      -0.71541536
C       19.77739467       2.80689637       6.87890914      -0.02793296       0.65818224      -0.03473384      -1.09255338      -0.24499026      -0.75062883
O       20.18330786       4.13097189       6.71850122       0.04582802      -0.46857445      -0.14670551       0.40055543      -0.12674038      -0.14237753
C       19.20276451       5.05176135       7.03597456       0.17385248      -0.13279041      -0.07041307       0.24929750       1.51516593      -0.58174813
C       19.83772776       6.40010121       7.12263269      -0.14068627       0.94386191       0.30393900      -0.90464890       0.79801595       1.88463044
O       20.69771994       6.40376209       8.28242332       0.49932934      -0.17824670       0.84260760      -0.16172370       0.40032512      -0.13675699
C       21.27743255       7.68805804       8.57300794      -0.39084515       0.18168371       0.23015106      -0.30360007      -0.49893826      -1.16082335
H       20.48131999       2.26593012       6.31607532      -0.05433647      -0.24796020       0.10813023       1.02995467      -1.14047325      -0.55006063
H       19.84622093       2.50821881       7.92114036       0.05429793      -0.09133188       0.09061469      -0.46562797      -0.14733785       0.23217946
H       18.78801943       2.58804216       6.37293994      -0.23618130      -0.22186412       0.02535691       0.65157801       0.36057803       0.92011201
H       18.46479806       5.12661127       6.26715892       0.11046091       0.06951301      -0.00836943      -0.73655748      -0.23411126      -0.74867582
H       18.69198569       4.84955444       7.93015019      -0.06510100       0.13734338      -0.20238389      -0.62641907      -0.62406725       1.59490252
H       19.01083646       7.15275862       7.30836120      -0.02457751       0.13190843       0.30159829       0.89859819      -0.56885177      -0.52946502
H       20.37955523       6.56923266       6.21290878      -0.12401443      -0.32155037       0.10847997       0.47248694       0.58700365      -0.45803958
H       21.83827608       7.65374600       9.48357987       0.02885500       0.20194959       0.05937474       0.20292428      -0.38544253       0.68066752
H       21.95978513       7.89589192       7.75933460       0.08285910       0.02999601       0.01220601       0.25621936       0.49260011      -0.24909233
H       20.54029147       8.48610832       8.66227489       0.17263481       0.00533442      -0.03592807      -0.20197169      -0.10956606      -0.11356475
C       30.33100147       4.14081885      23.93283904       0.56887520      -0.61659354      -0.32747399       0.74627292       0.03853863       0.14646414
O       29.90501882       3.37648543      22.84298666       0.18687165       0.58625273       0.07802278      -1.49962795      -0.53434485      -0.46046975
C       28.48548919       3.46421578      22.71591441       0.44871527      -0.40382585      -0.35468977      -0.50983393      -2.06690812       0.21697052
C       27.96350285       2.79197884      21.46310281      -0.72791268      -0.68561107      -0.06852419       0.60043126      -0.45000747       0.80499578
O       28.20055709       1.39355556      21.64236109       0.39489182      -0.53856747      -0.45902858       0.76234668       1.40693414       1.33672309
C       27.67318211       0.66270576      20.64068211      -1.42353441       0.26575219      -0.07862306      -0.57387519      -2.85942793      -1.37121832
H       31.38151484       3.99710214      23.95487757       0.08791331      -0.03618814       0.13833503       1.22137010       0.16570190      -0.02064995
H       30.13205769       5.19100502      23.73209894      -0.04018168       0.01645368      -0.07553122      -0.29109687       0.13213216       0.44290611
H       30.02358639       3.76063010      24.91138460       0.13624715      -0.17991280      -0.04945141      -0.75649077       0.23717979      -0.09143999
H       27.97255800       2.90529483      23.56956281      -0.05656283      -0.12763400      -0.08208868       0.64511812       1.01778877      -0.60504985
H       28.18089166       4.46891330      22.64215166       0.00992459       0.01482907      -0.02866466      -0.36937040       1.59597838       0.45034251
H       28.52802309       3.11772912      20.59020050       0.00074368      -0.02141981      -0.08523654      -0.14762646       0.17193493      -0.22849111
H       26.88103714       2.98549305      21.38206269       0.22577545      -0.13596218      -0.06983636       0.58232170      -0.19407015      -0.17897958
H       28.04421720       0.87237321      19.65416186       0.03849623      -0.07890465      -0.13382294       0.13689351       1.06382036      -0.76881766
H       28.03778991      -0.37291736      20.69857689      -0.18570371       0.00025735      -0.08875539      -0.30235153       0.13394284       0.69827598
H       26.57741616       0.64604951      20.63741058       0.03860089      -0.05430911       0.06026375       0.09752758       0.16213329      -0.02367573
C       -0.21886346       6.56300503      10.41431148      -0.18759112       0.39291310      -2.05233040      -0.88441014      -3.14285421      -5.18595505
O       -0.40365693       7.51402411       9.39750479      -0.13910747       0.04732903       0.66613394       0.15375015       0.60085279      -1.96945035
C       -0.40517150       6.95766613       7.99949976      -0.71277260      -0.84231835      -1.10022235      -4.91471672       3.43074703       3.10534000
C       -1.53989065       6.02214304       7.78637721      -0.10421802       0.51600182       0.77848713      -1.01104259      -1.74476612      -2.28596234
O       -2.71281377       6.80251499       8.04909433       0.63910435      -0.47541068      -0.38391856       0.54155010      -0.41391510       1.22422361
C       -3.94216187       6.41979523       7.50921113       0.05686342      -0.07112802      -0.46417606      -0.96974224      -1.00790226      -0.11687965
H       -0.44207411       6.99983206      11.25200492      -0.45563452       0.00397064       0.13406820      -0.90376842       2.64075923       4.97606611
H       -1.14169068       5.87286748      10.21888401      -0.26840830      -0.07539061       0.03528682       2.29359722      -0.14044368       0.92972970
H        0.81872256       6.20535519      10.41663764       0.22102064      -0.14750006       0.02915507      -0.75005627      -0.61733001      -0.03492758
H       -0.50737571       7.86018633       7.42025580       0.61506095      -0.55831489       0.40544894      -0.22025503       0.22347832      -0.36612979
H        0.43500427       6.56384332       7.81110492      -0.11971890       0.93315927       0.08558523       5.92949867      -2.89458370      -1.16315365
H       -1.37105393       4.99859320       8.38655111      -0.06324349      -0.37036560       0.18284377      -0.95226073       2.28226137      -1.17155421
H       -1.65012879       5.76500469       6.61864938       0.20799844      -0.02878788       0.08026570       0.78546196       0.35701591       2.50766611
H       -4.67311389       7.10539848       7.93353964      -0.03611020       0.13264682       0.26642720      -0.04872795       0.40950969      -0.39864644
H       -3.92002866       6.44982050       6.39733514       0.07064241      -0.27194419       0.02093868      -0.11585338      -0.01347354       0.53948498
H       -4.36763308       5.44231588       7.86857809       0.29263045      -0.02226599      -0.39657301       0.90202439       0.32042810      -0.41361573
C       12.60278640       3.60418554      17.08740359      -0.29449079      -0.31891245       0.79460376      -1.23889840      -0.84609610      -0.51713169
O       13.78794207       3.64901076      16.31970426      -0.62062087       0.33730916      -0.21590700      -0.43037483       0.49947125      -0.70825052
C       13.47822429       4.33076515      15.04557633      -0.26603375       0.10163488      -0.03481698      -1.01484251      -2.05908346       1.90260446
C       14.75294192       4.58278422      14.41403675       0.61070072       0.62802424      -0.89622751       1.36622524       1.37239897      -0.49798831
O       14.44226857       5.39079694      13.28596187      -0.28982399      -0.42525904      -0.47707534      -0.43096173      -0.75222653       0.49501508
C       15.48797386       5.58532517      12.38059764      -0.51047866      -0.32484457       0.51108227      -0.74811941       0.87470955      -0.78389359
H       12.73127153       3.08086169      18.02064895      -0.10588561       0.01874117       0.09811712       0.45245346      -0.58981293       0.11005928
H       12.26756048       4.57235001      17.38727280      -0.00211127       0.12600070      -0.02726978      -0.25008580       1.03655005      -0.15682438
H       11.76346096       3.11505032      16.49638887       0.04184413      -0.02245062      -0.20555573       0.85090655       0.45379999       0.63742775
H       12.73289230       3.73071519      14.49577301       0.06110086       0.00278888      -0.16603819       0.53840417      -0.29824919      -0.19099817
H       12.94581987       5.21503748      15.24131559      -0.03505106      -0.00278009      -0.11421105      -0.47333014       1.39639735       0.48027375
H       15.31230784       3.65788767      14.25186641      -0.04937002      -0.01801035       0.24580055       0.01200214       0.04204927      -0.68323743
H       15.37182646       5.17680290      15.11136213      -0.26920488      -0.10059221       0.15241388      -0.01009998      -0.07884248      -0.16051725
H       15.94582125       4.66360531      12.14849877       0.02270669       0.16310047       0.04917235       0.48061278      -1.28874576      -0.64141536
H       15.02071128       6.02978779      11.45980519       0.16869010      -0.02285664       0.03371209       0.77057689      -0.27409095       0.91740340
H       16.26499708       6.19138071      12.81026584      -0.08444693      -0.31421185      -0.03027643       0.31802750       0.73103899       0.10900275
C       11.53709999       6.52650472      26.84720830       0.14142290      -0.34443540      -0.27317790      -0.21532762       1.46659136      -1.81129754
O       12.79813898       6.18368340      26.36356330      -1.15174147      -0.82274592      -0.97336274       1.12227845      -1.32237780      -0.12240756
C       12.73163404       5.53781919      25.08697122      -0.37945350       0.03282927       0.12149716       1.91413879       0.70832002       0.12256809
C       14.17225279       5.43893493      24.55352167       0.01453615      -0.35354085       0.07899339      -0.44416621      -0.55932069      -0.55726349
O       14.78109352       4.56099498      25.47848038      -0.02506524      -0.40524894       0.21296244       0.27917713      -0.37821594       0.67287916
C       16.06841213       4.11736871      25.11333207      -0.52376427       0.31707561       0.20208456      -0.17812227       1.56324422      -1.80491436
H       10.81746958       5.73271911      26.77225376       0.14492052      -0.02445272       0.13352620      -0.40583262      -0.57571334      -0.10256350
H       11.63219312       6.84263544      27.86595993      -0.04024582      -0.03800367       0.01425770      -0.05111966       0.49007726       0.51962376
H       11.25558592       7.32801414      26.11531123       0.06299816      -0.12192280      -0.01320952      -0.74947858      -0.11054555       1.13888907
H       12.32709876       4.52304566      25.16236286      -0.00259386       0.08231411       0.16488330      -0.13578153       0.19249190       0.01996177
H       12.21250043       6.15803608      24.39230371      -0.20279725      -0.21902125       0.00391584      -0.99920577       0.43477586      -0.45480660
H       14.74329656       6.40099063      24.35891885       0.25190894       0.12961931       0.08644292      -0.68096411      -0.74368292       0.83700681
H       14.12747589       4.94955557      23.55750644       0.30055620      -0.18719519       0.13640622      -0.10426825       0.05018968       0.52252960
H       16.06320496       3.58938029      24.14536981      -0.09501724      -0.02142581       0.01754134      -0.20691904      -0.18511459       0.27379093
H       16.62048290       5.05153124      24.91698109      -0.08654344       0.25279424      -0.16197417       0.62104142      -0.50620681       0.29781234
H       16.50489781       3.49923355      25.86356072       0.08094379      -0.05870573      -0.01591219       0.22613497      -0.27359906       0.66788495
C       17.89149493      -2.58451814       5.10167073       0.38867233       0.46415656       0.12316526       1.07195950       2.60215878      -0.94072223
O       17.49251680      -1.49187931       4.25833133      -0.10072440       0.44154150      -0.81539245      -0.18296516      -0.47567242       0.50778699
C       17.95588529      -0.22266005       4.70029819      -0.04304430      -0.21218664       0.64458541       0.70618993      -1.80339992       1.14171433
C       17.61623198       0.69991305       3.64447744      -0.81268250       0.11429270      -0.41295070      -1.32077360       2.04197478      -0.04534147
O       18.32512167       0.43507525       2.47151550      -0.19146438      -0.04679304       1.47816364       0.26877770      -1.37819111       1.80613148
C       17.99361455       1.24500033       1.43777380      -0.23187074      -0.21418792       0.01405268       0.42303833      -0.63854867      -2.27793193
H       18.99254902      -2.51467024       5.17733786      -0.02644779       0.12534988      -0.23235402      -0.55606830      -0.60120839       0.58085740
H       17.32283320      -2.63788618       5.98683300       0.01324787       0.01583052       0.00337925      -0.15345936       0.70158845       1.81567812
H       17.53873727      -3.42668399       4.63676551      -0.29439650       0.26187523      -0.04995290      -0.18573786      -2.18820572      -1.73819351
H       17.55806227      -0.00036279       5.69012032      -0.28880184       0.36206311       0.35736463      -0.49241152       0.39288369      -0.04305011
H       19.01544630      -0.25721705       4.84468359      -0.13423045       0.32962093       0.26511175       1.11439288      -0.19100666       0.04617040
H       17.74743227       1.76324033       3.92776805       0.22938075       0.17785732      -0.03458169       0.13032815      -0.25956362       0.16043627
H       16.52929296       0.55373575       3.58402825       0.16119250       0.21480010       0.04964954      -0.21542262       0.23987398      -0.93966568
H       18.35208230       0.68733841       0.56183182       0.13008362       0.19737788      -0.01976965       0.29489478       0.68406558      -0.13585381
H       16.94805103       1.27801454       1.26143970       0.06661565       0.16702324       0.12769940      -1.38167918       0.36701956       0.12104779
H       18.41681569       2.23101985       1.49931531       0.27879013      -0.13994952       0.12800929       0.29250419       0.68475652       0.04111109
C       22.69662223      19.67542197      27.82350768      -0.17838476       0.33842602       0.10023936      -0.23519808      -0.19416943       0.73650491
O       22.30726796      18.84966612      26.70700384      -0.11922320       0.57687399      -0.00174986      -1.21618938       0.58205551      -1.39909983
C       21.13741787      18.96662600      26.20884770       0.24346283      -0.41385008      -0.42520420       0.56510329      -1.07729065       0.93156505
C       20.87696807      18.19185903      24.99001466      -0.65857706       0.10352606       0.76331085      -0.25941816      -0.11179061      -1.13384020
O       22.02894671      17.71414985      24.39134416       0.01573280      -0.73439521      -0.90147819      -0.03384676      -0.15340015      -0.47139281
C       22.39801749      16.44482585      24.93266538      -0.51373814       0.52989076      -0.63134798      -0.20373043       0.79571432       0.24722791
H       22.04451737      19.34452298      28.65709291       0.16759971      -0.33611174       0.04180144       0.25298434       0.88705242      -0.34990716
H       23.72304476      19.40812511      28.06203910      -0.25485648      -0.08038279      -0.10683306      -0.06556310      -0.00269225      -0.20069245
H       22.63940158      20.71381319      27.47422677      -0.00154535      -0.07051832       0.06120025      -0.30256933      -0.37698209       0.56323779
H       20.28044796      19.45065473      26.68767445       0.04163415      -0.08206414      -0.05596979       0.73541927       0.41240200       0.26419634
H       23.56542000      14.76855868      27.87150607      -0.01723526       0.20205289       0.09284440      -0.17253317       0.08627757      -0.10650995
H       20.35895942      18.86401030      24.28312179       0.03052819      -0.33608043      -0.25696503       0.08379829      -0.09760863       0.22395906
H       20.16776578      17.35575297      25.17476583      -0.05461298       0.19685009       0.04204236      -0.01545883       0.52415615       0.35099894
H       21.65226156      15.68036561      24.72690288       0.16205075      -0.01166860       0.09253568       0.02743745      -0.20258346      -0.54136848
H       23.38546312      16.25578524      24.54891797       0.10612051      -0.30848284       0.06571975       0.25457555      -0.53692418      -0.10188548
H       22.40443128      16.56438767      26.00202272      -0.04560875      -0.17469449      -0.05345300       0.42790803      -0.28241926       0.64283979
C       20.84698559      -1.47282902      29.04042703      -0.15041290       0.21164893      -0.89739528      -1.03243887       3.46379781      -1.35004354
O       21.93629274      -1.62760744      28.08707808      -0.18017836      -0.72927037       0.03320257       0.36690655      -1.12736416       2.12634158
C       22.87079084      -2.66096081      28.58242428       0.35217553       1.77091137      -0.49147875      -0.43566838       1.78447223      -1.65266490
C       23.76933261      -2.21251075      29.65540006      -0.11049713      -0.58086635      -0.16779396       2.72107720      -0.88385749      -0.19328140
O       24.60774068      -1.18196408      29.21678659      -0.79477050      -0.23917036      -0.22904991       0.24462719       1.28159773      -0.69913357
C       25.53866603      -0.61418348      30.09862401      -0.88319918       0.44337123      -0.06893025       1.17626429      -1.68836117       2.08573413
H       19.93927480      -1.25707547      28.35989012       0.10139812       0.11726613       0.41771845       1.22482085      -0.24738878       1.53426921
H       20.63995783      -2.29957834      29.68445573       0.09865675       0.05988131      -0.01677545       0.22734314      -0.93169862       0.17818323
H       20.94504596      -0.51649529      29.75814790       0.28614089       0.02991856      -0.11435741       0.16379994      -1.93451881      -1.57086694
H       22.31832511      -3.45174254      28.94694590       0.10614073       0.28214236       0.26718796      -1.52271724      -1.74661815       1.01541424
H       23.33474628      -3.05674426      27.70541372       0.07635787       0.06410059      -0.10407775       0.83703339       0.18749541      -0.49626350
H       24.40705437      -3.04105114      30.09705162       0.09068297      -0.24545815      -0.08337544      -0.83290935       0.48509890      -0.53352833
H       23.20668538      -1.80345259      30.41026284       0.14755472       0.03725692       0.29013858      -1.77665210       0.72954029       2.44038677
H       25.41087834      -0.43424967      31.21706344       0.47974183      -0.05530073       0.11927914      -1.92027164       0.37697202      -1.13504851
H       26.35254946      -1.30614493      30.31356537       0.12808270       0.23571831      -0.12938158       0.59225714      -0.71778715      -0.89691073
H       25.99359292       0.23681321      29.67731113      -0.20872721      -0.32583728      -0.15134206       0.05999350       1.05486608      -0.68875611
C        6.97376142      14.55805348      25.07183897      -0.43395011      -0.39907907       0.24356687      -1.58495581      -1.30950606       1.60292387
O        7.78506028      13.43943551      25.32387505       0.19195733       0.79177367       0.20473171      -0.57426316      -1.47728705      -0.11175247
C        8.79069419      13.63799184      26.27793950       0.26791116      -0.00678866      -0.97413638       0.16944839       2.25917053       0.07371126
C        9.74637317      12.53182999      26.34243421       0.74491173       0.11235443       0.50670801       0.58486718       0.31970397       1.99521625
O        9.14887272      11.45727422      26.96586942      -1.00696964      -0.94329412       0.37971730      -0.47377399      -1.28781545       1.18850648
C       10.07334687      10.36186658      27.06370634      -0.62597951       0.25144673       0.00952194      -0.16683617       0.63115990       1.21342659
H        6.43386118      14.90794629      26.00105697       0.03636365      -0.16679264       0.35558404       0.07584007      -0.56169105      -0.86772889
H        7.58745821      15.33697529      24.82591975       0.00128735      -0.30929798       0.22583665       1.63667691       2.44682813      -1.06923985
H        6.30241756      14.30560133      24.24066815      -0.30770808       0.12338808      -0.09084457      -0.01447522       0.11391507       0.42270723
H        9.37533913      14.47652508      25.93184155       0.19474439       0.33153505      -0.01222062       0.45178714       0.79364055      -0.12400387
H        8.40612292      13.95992957      27.25426076       0.00728164      -0.34233748      -0.10483119      -0.18557462      -0.41296378      -0.04854050
H       10.66232944      12.73996033      26.94203466       0.00221758       0.16274758       0.04572635      -0.49329561       0.71797836      -0.68468922
H       10.05133432      12.28689695      25.37313158       0.00479962      -0.28162099      -0.38795875       0.59626520      -0.60097957      -1.91246343
H       10.62886981      10.40650245      26.18377476      -0.21380193       0.10382740       0.40200072       1.19416726      -0.43460000      -1.55985999
H       10.77773586      10.36786842      27.93565732       0.27315244      -0.04789377       0.28162976      -1.03163135       0.15595618      -0.58027869
H        9.42600399       9.52681155      27.05116488      -0.08975055      -0.15983585      -0.16586713      -0.13952972      -1.39788544       0.28695169
C        2.17587675       2.34627602      -0.77274799       0.41133803       0.05242364       0.10431746       1.66673672       2.04733682      -0.42581266
O        2.91995525       3.38860294      -0.08854874       0.23041805      -0.34823209       0.20160486       1.08433294      -0.65479892      -0.21980473
C        4.29790078       3.57660173      -0.50481553      -0.32728958      -0.66968766      -1.37679715      -0.71461564      -0.06877099      -0.69029272
C        4.72780930       4.96954417      -0.28531547      -0.28852979       0.37929663      -0.48872785      -1.65345418       0.79729182       0.63470840
O        4.97989328       5.12790141       1.10532699      -0.24274094       0.03175746       0.60607453      -0.18036929      -1.15244496      -0.01022602
C        5.20534565       6.44666693       1.45975168      -0.03139731      -0.44629226       0.38822971       0.21290548      -0.49905303       1.16387057
H        1.23051550       2.37825858      -0.32954857       0.30114884       0.09969731      -0.12301318      -1.49268317      -0.29806557       0.58817899
H        2.13547126       2.55896809      -1.82562291       0.10588569       0.01313516       0.23716754      -0.34424731       0.47892734      -0.67531896
H        2.64134622       1.40595569      -0.75670148      -0.40681977       0.46815503       0.21339898       0.70354450      -1.47785950       0.77739727
H        5.04603304       2.96025598      -0.05609032      -0.06134162       0.05673633       0.07836424      -0.02791636      -1.02813566       0.96979201
H        4.45535625       3.40895999      -1.55523593       0.08222913       0.16504890       0.50904918      -0.58653384      -0.32638949      -0.91512656
H        3.87685311       5.62647675      -0.58657206      -0.12998069      -0.16531755      -0.14254736       0.61115915      -0.03917485       0.04905760
H        5.58070865       5.20026015      -0.90003063       0.10888795       0.13202282      -0.28664011       0.55916923       0.20552984      -0.08209714
H        4.29986501       7.00690055       1.46646762      -0.06098851       0.08295909      -0.27588473      -0.97492146       0.70774877      -0.12630403
H        5.58028123       6.44023626       2.49857489       0.01710789      -0.22505216      -0.01702958       0.11762863       0.08050270      -0.54364252
H        5.88101690       6.86217269       0.74693232      -0.20727407      -0.09158696       0.09368716       0.91755736       0.84625977      -0.33387813
C       17.40122022      19.64260930       6.29154788       0.10063564      -0.47772650       0.30938997      -0.15364094      -0.85635287      -0.71170026
O       18.21233229      19.47991896       7.42289412       0.00871209       0.57947022       0.60874153       0.45375559       1.64996040      -0.44000009
C       17.82036479      18.38229809       8.14989243      -0.53247841       1.12835621       0.08245344       0.18957166      -0.56222612      -0.53323191
C       18.73599178      18.10956611       9.26329796      -1.01134417      -0.38658858      -0.01918990       0.88188189       0.84865421       1.83884108
O       20.13624352      17.99136918       9.03821695       0.01276006       0.47973081      -1.02544732       0.23161657       0.07049891      -0.77110064
C       20.62155535      16.82782818       8.34278499       0.82179465      -0.25311049      -0.00425917      -0.72810382      -0.23087816       1.58913338
H       17.98187603      20.10625915       5.54630384      -0.22448702       0.23702091      -0.15604802       0.95000243       0.68764377      -0.92513031
H       17.19001554      18.64366123       5.88336191      -0.13098703       0.15974001      -0.05212151      -0.39960203       0.13661931      -0.01536303
H       16.48676100      20.24039110       6.34194837       0.12882702       0.01071734       0.25297442      -0.04014055      -0.27169269       0.80660534
H       16.87236690      18.59866735       8.60116869       0.09023818      -0.01569340       0.32387572      -0.79252040      -0.40897763       0.15102158
H       17.78366115      17.53944949       7.46487568      -0.01311399       0.13465591      -0.15293339      -0.38195869      -0.47608629      -0.05421942
H       18.39792973      17.21659527       9.76678667      -0.17640889      -0.09400208       0.04641606      -0.30928376      -0.48999652       0.33866259
H       18.62296265      18.97531501       9.97402376       0.27367623       0.04139214      -0.04905436       0.36846021      -0.80303544      -0.42018014
H       21.65562375      16.72531341       8.60939328      -0.08389867      -0.18421588      -0.16154989       0.66832387       0.11824696      -0.03281800
H       20.14696291      15.91405602       8.71733619       0.01637614       0.03958562      -0.36902524      -0.27140635       0.06962179      -0.00750827
H       20.54263646      16.84848382       7.28327020      -0.13526637       0.12893891       0.11717257      -0.29492572       0.36937636      -1.03591430
C        2.26433099      -1.38502724      19.55368433       0.84666795      -0.24908757      -0.21406049      -0.83318621       1.62519634      -2.11493468
O        2.89690628      -1.40266203      18.26142436       0.09423990       0.64905365       0.39470056       0.30593717      -2.07074690       1.13533926
C        2.29793260      -0.43954271      17.46665823       0.23851947       0.37455501      -0.72606929       1.85621834       2.53025794       0.62231028
C        3.00037689      -0.38781595      16.13970019      -0.76457471      -0.99977903       0.37317055      -2.22577977       1.43440580      -0.32692072
O        4.27334591       0.10695068      16.30371221       0.08517874      -0.02076940      -0.78306279       1.22647703       0.35871899       1.22104585
C        4.93819637       0.33204377      15.08027675      -0.08132810      -0.69106804      -0.84808603       1.33527994      -1.41001856       2.18188834
H        1.18833350      -1.21838165      19.45067080       0.08239672       0.03994305       0.07509483       0.00145669       0.38222072      -0.16085361
H        2.29854313      -2.21657059      20.16423573       0.07751836       0.13526084       0.14817071       1.11805952      -2.20697927       0.69818461
H        2.72330965      -0.55044936      19.98357552      -0.25063427       0.02139034      -0.05047642       0.27308097       1.34410596       1.58067310
H        1.28394222      -0.68019303      17.43799131      -0.35231152      -0.06756614       0.22079371      -1.90866113      -0.02846019      -0.71736813
H        2.39646445       0.59349771      17.95536600       0.36415781      -0.27672823       0.21262463      -0.15571880      -1.40110946      -0.61427975
H        2.36521623       0.31535795      15.47173748       0.01508896      -0.01405562       0.46269553       0.94429898      -1.28188622       0.67180580
H        3.01842494      -1.39368537      15.78644080      -0.04910329       0.30665398       0.03179356       0.01729138      -0.86997056      -1.00344253
H        5.93015536       0.75363380      15.24438568       0.07514407      -0.00003215       0.14404307      -0.26614094       0.44154233       0.19816348
H        5.12334796      -0.60720213      14.64395619       0.17308867       0.51158477      -0.16950126      -0.06041110      -1.11967063      -1.10445130
H        4.30458450       0.92374102      14.55650570      -0.05007826      -0.24306945       0.52680510      -1.39433169       1.97296286      -2.41801572
C       21.60899986      20.84107002      10.35920987       0.32995350       0.31530707      -0.05352521      -1.97212946       0.28758726       2.07810545
O       20.78868259      21.99598738      10.33818226      -0.04542069       0.02937825      -0.94473861       1.54551101       0.83789235      -0.33778074
C       19.56538048      21.85376755       9.79066047       0.12779746       0.33455152      -0.11412104      -2.35664225      -2.26581597       0.56358302
C       18.85459583      23.12533959       9.72903462      -0.28583624      -0.23542548      -1.01331130       0.38178849      -0.35534009       0.55870479
O       19.41931972      23.89837183       8.78962666      -0.39441422      -1.68847993      -0.17076083       1.64712417      -0.11211123      -1.92548192
C       19.28770042      25.25208114       8.84586103      -0.18903617      -0.76807664       0.15398428      -2.39458466       1.28957260       0.54358435
H       21.67670203      20.32380616       9.43767501       0.03975589       0.11163609      -0.02854249       0.25930256      -0.27758986      -1.18994129
H       22.49403570      21.28732740      10.72964552       0.13625027       0.16891847      -0.20144124       1.41929996      -0.55596602       0.26132172
H       21.10886745      20.16190223      11.09754668      -0.05041964      -0.03428350      -0.23481584       0.78177446       0.07996378      -0.35490823
H       19.48824510      21.36958952       8.83879648      -0.00530999       0.26922535      -0.23998062       0.78415561      -0.17272952      -1.29829848
H       18.94921603      21.12753655      10.36976434      -0.02806518       0.03998432       0.17733961       0.09134398       0.34581167       0.39944631
H       18.85256269      23.58666734      10.65783928      -0.02875486       0.24410938       0.03030979       0.21600199       1.04636812       2.18758249
H       17.86330989      22.95468813       9.50888263       0.05051008      -0.01715994      -0.21144746      -2.70988846      -0.59078950      -0.66456717
H       18.19624680      25.60213214       8.97435356      -0.07030056       0.13237409      -0.17623830       1.25310695      -0.54411083      -0.36444268
H       19.83611513      25.75070970       9.63243477      -0.18601663       0.00601628      -0.26422756       0.51491487      -0.04974494       0.58639646
H       19.66923576      25.55451261       7.91203059      -0.20408089      -0.20800504       0.09301719       0.27387640       1.00149930      -1.04068279
C       21.58618480      20.09516691      15.04670260      -1.05115836      -0.11367869      -0.05083066      -0.68293333       0.88084978      -1.28718817
O       20.72218385      21.15781910      14.47172694       0.11694865      -0.19458958       0.11323007       2.07853627      -0.72463560       0.32734996
C       21.55953663      22.23459159      14.01976973       0.07223571       0.63734470       0.39663212      -2.65964460       1.15019095       1.39176106
C       20.62213265      23.21127567      13.28673338       0.84618935       0.38769081       0.29976547       0.07746256       1.19008625       2.56390834
O       19.58257863      23.62494340      14.26212829       0.34820338      -0.10308852      -0.07098161      -0.19296989       0.21665975      -0.75729454
C       19.00577745      24.90578116      13.85656348       0.64316812      -0.60638270       0.25075574      -2.28555632      -2.71514058       0.55837458
H       22.10670846      19.56622648      14.24352890       0.12424685       0.05016318       0.01200012       0.20993733       0.42237619       0.14710754
H       22.25754511      20.37506009      15.86240535      -0.02164818      -0.02561813       0.10258268      -0.13571659       0.56593901      -0.28029901
H       20.86105175      19.44446235      15.41240990       0.28167192       0.08280371       0.04956328      -0.98733389      -1.45128787       0.91846770
H       21.95786605      22.68011869      14.94497266      -0.05753554      -0.52363371      -0.09989019       0.22070105       0.31600770      -0.46073750
H       22.32010144      21.87268262      13.41040015      -0.28909671      -0.16155335      -0.02286160       1.42439401      -0.58007985      -1.22970271
H       20.19282776      22.79009003      12.41887098      -0.07270080      -0.06424567       0.11748976      -0.58938986      -0.64923090      -0.88729990
H       21.05842448      24.17100401      13.03978329       0.02561729       0.02628859      -0.28401445       0.87863469      -0.28776324      -0.39008662
H       18.29203782      25.25647736      14.62924830      -0.15716778       0.13097675       0.04362438       0.75225627      -0.19408105      -0.03009999
H       19.77210370      25.57803401      13.69137128      -0.12833749      -0.00653141       0.13131760       1.41508555       1.63958204      -0.42490354
H       18.34720722      24.73539535      12.97916038      -0.03006872       0.02371385      -0.01093685       0.60005939       0.22473019      -0.02139558
C       32.22551571      -4.62105841      28.21163798      -0.48523216      -0.98369314       1.08659689      -2.18456578       0.81814378      -0.20480558
O       31.35096911      -3.45086637      28.25261716      -0.57775100      -0.33826115       0.62451898       1.54577971      -0.11701694      -0.92143953
C       30.57958009      -3.38349549      29.46285837       0.15473870       0.91923553      -0.03604608       0.74002844      -0.99187565      -0.51105952
C       30.36347466      -1.94315036      29.76592482      -1.21493991      -1.17243955      -0.77736720      -2.37268710       1.17189705      -0.41205338
O       29.36577151      -1.48391058      28.79880464       1.08279336      -0.03091015       1.09904825      -0.16416742      -1.00560129      -0.54078448
C       28.91770959      -0.16725161      28.97259088      -0.12420798      -0.07173487      -0.20746360      -0.79151219       0.89623427      -0.53847474
H       32.75491648      -4.65588471      29.11683713       0.09704390       0.47521140      -0.12419096       1.02263319       0.05409360       1.20089746
H       31.54739532      -5.42776725      28.21682393      -0.00546987       0.50454276      -0.24344213      -0.43951339      -1.34495199       0.00719095
H       32.87012685      -4.76918025      27.35202009       0.10004526      -0.07148020      -0.47812023      -0.08914670       0.97558248      -0.27294886
H       29.66775313      -3.96869683      29.24449950      -0.13320668      -0.39942941       0.26380572       0.02646537       0.61584651       0.67560720
H       31.13418842      -3.89561889      30.25610366       0.04190005      -0.33363301       0.34536919      -0.08477976       0.21314606       0.13551192
H       31.19779028      -1.27575706      29.67381328      -0.24549628       0.01461103       0.03204524       1.09313309      -0.11146471      -0.24779956
H       29.95303395      -1.71821464      30.75225290       0.42708466      -0.14452970       0.45898314      -0.09883872      -0.54593211       0.21113996
H       28.03897501       0.18674506      28.31426721      -0.26561289       0.25875512       0.30248934       1.45401978      -1.34220338       0.67540461
H       28.59950042      -0.00278601      29.98932721       0.28168568      -0.11379372      -0.21028931      -0.10970487       0.07632655       0.60303992
H       29.74701500       0.48087009      28.76236584       0.13444263       0.03142489      -0.19153357       0.48209029       0.84051889      -0.04502559
C        9.58794522       4.97806928      14.76262390       1.12426392       0.03588018       0.39023724      -1.40872407      -0.22250310      -1.56762576
O       10.68590715       5.77254162      15.06685733       0.19092294      -0.01127558       0.76455164       0.76612991      -0.42890307       0.11998242
C       10.45332029       7.15686885      15.15298537       0.02852486       0.40420376       1.17938762       1.31771839      -0.23002905      -0.70970261
C        9.66873233       7.67295956      16.29855657      -0.03848139       0.37810832       0.43944620      -0.41307616      -2.90378165       0.19545022
O       10.48222400       7.51623091      17.39935919      -0.35719092      -0.07882881      -0.79766144       0.75744623      -0.19279814       0.17011268
C        9.82419575       7.62816160      18.59230351       0.06428764       0.74358994      -0.34252685       1.00508285       0.61118954       2.85297060
H        9.21225970       5.00948801      13.64833303      -0.10733907      -0.01538108       0.10242282       0.73048604       0.37839553       1.86315036
H        9.82491624       3.94654249      14.94981110      -0.14128548      -0.31117608      -0.13804474       0.57705760      -0.56749880      -0.00104786
H        8.77582831       5.18586285      15.44395196       0.07164062       0.06307668      -0.18022877      -0.55072570       0.26804996      -0.11860660
H       11.49916301       7.57259968      15.12754602      -0.13956925       0.08415176      -0.07684887      -1.14465010       0.00983031       0.18991682
H        9.93209517       7.45864089      14.28538070       0.01400028       0.09078860       0.02274351      -0.52033931       0.54331547      -1.47386539
H        8.69898580       7.12030960      16.46203840       0.07872298      -0.10498829       0.12932005       0.88006830       0.51432520      -0.42180341
H        9.50328008       8.67045057      16.09580862      -0.06945400       0.01743622       0.07926589      -0.78617972       2.49348378      -0.27239445
H        9.20571583       8.50205060      18.72654810      -0.33723613      -0.02708285      -0.06456891      -0.47955176       0.70147449      -0.62203002
H        9.17433170       6.77887915      18.85272666       0.08031878      -0.06329698      -0.12957500       0.50580728      -0.15003003      -0.03752913
H       10.66058612       7.84687059      19.33782028      -0.14435277      -0.16589643      -0.13997865      -1.16236520      -0.94290882      -0.40511516
C       18.84097511      18.53599538      12.87824573      -0.53555627      -0.45150294      -0.38547658       2.25003529      -1.84321463      -0.49413133
O       18.26396491      19.74492932      12.68713051       0.28077683       0.06935137       0.00276576      -2.08773875       2.19264889      -0.35498187
C       16.83510258      19.68539324      12.50288957      -0.32281422       0.09176958      -0.63328554       0.58986765       0.48311144      -0.79194003
C       16.29309283      21.07063000      12.30936825       0.12770815       0.42176912       0.63881237      -0.28570861       0.79029554      -1.71491027
O       16.52392357      21.89315391      13.41980785       0.60036384      -1.02103941       0.80738239       1.10553586      -0.98560566       1.54002619
C       15.87225210      23.09977282      13.44077554       0.83100504       0.20045514      -0.69153031       0.01368522       3.70867610      -0.27921477
H       19.94073989      18.67972316      12.75180510      -0.10755738      -0.02034527       0.08066074      -0.70084870      -0.21289766      -0.17238541
H       18.75829616      18.15463687      13.88206309       0.10956671      -0.13337165       0.14470614      -0.52288103      -0.30589297       0.62599963
H       18.48974208      17.77158037      12.15158124      -0.10589138      -0.10864546       0.01603725       0.15453717       0.28527418       0.35586038
H       16.56126689      19.08552652      11.61397013      -0.07786107       0.16101026       0.11900134       0.32722837       0.15178439       0.13121428
H       16.33942202      19.24560192      13.33300950      -0.04417199       0.19735340       0.15077396      -0.24505743      -0.59921753       1.14072335
H       15.22026107      21.02445052      12.01606406      -0.10733710       0.26755455       0.04310512       0.46777272      -0.14396642       0.59263968
H       16.78028362      21.57562270      11.44711120      -0.09494907      -0.17529142      -0.19204828      -0.00152202      -0.40536252       0.24007861
H       16.40992115      23.94849449      14.10202294      -0.19369497      -0.39691382      -0.30299293      -0.84352273      -2.41882753      -1.30020177
H       15.87058232      23.55846462      12.38611989      -0.32312332      -0.02325521       0.00620837      -0.33230716      -0.58979225       1.29881489
H       14.84651061      23.02710050      13.85528441      -0.15998510       0.17404846       0.33359220       0.38218880       0.07142949      -0.67060083
C       18.27057469       6.17148282      19.10677525      -0.20888042       0.33232244       0.81332358       0.16404405      -0.20614824      -0.88196427
O       16.99073503       5.57340917      19.30304557       0.11153744      -0.68274086       1.10331061       0.59228379      -0.25495103      -0.84531158
C       16.78385036       5.14350531      20.61640214      -0.52467440       1.19220060      -0.49939406      -0.47305501       1.59194529       1.48298120
C       15.25396073       4.92881918      20.71916005      -0.15869446      -0.06226214      -0.06972632       1.00772572       0.50875348       1.80966520
O       14.85679065       3.95187360      19.82360616       1.17209242       0.66335133      -0.63928836      -0.18711835      -0.04810661      -1.36089623
C       14.85412745       2.63299966      20.28692409       0.09357186      -0.65327901      -0.64021472      -0.28499696      -0.07411689       1.08878922
H       18.36486650       6.41120730      18.02895755      -0.23177672       0.16408907      -0.06534461      -0.13362406      -0.12479398       0.71916848
H       18.25471946       7.09173084      19.68099829      -0.07372343       0.17017174      -0.17130771       0.39182916       0.24785094       0.12957153
H       19.12710540       5.50599568      19.36173463      -0.09837741      -0.06880406       0.02496160      -0.69917160       0.34325048       0.13225573
H       17.27763189       4.21575667      20.82668320      -0.00560150       0.08000786       0.02146045       0.49130073      -0.58676022      -0.04539783
H       17.24872800       5.93370968      21.33987832       0.18713812      -0.06756383       0.10775278      -1.22835517      -1.19419420      -0.89809036
H       14.75035443       5.82287042      20.40721599       0.01829292      -0.08034945      -0.11282893      -0.20463768       0.69030982      -0.06555805
H       14.91646288       4.68440452      21.76583844      -0.09302351       0.03636394       0.05881355       0.44251859       0.13399641      -0.92434502
H       15.52239693       2.00130239      19.75970906      -0.10215103       0.02475814      -0.05552965       0.80645096      -0.47304383      -0.83067369
H       15.18680878       2.59738228      21.32607426      -0.18730910       0.09737321       0.05178645      -0.48812920      -0.07571208      -0.01845335
H       13.85266775       2.25674009      20.14489452       0.02584468      -0.11490545       0.03197754      -0.31176546      -0.41888168       0.34473762
C        6.72745489       9.08915076      28.38468944      -0.23768419       0.32663187       0.79562373      -0.02870048       0.31745258      -1.36779714
O        7.73302088       9.14949947      29.30370345       0.05866458      -0.02116772      -1.20480021       0.38616318       1.99280918       1.07303441
C        8.20991447       7.92194657      29.64742483       0.44377331      -0.51082796       0.56287690       2.05845022      -1.11243641      -0.83068645
C        9.27270920       8.08378390      30.67901730      -0.35953273      -0.03060995       0.42863019       1.13373733       0.29421696      -0.47880077
O       10.38828960       8.68329214      29.99194408      -0.29126781       0.14025680      -1.41650451       0.08545671       0.04885790       0.18027221
C       11.51316964       9.02056422      30.83212679      -0.43674929      -0.17474142       0.34600447      -0.77941400      -1.04534900      -0.77918059
H        7.14814464       8.81661732      27.41673104       0.16958708      -0.19328659       0.00174907      -0.29767975       0.07305124      -0.36358675
H        6.01739650       8.37893347      28.66759426       0.18873046      -0.14518009       0.27032774      -1.22224116      -1.38381124       0.40997437
H        6.18740415      10.00607149      28.37026936      -0.21136509      -0.17816350      -0.11122765      -0.14334729       1.01255047      -0.33919373
H        7.47675750       7.24478287      29.95659289      -0.25931493      -0.05260250      -0.18319256      -1.49425673      -0.57112056       0.82283539
H        8.61847482       7.37992448      28.76945448      -0.29691227       0.13315500       0.16492348       0.33022401       0.44599056      -0.03542286
H        9.51675670       7.05772797      31.04701613      -0.42245079       0.08288048       0.07815742       0.10087880       0.81702411       0.29072145
H        8.92324236       8.80559636      31.44056687       0.00346388      -0.04284495       0.12520992       0.22647804      -0.71702957       0.11105041
H       11.16752089       9.59866325      31.67905795      -0.02389673       0.30882018      -0.23079898       0.12080077       0.68213642       0.11568870
H       11.86218867       8.07459849      31.25378675       0.23657006       0.03713878      -0.09073761       0.54151696       0.10269792      -0.17579092
H       12.27247026       9.52689893      30.18172069       0.32817457      -0.05233260       0.09606091      -0.65888560      -0.44939545       0.80644017
C        5.21555832      26.34437536       6.66060170       0.41751390       0.31290597       0.05127996       0.06759606      -1.69376886       0.43725237
O        6.35784155      25.53216129       6.29463853      -0.70205143       0.16058815      -0.28400143       0.08074598       0.49334952      -0.24610117
C        7.55831745      26.08308562       6.86843370      -0.30696787      -0.32901337       0.53542545       0.02901603      -0.72137308      -0.90131211
C        7.92134204      25.32545492       8.08332021       0.66702369      -0.28595074      -0.27386836      -0.04866292       0.15629271       0.49874687
O        8.32137389      24.00711279       7.70344758       0.22668494       0.57755695      -0.28181256      -0.73718512       0.51589316       1.05397236
C        8.88985672      23.28253018       8.80654334       0.07060768      -0.20601820       0.88841886       1.39288306       0.08988718      -1.43614459
H        5.09111622      26.27627128       7.74809251       0.15609099      -0.08651157      -0.01357623      -0.30436325      -0.01730984      -0.09923805
H        5.40794785      27.36082508       6.41159063      -0.34255922       0.09955143      -0.17029329      -0.06242159       0.87947452      -0.50982738
H        4.36370324      25.90384781       6.12597249       0.22506323      -0.00745327      -0.14670873       0.23024507       0.50167650       0.39518723
H        8.39093882      25.93791439       6.16036861      -0.12653083       0.03085158      -0.03061504      -0.43723404       0.28160757      -0.12695448
H        7.41524266      27.13789394       7.07488803       0.19994316       0.12829220       0.08189534       0.14506321       0.10195094       0.14346588
H        7.11051236      25.41487547       8.82320646      -0.01539492       0.09023452      -0.24630368       0.17289811      -0.88865924      -0.20671187
H        8.75796192      25.82940871       8.51827153       0.25072897      -0.01136796      -0.02498205       0.86111987       0.34746942       0.55409193
H        8.38385202      23.34653055       9.75623699      -0.08428252      -0.21768913       0.04821888      -0.60935539       0.07638395       0.13517559
H        9.01737187      22.27319593       8.43249880      -0.13440941       0.13510224      -0.11263574      -0.26893651      -0.22021568       0.34833193
H        9.90400496      23.67579627       8.90382302      -0.10887397      -0.14780893      -0.15366660       0.17349084       0.07005225       0.51327425
C       10.46440246      17.98277047       2.29881055       0.09253241       0.09777841       0.31557384       2.80611897       1.02451837       0.74336946
O        9.10911703      18.25810620       2.35724796      -0.31996228      -0.33439798       0.76641366      -0.22337605       0.18352845       0.61838937
C        8.44583970      17.81220937       1.18799418      -0.44751324      -0.65593613       0.19643477      -1.36287606      -0.03799279       2.36761260
C        6.97051697      17.87776687       1.48338602      -0.38853158      -0.09784206      -0.84101416       1.10508823       1.77869868      -0.80489737
O        6.74440461      16.99255767       2.52914478      -0.07050424       0.18375404       0.97112367      -1.66719532      -1.12448788       0.95771652
C        5.33822124      16.79494650       2.78178688      -0.24067020      -0.51725415      -0.66690513      -0.73780644      -0.24141118      -1.56941438
H       10.61651556      16.91438937       2.37642828      -0.19579890      -0.22449087      -0.21089508       0.31987578      -0.36462349      -0.13469064
H       11.00873340      18.36768228       1.36060277       0.45776040       0.07387325      -0.06291729      -0.95267719      -0.44802880       0.97126931
H       11.03415216      18.46499979       3.19666394      -0.31161042      -0.17822547      -0.48061753      -1.31546962      -0.73505098      -1.47261035
H        8.78015044      18.41110995       0.45025393       0.14788340      -0.01870274      -0.15631086       0.39687768       2.46255660      -2.96091390
H        8.73010762      16.86755497       0.86029000       0.14328672      -0.06292045      -0.07743770       0.66324574      -2.37206602       0.02650670
H        6.39992097      17.70335159       0.56379660       0.09379135      -0.20506940       0.28327433      -0.24485901      -0.38029209       0.15362924
H        6.81158302      18.93351671       1.78112753      -0.02916378       0.16411873       0.51428638      -0.41652226      -0.43790388       0.14848775
H        5.13969992      15.94653016       3.44286733       0.24321539       0.23197320      -0.11996417       0.59698290       0.21064346       0.01354955
H        4.84314287      17.68018093       3.20000239      -0.14697017       0.06935997       0.13811774       0.39179745       0.05676217      -0.02605572
H        4.79428656      16.56022217       1.80164489      -0.09119255      -0.01161965       0.19553351       0.78745133       0.32651737       1.03404939
C       12.92483093       2.00478070      27.20819748       0.13766918       0.13500081       0.16754920      -1.70929515       0.32518175       0.44644508
O       12.75559569       3.36295879      27.51772524      -0.29394813      -1.81278302       0.22109969      -0.93074083       0.35482910       0.36670443
C       11.74046002       3.55646568      28.49465219       0.50647885       1.29791207      -0.37869254      -1.00825274      -2.11078191      -0.12890795
C       12.40175980       3.48833204      29.83886664       0.17051532      -0.33512125       0.03183897      -0.90767032       0.00265573       0.04928583
O       13.37347436       4.48911620      29.95366749      -1.48997766      -0.35987462      -0.44370010      -0.27281535       0.23656899      -1.22310531
C       14.07331571       4.47621882      31.16416000       0.03672751       0.23998440       1.01772330       1.12415826       0.95133132      -0.26989973
H       11.95875320       1.53231389      27.00633001      -0.13610056       0.18284567       0.16833567       0.03280851       0.11569984      -0.61464584
H       13.56298521       2.09631950      26.41701610      -0.32307925       0.11189808       0.23584402       1.56540549      -0.75954521      -2.46615601
H       13.33891088       1.39263109      27.95673534       0.07627457       0.03089575       0.04708589       0.92785364      -0.33096558       1.31833279
H       11.17893318       4.41331144      28.21377110       0.10108589      -0.18657907       0.08340444       0.06915978       1.37474966       0.38395777
H       10.86914577       2.77350031      28.45353713      -0.18676339       0.21380755       0.00500907       2.16730642       0.90743780      -0.07076821
H       12.89503271       2.49953494      29.91082862       0.25260858      -0.04365540      -0.00910655      -0.46607363       0.19237730       0.39235601
H       11.59796400       3.65883795      30.57400072       0.08296986      -0.06830896      -0.10835390       0.39072251      -0.44529819       0.30474597
H       14.16974684       5.52065640      31.42760812       0.24184389      -0.04233044      -0.12861645       0.27713358       0.06386760       0.35474238
H       13.53850341       3.97036174      31.92923948      -0.23302811       0.32547541      -0.11648460      -0.35479289      -0.43836078       0.63865554
H       15.08490881       4.05940836      31.03288053       0.06121215       0.43535153      -0.13443591      -0.24499850      -0.10884332       0.08922485
C       22.09893871       6.83172063      14.95454196       0.51045203      -0.16473776       0.40398548      -0.47626814       2.53028512       2.08354044
O       22.84989673       5.81791572      14.44323770      -0.57295024       0.11629583       0.47991387       1.53036094      -1.20754957      -1.16405988
C       23.62810870       6.21500785      13.30898332      -0.03224744      -0.49703389      -0.28708892      -1.85006237      -0.03175057      -1.31602776
C       24.53422342       5.08843238      12.97493301      -0.47561206      -0.55425982      -0.19589604      -0.13165060      -0.58894479      -0.85436881
O       23.80178895       3.88732366      12.92923978      -0.03381812      -0.36876584       0.82900886      -1.79257452       1.05014622       0.48693359
C       24.35530370       2.80678355      12.27749215       0.33843143       0.88383355      -0.13059723       0.86808604      -0.37766278      -0.91691250
H       21.93197971       6.67583306      16.05072131      -0.16787034       0.08417219       0.07403684      -0.10837979      -0.24754667      -0.97055936
H       22.67531409       7.81090925      14.94915496       0.04791322       0.06043849      -0.07962677      -0.92527920      -0.85811180      -0.43734372
H       21.13828184       6.87501399      14.43977811      -0.12637917       0.02306572      -0.15245059      -0.12753326       0.54779798       0.00702517
H       23.00144467       6.55007684      12.38390730       0.20358008      -0.05768146      -0.15979515       0.57066971      -0.71338457       1.65489602
H       24.21343477       7.05685474      13.58201211      -0.11141258      -0.08186125       0.38815959       0.56337160       1.03412461       0.22467074
H       25.26477807       5.01369817      13.74638852      -0.02946135      -0.11410741       0.02071024       1.02755272      -0.11585704       0.61718112
H       24.99683604       5.27925552      11.99474545      -0.21231807       0.15433898      -0.09148692       0.16170134       0.01857763       0.18648946
H       23.59333680       2.21919031      11.77330544       0.16326097      -0.00461086       0.13895005      -0.40490636       0.09207187      -0.05377568
H       25.03871066       3.19170427      11.47972674       0.15773578      -0.07273562       0.26379567       0.01661449      -0.64983451       0.63720971
H       24.77699513       2.14376998      13.02828228       0.02637159      -0.02485619       0.12162849       0.76535124      -0.16359222      -0.26373127
C       10.21283564      22.41911983      15.64163497      -0.59540870      -0.01965853      -0.01940825      -2.01522279       1.73774993       0.39173061
O       10.66435096      23.70017499      15.23103559       0.66965945      -1.24825280       0.82834515       0.24051633      -0.20847811      -0.77697694
C       11.05831721      24.53437662      16.26237374      -0.00161868      -0.26845560      -0.04435765      -1.52872682      -0.71667433       0.95524019
C       11.32738692      25.82155382      15.70371083       0.11804628      -0.43277433      -0.23696927       0.97619164       3.36318851       0.49286881
O       10.25759815      26.42424806      15.06054546       0.30815322      -0.09553101       0.31530818      -1.06418598       0.61522174       0.00939041
C        9.11595231      26.68449792      15.87137484      -0.57460152      -1.03643242       0.39019643       0.25125805      -0.34197292      -0.98833072
H       11.01668978      21.81221093      15.93374127       0.12542312      -0.12619358       0.11070093       1.08736312      -0.97266054       0.68145925
H        9.51357961      22.67798212      16.50828295      -0.01067145      -0.14864708       0.05164019       0.47715983      -1.18035758      -0.94121462
H        9.69190994      21.96323090      14.78413102      -0.11417454       0.03319719      -0.01440239       0.03747896       0.20041919       0.61195922
H       10.32122730      24.64319274      17.06131296       0.14780217       0.04676599      -0.23228055      -0.81686330      -0.16771278      -0.12474760
H       11.89951750      24.27029704      16.81771629      -0.04320853       0.06045204       0.05483947       1.86960745      -1.18158674       0.60073698
H       12.05580451      25.71025052      14.94914529       0.08409567      -0.13825856       0.04814649       1.08670950      -0.17190388      -0.99997991
H       11.76189126      26.58049348      16.43972802       0.02549184       0.05741493       0.01999323      -0.42679402      -1.15175152      -0.35142219
H        9.32920068      27.21807567      16.78134050      -0.11623441       0.09858042      -0.21924949       0.45611089       0.47934231       0.47458905
H        8.51171226      27.28041865      15.20596979       0.11703413      -0.28981153       0.01627754      -0.63372248       0.21404734       0.13103119
H        8.60617418      25.76971227      16.15836752       0.01132953       0.11185673       0.05913552      -0.21392512      -0.25818881      -0.14544602
C       22.72111213      -3.58097148      18.01621753      -0.19501414       0.92907242      -0.42925446       0.46779451      -1.10981727      -0.07495847
O       22.28539687      -2.42998370      18.70663183      -0.17605690      -0.66310157       0.66093446      -0.59520215       0.36979938      -1.28905463
C       22.50015579      -2.56477057      20.04585303      -0.42839647       0.24380092      -0.29538085       0.02027062      -0.46664834       2.70285177
C       22.10187197      -1.30549292      20.83295378       0.56726638      -0.01434600       0.72891173      -0.19056982       0.81155115       0.20558861
O       22.80248827      -0.09774592      20.41634582       0.37290867       0.47016483       0.82404614      -2.66230941      -0.63784218      -0.90296465
C       24.11684407      -0.04511385      20.80920521      -0.54917445       0.41533670       0.17717901       0.52328593      -0.19611241       0.70925838
H       22.14462625      -4.54874100      18.24782295      -0.38933990       0.10716332      -0.01615907       0.77381086       1.48459053       0.12525359
H       22.63703084      -3.41153726      16.95488812      -0.12732673       0.00313586      -0.08099406      -0.23967278       0.26652488      -0.37077987
H       23.80393806      -3.65575455      18.22918475       0.09665979      -0.02764049      -0.03027672      -0.40541622      -0.62578571      -0.05668411
H       21.90306274      -3.42511470      20.42059204       0.35994871      -0.17144924       0.02234025       0.14165115       0.45959494       0.13267644
H       23.54445731      -2.82719648      20.28408785       0.12430052       0.00957528       0.00001463       0.00050508       0.13211273      -0.24458140
H       22.34835427      -1.35125831      21.91431724      -0.11292430      -0.02454038       0.22013316      -0.38117814      -0.69924897      -0.45869285
H       20.99326386      -1.10587111      20.72447779       0.08714757       0.08444098      -0.12143356       1.20521426      -0.15192297      -0.02451136
H       24.21196993      -0.00753804      21.90474375      -0.14001442      -0.07969993      -0.09876171       0.08595992       0.19427375      -0.26527521
H       24.64794845      -0.88319926      20.43267351      -0.24245462       0.17762771      -0.02471901       0.74346942      -1.05940485      -0.20852032
H       24.53840539       0.79000286      20.30126309      -0.10236952       0.07374912      -0.01769187       0.38990590       0.97304660      -0.01589118
C        5.16282819       3.07090815      21.28583540       0.33846378      -0.09625104      -0.07668910       0.08590730      -0.91957241       1.05309427
O        5.11353768       2.95895457      19.88881953      -0.99721871      -0.21853294      -1.00947879       0.09993526       0.93535274       0.76055360
C        5.23808534       1.62681891      19.48605328      -1.11699884       0.06737111       0.14765184      -3.07405901       0.00007493      -1.81709683
C        6.61498067       1.14041622      19.54783882       0.10238043       0.63175301      -0.83160232       2.32817626      -0.21842146       0.40695795
O        6.69092919      -0.24464911      19.27418751      -0.26390852       0.58940826      -0.17791252       0.16156203       0.00496712      -0.45861858
C        6.98530230      -0.56196269      17.90288896       0.65872596       0.05477893      -0.34150714       0.84931535       0.34133595       1.18002129
H        5.00689330       4.04856453      21.62822183      -0.06471651       0.08286037       0.04287168      -0.45984626       1.53496516      -0.10467511
H        4.43384192       2.44632344      21.80923184       0.07797603       0.07019314       0.17366590      -0.12034553      -0.25125989      -0.33708951
H        6.12482295       2.83033541      21.69835699      -0.20214941       0.09627819       0.24711118       0.67848891      -0.44868702       0.00370704
H        4.48561014       1.05296397      20.06250619       0.02349497       0.28339804       0.29886851       0.80491078      -0.35799643       0.14190474
H        4.78663608       1.62469066      18.46629634      -0.13508489      -0.03039758      -0.01432073       0.67581499      -0.28269026       0.38943252
H        6.99138092       1.35098236      20.57140614      -0.21077297       0.09188616      -0.19321235      -0.03600616      -0.59305388      -0.48834923
H        7.34985826       1.68185819      18.89321250      -0.14065921      -0.12487009      -0.04126319      -0.82683516      -0.16002059       0.24475910
H        6.29413947      -0.15003789      17.22246115      -0.26721098       0.07133445       0.10557790      -1.01223016       0.74066579      -0.60194713
H        8.00073749      -0.23881356      17.60892560       0.16577039      -0.01512410      -0.19796882      -0.20281677      -0.15018669       0.34176311
H        6.88400138      -1.61637023      17.81611534       0.20635396      -0.11041841       0.03394618       0.18634440      -0.80395848      -0.00518955
C       18.20031304       7.04781223      25.17211947      -0.15405769      -0.09330369      -0.14713835      -1.37463832       0.87514120      -0.83227873
O       19.02035479       8.15452676      25.48138111      -0.53863485      -0.21800092      -0.36368062       1.05375910      -0.10516948      -0.07069114
C       18.40665113       9.42262881      25.31731640       0.15261798       0.54555043       0.64437115      -0.73546100      -0.13766934      -1.37822402
C       19.38768858      10.51807687      25.59842182      -0.39393712       0.13200506       0.03201841      -0.43055320       1.06346893      -0.69061100
O       19.50988436      10.68978245      26.97255000      -0.24842736      -0.44153289       0.08215063       0.13497955       1.05199325       2.03367972
C       18.46764540      11.48869641      27.54806711       0.22533295      -0.97109749       0.53131203      -1.01370978      -0.72569704      -0.59828514
H       18.73980298       6.12138013      25.27000018      -0.00681599       0.20317534      -0.02656965       0.25610796      -0.16155565       0.40688193
H       17.32909310       7.13161289      25.81806658       0.30367424       0.05564219      -0.01805225      -0.20696753      -0.62192184       0.32244286
H       17.76862122       7.07878926      24.13552930      -0.13338592      -0.32860508      -0.04517135       0.62748277       0.27722859       0.51126707
H       17.98160208       9.49479788      24.30939253       0.04311564      -0.03450751       0.07679762       0.27040461      -0.00401166      -0.03409950
H       17.55538330       9.52460225      25.97785716      -0.10051662      -0.09950122       0.03535309      -0.32133251      -0.10775071       0.45461193
H       19.08209979      11.50255333      25.17599462       0.08345574      -0.26587960       0.02780655      -0.07931144      -0.72221881      -0.20864463
H       20.38311953      10.32539962      25.23328927      -0.12739616       0.19199892       0.01986647       0.21460429      -0.36440796      -0.30831710
H       18.64383286      11.73128666      28.57494454      -0.13694198      -0.10579509       0.13294294       0.48776183      -0.18167587       0.50797701
H       18.15700797      12.38836963      27.03543272       0.08912632       0.05891370      -0.17777102       1.16980982       0.80949056      -0.72836316
H       17.51646943      10.98026782      27.45007010       0.02430825      -0.00353258       0.24735852      -0.24516994      -0.82076871       0.56875962
C       31.62938684      18.36014817      24.66243387      -2.16358014       0.24758292       0.04753689       2.83036709      -1.09051621      -3.45975733
O       31.15021775      18.32198338      23.30226539      -0.76077791       0.67136013      -0.20429124      -2.84235644      -1.10767889       0.91803551
C       31.87033433      18.93931965      22.38517638       2.80685978       0.70531831      -0.00413509       5.76914024       0.78970760      -1.76130188
C       31.45038240      18.77942936      20.96231593      -0.28010643       0.69680928       2.33490105      -2.76676679      -2.42399526       2.04068112
O       31.44870484      17.33402355      20.68908727       0.46732077      -0.29026054       0.74922123       1.67944229       0.43110234      -1.02136993
C       31.62402714      17.08372483      19.21905331       0.54013192       0.81385763      -1.35766562      -3.12849903      -4.17068911       4.42389345
H       31.93907772      19.44199300      24.72226255       0.27181887       0.15809340      -0.41761117      -0.08201794      -1.30693936       1.28208697
H       30.73962726      18.00346492      25.07132309      -0.68399809      -0.26578730      -0.15378593      -0.90858781      -0.12574470       2.22695518
H       32.47427019      17.47719124      24.63468226       0.61742588      -0.32531979      -0.06123912      -1.69892168       2.68100858       0.83305663
H       32.21999690      19.93310948      22.60268875      -0.00831624       0.54642860      -0.50637810      -1.32581735       1.38206983       0.28705075
H       32.94573924      18.56888010      22.45808556      -0.47673041      -0.37414725       0.41783498      -0.90296042      -0.57859921      -0.47884712
H       31.87473560      19.48598150      20.32311139       0.16042728      -0.45180013       0.09425865       1.49603915       0.36455393      -1.31296396
H       30.38697854      18.92913471      20.89364692      -0.09967321      -0.20160681       0.54787400      -0.81798190       1.04004693       0.07739538
H       31.93096725      16.00815878      19.15556439      -0.71361992      -0.20415024       0.02116156      -0.63915813       0.71489215       0.01871092
H       30.60848765      17.19967738      18.90173461       0.25293266      -0.26504572       0.03553772       0.17345817       0.60733104      -1.54226077
H       32.44179494      17.57115316      19.01808291      -0.64717207       0.57526146      -0.39330378       3.26343846       3.13988709      -2.21795964
C       -5.39968015      10.43127300       9.90437977      -0.27374324       0.51120298      -0.35807510       0.43029955      -1.18860340      -1.09207106
O       -4.50696827       9.46447249       9.11928516      -0.36876977      -0.07458415       0.85177956      -1.47790468       1.40454113       2.47466946
C       -4.18891440       9.97507738       7.86950923      -0.85222117      -0.22550126      -0.79599358      -1.58155251       1.33052778      -1.48058164
C       -3.10792213      11.00162128       7.87217770       0.44261163       0.35666900      -0.14693936       0.98761666       0.54435140       0.82046419
O       -1.92366034      10.32465399       8.24472256       1.58583427      -0.37535393      -0.28858677      -1.52971900      -2.08974433       0.67973560
C       -0.88271596      11.14233046       8.57666976       0.66149782      -1.91947169       0.19109727      -2.47999620       2.58470035       0.51303172
H       -6.09514538      10.80277780       9.11383450      -0.12579368      -0.01108380       0.00497151       0.57801235       0.28577781       1.00774789
H       -5.99514681       9.84369101      10.62341012      -0.09677365       0.05364858      -0.11402745       0.54932487       0.02615317      -0.40576735
H       -4.84168353      11.22027726      10.46627999       0.24627411       0.01670753      -0.04662859      -0.30249071      -0.63526994      -0.81555784
H       -3.97165510       9.12148284       7.25768574       0.16960661      -0.13716257       0.20342884       0.37961432      -0.30534923      -0.58969456
H       -5.07586566      10.51213087       7.43721501       0.27015301       0.22614223      -0.06071368       0.39104381      -0.62436426       0.06652270
H       -3.36454334      11.78169266       8.65987396      -0.24613239       0.00035769       0.06768835       0.34971204      -0.52126795      -0.99830437
H       -2.86118714      11.46423755       6.90005995      -0.09363129      -0.31621936      -0.19259167      -0.88659996       0.17584971       0.16058810
H       -1.18911279      11.91919081       9.29907324      -0.15985258       0.21183771       0.03931844       0.13033581      -0.12460044      -0.07274371
H       -0.12679205      10.61057553       8.93756494      -0.09287656      -0.08552557      -0.22336852       3.15973759      -2.45640469       1.70041609
H       -0.58396186      11.59281133       7.70487770      -0.00426471      -0.11135635       0.32944083       1.18244934       1.70844674      -2.05253148
C       22.24094457      21.41028522      24.17695578       0.73884910       0.19448459       0.25588177      -4.41089630       1.27528000      -2.26533151
O       21.16184535      21.29254386      25.18423722       0.53936178       1.05354259       0.73574743       1.46112573      -0.43052253      -0.78611946
C       21.08537779      22.49664425      25.98741651      -0.29586939       0.72449693      -0.15132914       0.08939876      -1.59388208      -1.09199250
C       19.84270788      22.49348521      26.77762572       0.81209771      -0.19503033      -0.61073429       0.14790192      -1.12696421      -0.13696489
O       20.01210460      21.52180126      27.80048618      -0.08546498       0.20738643       0.14036855      -1.04028368      -0.65445280      -0.93157947
C       18.78997724      21.43808494      28.58380702       0.08402836       0.16867779      -0.26007185       1.76460409      -0.95806956      -2.03721690
H       23.16293800      21.49162577      24.57640251      -0.23731465      -0.55564571       0.03197908       3.10429025       0.01263919       1.70876491
H       22.20841349      20.62201917      23.38572393      -0.23784896       0.06437966      -0.01991640      -0.27555847       0.24279307       1.10509789
H       22.03469113      22.39173311      23.61143896      -0.37671707      -0.18120246       0.06093831       0.31268165      -1.30535662       0.72764361
H       21.97217298      22.63772768      26.59154611       0.47054542      -0.35312222      -0.23844492       0.19146961      -0.02222174       0.22964898
H       20.99613857      23.28039633      25.29505188      -0.11090437      -0.28275179       0.07414039       0.14711656       1.53826785      -1.00408018
H       18.92034693      22.37385143      26.10852775      -0.21675225       0.13940961       0.00710506       1.04305136       0.03842325       1.17526436
H       19.90937152      23.43135602      27.26436554      -0.19019985      -0.44136597      -0.07437160      -0.84694672       1.42694008       0.35799173
H       19.10072270      20.72970881      29.30498865      -0.38439754       0.13293844       0.22735616      -0.31185564      -0.27184060       1.55872893
H       18.66952163      22.45101554      28.81258557      -0.11598842       0.25267984       0.23366386      -1.21723986       1.27776408       1.47097743
H       17.97827245      21.01282974      27.99549607      -0.04701693      -0.12499655      -0.16287237      -0.24142930       0.17445317      -0.11630409
C        7.85529394      19.99402045      16.85622156      -0.31805525      -0.11532893       0.33157166      -1.25776458      -0.11033769       0.58467281
O        7.32688983      19.28849014      17.99574323       0.06794217       0.03229146       0.37938887       0.64455622       1.08858621       0.81822121
C        7.62368395      17.93031930      18.01695194       0.76525226       0.57854952      -0.09325197       0.30092019      -1.40425730       0.48224899
C        6.37537272      17.17019499      18.39686798       0.20115606      -1.08050975       0.49844901      -0.79945898       0.70091367      -0.70126832
O        5.91896548      17.74225356      19.59954165      -0.18025336       0.63292330       0.55381655      -0.05843500      -0.04247452       0.61098170
C        4.60461020      17.36833997      19.96123169       0.14630213       1.00823624       0.15301888      -0.27728087       1.20699537       0.27851418
H        7.65666681      21.06756901      17.00314273      -0.23786325      -0.08393112      -0.10943235       0.01968928      -0.56059963      -0.12384211
H        8.90658232      19.80859337      16.75116781       0.17175320      -0.09894101      -0.05485432       0.39219213      -0.03105087      -0.18267506
H        7.25470339      19.58696300      16.04025150      -0.04084419       0.00424642       0.00922534       0.53214490       0.36672059      -0.60435981
H        7.92745787      17.61462453      17.04314533       0.14892861       0.06542586       0.08432219       0.31548527      -0.39565948      -0.87416601
H        8.43735364      17.58502199      18.71178059      -0.06659148       0.11197225      -0.11177173      -0.51213551       0.99026275      -0.39584497
H        6.60844715      16.12322616      18.56583160       0.00406071       0.05859710      -0.16799923      -0.04294091      -0.40366602      -0.21245761
H        5.57794869      17.31537036      17.61613291       0.06445566       0.00360847      -0.19903744       0.67165387      -0.39387891       0.50002486
H        4.44510915      16.30943583      19.93187822      -0.09096208      -0.03377860       0.26174906      -0.19056524      -0.73558325      -0.56080109
H        4.45601469      17.63379570      20.99810249      -0.03885248       0.05661332       0.01912040       0.19053642       0.23474084       0.41960347
H        3.87539036      17.98159959      19.40066004      -0.03306288      -0.15596899      -0.13573364       0.09436670      -0.73076630      -0.13358445
C       16.25885578      15.59510146      13.98995597       0.22513677      -0.31950962       0.05177660       1.19389582      -2.02028441      -0.54332298
O       16.08918594      14.81195596      15.16976967       0.03195415       0.70334050      -0.23450665       0.60390478       0.01283453      -0.18033753
C       17.01797133      13.73674213      15.35430695      -0.18382594      -0.09881158       0.06576093      -0.12649572       0.62459213      -2.10294056
C       16.50735302      13.03314537      16.50432572       0.29331119      -0.20985602       0.90740492       0.13134392      -1.19728720       0.91866076
O       16.63838863      13.81998099      17.63414561       0.38058263      -0.49420614      -1.03973223      -1.14567900       0.41365826       1.37940812
C       17.90625935      13.81946044      18.24159598       0.04793915       0.18581589      -0.80240437       0.22135679       1.02847576       0.44072798
H       15.87228018      15.01309979      13.12742947      -0.08936980       0.19007184      -0.27934075      -0.18262848       0.50764620       0.30437583
H       15.70321925      16.47198476      14.21241023      -0.01925492       0.02206021      -0.03423990      -0.19842887       1.05543804      -0.41420203
H       17.35057626      15.73280486      13.75158405       0.15658302      -0.19520390       0.32739429      -0.91753131       0.43203309       0.49443075
H       16.93482026      13.01418874      14.51607958      -0.21777303      -0.16203660       0.04176211       0.49071366       0.61601394      -0.00611369
H       18.04426598      14.13053546      15.51349278      -0.10842297      -0.03747913       0.21709814      -0.45816144      -0.32632953      -0.37513784
H       17.03809243      12.10516013      16.64921259      -0.13111426      -0.01475697       0.23308927       0.20195295      -0.65759754       0.00690525
H       15.45560629      12.81963485      16.34463350      -0.03576636      -0.12619959      -0.10604081      -0.26097870      -0.07305150       0.09940673
H       18.62343054      14.29131156      17.56580775      -0.08926400      -0.11855918      -0.04775883       0.17482388      -0.12842320       0.23563488
H       17.76163257      14.47252236      19.12024842      -0.25969113      -0.04474006      -0.19194023       0.44818914      -0.41333470      -0.30667746
H       18.27935597      12.84171199      18.54796934      -0.10255547      -0.04685500      -0.10387246      -0.32320899      -0.24000993      -0.13675110
C        8.98555714      18.05368756       8.11743940      -0.26813768       0.21238096      -0.36212824      -1.42687964      -0.05322359      -1.49963546
O        8.35735695      17.20598765       7.11716519      -0.10941821       0.04240850       0.70777231       1.37415063       0.84031671      -0.00943706
C        7.37471922      16.41572116       7.71162600      -0.12277571       0.38932507      -1.81425001       1.61251187      -1.51793420       1.41485548
C        6.67197055      15.73475626       6.62264752       0.56783528       0.08942155       0.62481063      -1.86623263      -2.83492947      -0.26592556
O        6.15314187      16.62393619       5.70668843      -0.16514800      -0.63251048      -0.85862262      -0.45683473       1.15580225      -2.06916881
C        5.06081846      17.42594966       6.14958908      -0.09638380       0.39433695       0.02022909       0.65385008       0.44353697       0.52617341
H        9.82372562      18.58388473       7.72347288      -0.07861396       0.35609436       0.00267187       0.68450272      -0.03087714      -0.56702280
H        8.24198452      18.80295278       8.32751674      -0.11365566      -0.12397840       0.03538931      -0.17863506       0.32536319       0.83126187
H        9.26894206      17.45007649       8.93802867       0.13041843      -0.04066416       0.10210440       0.27632302      -0.47980294       1.16348326
H        7.85667583      15.67021108       8.41781153      -0.11011818       0.00348147      -0.12572916      -0.44603741       0.41430056      -0.72087789
H        6.72758983      16.97942081       8.32325279      -0.31566335      -0.01389360      -0.18271796      -0.95547348       1.02271092       0.70733953
H        5.72304749      15.15479389       6.96247032       0.13649417       0.02731924      -0.05666300       1.83509278       0.29453725       0.15212210
H        7.37442527      15.02649628       6.07775696       0.14138788      -0.06304876       0.03952235      -0.88897562       0.78909302       0.54086292
H        5.39424989      18.02762109       6.97919464      -0.03840499       0.27678583      -0.17495231       0.20185737       0.58273762       0.28405011
H        4.73416698      18.11078401       5.36210784       0.05465275       0.01808255      -0.14989808       0.15145965      -0.46097466       0.01091773
H        4.24585267      16.86154457       6.57618798       0.07917394      -0.16264575      -0.00360696      -0.42429328      -0.71249074      -0.33300564
F       20.92583105      20.93697145       5.90981174      -0.00859446      -0.33267218       0.29629964      -0.38579839      -0.29257178       0.38132408
C       21.06536181      19.59252135       6.16037277      -0.89471716      -1.36207676      -0.20107187      -1.57853746       1.24702489      -0.22604212
F       20.35343920      18.95535052       5.18616323       0.43948116       0.04139598       0.49076564       0.64278102      -0.07807706       0.15631253
C       22.52962651      19.35772891       6.10616235      -0.17884478      -0.07578869      -0.07669270       0.90393484       1.40122783      -1.08078218
F       23.04785784      19.97984473       4.98699663       0.03794713      -0.44320197       0.03755954      -0.04838946      -0.15076397      -0.14126512
F       23.11185231      20.01860145       7.12949211      -0.30318127       0.71586834       0.70168856       0.04083254       0.05269694       0.57622159
O       22.78989951      18.08639299       6.09926942       0.50556002      -0.34636721      -0.21609226       0.27338779      -2.38268518      -0.31073877
C       24.14856168      17.72964763       5.81413909       0.82699632       0.09644772      -0.25586563       1.29563868       3.84342432      -2.02419376
C       24.39880339      16.41377562       6.34806710       0.32591504      -0.50892434       1.33681856      -0.68745041      -2.45750141      -1.89244485
F       24.18237705      16.44775308       7.64441207      -0.35184698       0.35126960      -0.42587630       0.41514662      -0.53220642       1.53325176
F       25.68888875      15.99742658       6.00654896       0.41771760       0.55140020       0.45722604      -1.02964985       0.65597111       0.69700986
C       23.47510785      15.23374313       5.74186709      -0.58685273       0.07931081      -0.43187154       0.84015250       2.25945473       0.27887404
F       22.16745885      15.37211894       6.03012190       0.25086245       0.32497621      -0.41422262       0.25189412      -0.03470223       0.56934530
F       23.54430384      15.19588494       4.39706214      -0.15139644       0.13047030       0.18197105       0.31577608       0.41684374      -1.10637164
H       20.64832573      19.32763942       7.12504684       0.07935508       0.12595464       0.10433497      -0.19080901       0.06566572       0.25105453
H       24.77656532      18.56130879       6.25775408       0.29704600       0.04261898       0.14024115      -0.18526217      -1.40984654      -0.12633672
H       24.40381148      17.78957163       4.70631638      -0.25928708      -0.13419793       0.67512689      -0.74999005      -0.32076457       1.18021810
H       23.98963815      14.39474838       6.08566477      -0.17609038      -0.26181916      -0.02539066      -0.17887826      -1.96095395       1.00922394
F        6.41838485       5.32743612      14.09804314       0.71364304       0.48975245      -1.03610907      -0.11467085       0.60528564      -0.10024193
C        5.92294326       6.60910233      14.01270375       0.70533272      -0.31802853       0.27720985      -0.11935133      -1.16657519       0.62267333
F        6.95710091       7.44402850      13.74358203      -1.13271713       0.93006578       0.00426978      -0.26519182      -0.11837450      -0.17616779
C        4.89843845       6.59293106      12.84902102      -0.84521155       0.35475088       0.06928725       2.37745476       0.01428892       0.08048587
F        5.66841037       6.38153417      11.72868974       0.47033601      -0.29825431      -0.81810164      -0.05840810      -0.15613073      -0.66616297
F        4.05808615       5.58521249      12.88400668      -0.59655070       0.66854317      -0.18033804      -0.62051249      -0.58319992       0.46431729
O        4.33194238       7.76770756      12.80148808       0.71097305       0.48154929      -0.27803038      -0.25975630       1.92304885       0.50079387
C        3.14146767       7.93549924      12.09913941       0.06429967      -1.12791696       0.75910124      -1.85630202      -1.10439098       0.55194604
C        2.88181839       9.35350731      11.82431851       1.01935111       1.14187363       0.14603187       1.01660252       1.02119005       1.25824559
F        2.53141036       9.97998430      12.99870889      -0.17196577       0.71225830      -0.46731927       0.69946074      -0.03963634      -0.17536032
F        1.82225554       9.49606436      11.05500939      -0.97849271      -0.17297043       1.14065167      -1.16356146      -0.23939338      -1.39801621
C        4.03396631      10.09608381      11.18019234       0.72978890      -0.08701951      -0.20134307       1.35916781      -0.90672475       0.94962424
F        5.05039904      10.36799218      12.04542952       0.20773260      -0.50749911       0.18564998      -0.16970028       0.11448511       0.74970293
F        4.60028569       9.32681575      10.24050012       0.30903997       0.36678652      -0.11486139      -0.08644704      -0.50210404      -0.67873883
H        5.49632140       6.88163360      14.97996709      -0.03899500       0.09130649      -0.19335003      -0.17476019       0.01455519      -0.21434334
H        2.27603139       7.68416883      12.73100474       0.29362641       0.05817187       0.02321504       0.38306552      -0.46929258      -0.10212555
H        3.07985068       7.36461012      11.19173535      -0.15867081       0.13948303       0.20620084       0.24172463      -0.29382408      -0.60195369
H        3.71973711      10.99482857      10.79039321       0.02831990      -0.20007425       0.04984003      -0.77161717       2.02305913      -1.12810040
F        3.78265834      13.68027385      20.32827348       0.57375101      -0.15437490      -0.32545719      -0.01179057       0.99211180      -0.93108159
C        3.72778194      13.09395506      21.50970019      -0.20940265       0.08687766      -0.33480696      -0.97945786      -0.50839150       1.41651130
F        4.29791104      13.86976343      22.45987215      -0.20569888       0.35604920      -0.53643804       0.37474161       0.71270943       0.28038296
C        2.25652277      12.89224014      21.96308712      -0.04862492       0.38970536       0.28737862       0.49120075      -0.70723706      -3.25301456
F        2.19322439      12.23499703      23.08678491      -0.22481880       0.23874551       0.50184156      -0.04896690      -0.38651717       1.78324807
F        1.58667941      14.03690124      22.06070463      -0.64201948      -1.28886349       0.09163876      -0.23287486       1.15687394       0.86111772
O        1.72253826      12.17618114      20.93218658       0.74210521      -0.30124380       0.30106191      -0.12198062      -0.50023979      -0.54665440
C        0.40377060      11.64219702      21.07112411      -0.72023603      -1.06088798       0.52184240      -0.67478758       3.84557533      -2.22122478
C        0.35102428      10.35703805      20.32032097      -0.53965018       0.69992125       0.34360921      -0.45779461      -0.32216886      -0.26188463
F        0.92511219      10.47822894      19.10209799       0.17833283      -0.08205619      -0.92081210       0.09083850      -0.12831648       0.18164855
F       -0.94162096      10.04926473      20.11902572       0.63190046      -0.18448032       0.47430169      -0.58467317      -0.15372552      -0.06754472
C        0.94609865       9.17725494      21.09130260      -0.65716400       0.30935626       0.11709533       2.04986167       1.01581812      -0.88402241
F        1.11947536       8.12524506      20.31103840      -0.22631705      -0.38444382      -0.92402281      -0.05510008      -0.80583227      -0.93602979
F        2.20715289       9.58677044      21.48726978      -0.37507419      -0.37791037       0.01540235      -0.39286619      -0.22513653       0.25582549
H        4.24584344      12.16584278      21.44653987      -0.12438877       0.05790349      -0.09910377       0.34876141      -0.87136269       0.12131993
H       -0.38242914      12.49682828      20.73138743      -0.92197261       0.71630155      -0.23857459       1.77492464      -2.55524111       0.33995178
H        0.21631022      11.51853973      22.06365583       0.17314562       0.04548922      -0.03796477      -0.73915201      -0.83721095       2.91789603
H        0.39079647       8.86089309      21.92050502       0.25038250      -0.09145968      -0.34226912      -0.98553300      -0.02263511       1.49984109
F       26.38873877       6.74528288      20.46538879       0.07950005       0.48962023      -0.19662414       0.38725045       0.17261858      -0.05263947
C       25.49035969       6.81855724      21.47230875       0.70043487      -0.79442555      -0.81144288      -0.41151294      -1.01014471      -0.73687458
F       24.68295547       7.88185015      21.23323748       0.60017858       0.75532844      -1.34070581      -0.28503916      -0.58219987      -0.08818849
C       24.70299895       5.44562795      21.36051370      -0.37572923       0.07947615      -0.40672295       1.13166618       3.39468408       1.34371126
F       25.55882223       4.46775355      21.68722353       0.01776478       0.25297044       0.14276717      -0.20111606      -0.29594013       0.40366617
F       23.67286054       5.49599690      22.21019328       0.59673980      -0.06888150      -0.79532306      -0.53922468      -0.52333820       2.47161198
O       24.15380066       5.32833373      20.20172925      -0.33109655      -0.38591751       0.43598212       0.05850217      -0.81251955      -3.67212272
C       23.50286044       4.07352904      20.02152418      -0.07019788       0.12588523       0.54033984      -2.21904755       0.51872927       0.42408273
C       23.91755143       3.45791242      18.72277858      -0.06159157       0.32578137       0.22477200       0.15269618      -1.61727226       0.10055145
F       23.13077000       2.35076607      18.41762109      -0.03101130      -1.05851101       0.66203295       0.84903759       1.19506204       0.84257579
F       25.21934244       3.05115259      18.79802760      -0.90944200      -0.79891918       0.48829328       0.15727945      -0.55223197       0.31629726
C       23.91935366       4.38532353      17.56686168       0.41515876      -0.14580368      -0.43176569      -0.76558220       1.72985458      -1.75403821
F       24.08881289       3.72989968      16.39527828       0.35775877      -0.01134678      -0.43277674       0.34588543      -0.30219099       0.17970264
F       22.66910572       4.95413782      17.49723146       0.30977493       0.13819964      -0.31872574       0.65092307       0.08898478       0.21363586
H       25.97651356       6.96757668      22.42234490      -0.03138428      -0.01388549       0.03817537       0.35019293      -0.12228087       0.32963708
H       22.41203767       4.25049454      20.07387865      -0.04704013      -0.04696468       0.02834146       0.35867062       0.04354244      -0.73962963
H       23.62237267       3.46276765      20.89180091      -0.10866635       0.11320965      -0.09562541       0.72961056      -0.93264502       0.15434915
H       24.72631872       5.15516631      17.60564179      -0.13278641       0.02330044      -0.16799952      -0.79187649      -0.34662148       0.37963700
F       14.39493547      19.38955907       1.90757580       0.82531777       1.00349049       0.92668484      -1.01067162      -0.64086527      -2.43509793
C       14.50387905      19.61839097       3.19848734      -1.05387093      -0.21067463       0.18459660       1.98635077       1.83780420      -0.17852269
F       15.82897255      19.46652985       3.43729148      -0.19690823       0.02179568       0.39136432       0.95946342      -0.12144099       0.87360448
C       14.21535710      21.14913112       3.39028101       0.55243788      -0.00499452       0.17877871      -1.70645261      -3.71237874       1.69132268
F       12.88996766      21.31326794       3.05547771       0.10140105      -0.74327340      -0.07759074       0.04682665       0.66286576      -0.60007870
F       14.21967785      21.40897324       4.71806004       0.52745448      -0.38457931       0.07879907       0.39023370       0.39712745       0.55601281
O       15.09434450      21.79001882       2.70109751       0.21350094       1.83353435      -0.00675243       1.11571538       1.38026750       0.03938531
C       15.14069998      23.21014805       2.95446570      -2.19824090      -1.01082565      -0.61315497      -3.73904920      -1.59145296      -2.62000704
C       15.17593071      23.80814307       1.59730727       0.80662640       0.05691863       1.17528414       0.83543968       1.73096836       0.41082397
F       16.42595233      23.64276455       1.04913776       0.17338869      -1.31669943       0.06454765      -0.83479607      -0.46821928      -0.45956117
F       15.06297310      25.12651570       1.82713692       0.06590819      -1.12236854       0.90591982       0.05695875       1.47789395       0.03506141
C       14.02472863      23.50746829       0.63257155      -0.35942320       0.65870800       0.65990476       1.44042552       0.96252048      -1.98772836
F       14.01360171      22.21785429       0.45506515      -0.36177969      -0.12552786      -0.54805583      -0.57401663      -3.22160363      -0.46030366
F       12.82908464      23.87409971       1.13268979       0.93404371       0.44003657       0.27849866       0.03870560       0.41917789       0.31253541
H       14.03412404      18.85266332       3.73773365       0.12929151       0.10518296       0.04158558      -1.45127583      -0.53061998       1.19820094
H       15.85973475      23.49812666       3.59320233      -0.09894753      -0.01111377      -0.01377628       3.37455416       0.85543859       1.99460411
H       14.21754773      23.57072040       3.39056566       1.37736082       0.29143439      -0.33245009      -0.55126029      -0.18758425       0.22170725
H       14.23386557      23.88907253      -0.41394583       0.24069294      -0.32491388      -0.36696386      -0.41213152       0.60818142       1.48806810
F       -2.03708394      10.61012586       4.22905099      -0.02962645       0.88626010       0.34384348      -0.36585408      -0.38590780      -0.39771026
C       -1.60648048       9.55253742       4.93067268       0.14245975      -0.32297723       0.25497130       1.19067347       0.16549847       2.52078962
F       -2.57008733       8.62143275       5.14764701      -0.51163084      -0.55244787      -0.48524366      -0.41658875       0.32306707      -0.37045747
C       -0.46102708       8.83599629       4.19573153       0.03531993      -0.30893723       0.75460587      -0.21355978       2.04220057      -0.12360871
F       -0.15555024       7.66467111       4.70941116       1.18635071       0.38823832       0.33185675       0.20566987      -1.22483873       1.01404786
F       -0.90622151       8.58509228       2.96532647       0.68165298       0.56878601      -0.16935138      -0.29782340      -0.23807846      -1.32062173
O        0.60920144       9.67268158       4.18826579       0.31323285       0.85932952      -1.65302193       0.45237571      -0.44527537      -0.41823739
C        1.66712133       9.19078417       3.33011068       0.64621646       0.27100654       0.23183682      -1.58438921      -1.75368166      -0.96878552
C        2.48378474      10.30393352       2.84558208       0.54485220       0.35302356      -0.05500762      -0.70529020      -1.13711822       0.80473560
F        3.24370722       9.82392637       1.87008170      -0.67173078      -0.57556525      -0.55127299       0.87804711      -0.10546859      -0.97216558
F        3.28735133      10.64441884       3.86328387      -0.03763956      -0.15348768       0.66566543       1.00180256       1.34430540       0.72658682
C        1.63892364      11.42898548       2.36716673       0.02885242       0.11327295       0.78966662       1.57578278       0.90451711      -0.74348021
F        2.53435039      12.31410962       1.84048774      -0.55408369      -0.54471742      -0.79273629      -0.01155290       0.89404583      -0.00880456
F        0.87654951      11.01492725       1.37539999       0.63088282      -0.14825105      -0.71785625      -0.97648990      -0.67693639      -1.14531159
H       -1.28378820       9.93922392       5.94605284      -0.05540413      -0.01076595      -0.13957541      -0.15688223      -0.53048599      -1.04405367
H        1.24369027       8.73568622       2.39342056      -0.05307967       0.17961077      -0.10398026       0.20098871       0.15036508       1.02023935
H        2.32786717       8.47920567       3.82022828      -0.01334219      -0.15721453       0.18968229      -0.18590645      -0.12586069       0.24093209
H        1.03077923      11.87110152       3.10082875      -0.29604861      -0.27437125       0.00662120      -0.57916921       0.80789626       1.16848898
F       -5.64686192      24.15083454      22.75676794      -0.33431754      -0.66119187       0.27031257       0.26031336       0.11579756      -0.25557503
C       -4.48813880      24.30289693      22.08093076      -0.44129832       1.02822587      -0.47678017       0.47617638       0.04704158      -0.32867801
F       -3.70734922      25.22503535      22.70876504      -0.56083622      -0.03929066      -0.72938995      -0.18287171       0.14370608       0.44351554
C       -3.69966347      22.98747243      22.09141119       0.28962425      -0.52609207      -0.06556031      -1.27791929      -0.56008005       1.35159922
F       -4.41579572      22.06964918      21.34997917      -0.55581195      -0.69623186      -0.02172858       0.81220973       0.28816068      -0.56596667
F       -2.47360721      23.18782251      21.62319551      -0.20148480      -0.24073744       0.06832654       0.64399582      -0.11112649      -1.52557194
O       -3.60964267      22.53424678      23.34040958       0.41526921      -0.10382114       0.42236574      -0.19367217      -0.01715422       1.43623662
C       -2.86469017      21.32536949      23.60294937      -0.56022903      -1.18086051       0.19595781      -0.58369052       1.57649899       1.01496911
C       -3.04654724      21.07269433      25.11839144      -0.40067496       0.88852896      -0.57141546      -2.03390312       1.70788562      -0.95905387
F       -4.30710471      21.51215817      25.49890870      -0.69588818      -0.00434843      -0.36833984       0.53745562      -0.26632643      -0.08997217
F       -2.16323476      21.81010519      25.77381998       0.03071752       1.00066148       0.23033514       0.90955400       0.57519233       0.74604237
C       -3.00114354      19.66243909      25.53506336      -0.15120530      -0.79300527       0.35240366       1.85111308      -1.35269010      -0.76219296
F       -1.83993050      19.13286946      24.96686389      -0.02514955       0.05719025       0.53777160      -0.35350454      -0.03198463      -0.16280913
F       -2.84520515      19.48299245      26.84032474      -0.74318337      -0.12793892      -0.43193631      -0.31391355       0.21562326       1.10999823
H       -4.59694462      24.67292554      21.06818324      -0.23343983       0.31774641      -0.02816577      -0.63584387      -0.17180106      -0.02173470
H       -1.82557992      21.56547473      23.47706576       0.03442908       0.05298515       0.00354670       0.57513374      -0.52648318      -0.46300241
H       -3.28761030      20.56953277      23.00080144       0.12355179      -0.19214105      -0.06059274       0.02764796      -1.18703318      -0.62974715
H       -3.84618999      19.13883889      25.16520947       0.25742548      -0.17233359       0.14637318      -0.84898883      -0.68717968      -0.33854729
F       11.93145405       5.07374779      20.00789892      -0.48228479      -0.08322793      -0.76903483       0.41135758       1.12546301      -2.08138180
C       11.63561737       4.42651632      21.08383797       0.27263982      -0.47924401      -0.00619405      -0.40338483       0.12118720       2.77662182
F       12.18364939       5.11468861      22.16562412      -0.69397004      -0.02494920      -0.25408759      -0.35734865      -0.00952712      -0.55628544
C       10.10943472       4.38538422      21.31452160       1.16028883       1.24244909       0.41457656       1.15390587       1.76157761      -0.85772413
F        9.62639638       5.66253266      21.27596291       0.85688401      -0.58553955      -0.56253224       0.02693880       0.21290557       0.50890869
F        9.51937305       3.83107988      20.25195142      -0.40914358      -0.16389419       1.01504794      -0.52881247      -1.19680977      -0.49177915
O        9.92989503       3.79455548      22.47457834       1.06532396      -0.11553013       1.17664053      -1.63172972      -0.60033673       1.69783890
C        8.56975424       3.70475697      22.99407505      -0.91181900      -0.31153835       0.66823283       0.02946959       1.81533861      -0.32452399
C        8.57540705       3.29990839      24.43555153       0.25916385       0.18840900       0.05315582       0.94922662      -0.43995029      -0.12689713
F        7.26513454       3.04829395      24.72140095       1.00396394       0.97249039      -0.80531255       0.34036428       0.35108542       0.59000212
F        9.10391191       4.25953675      25.24428288      -1.05939680      -0.39486206       0.01095101      -0.58294106      -0.42910576      -0.39591753
C        9.40825580       2.03288389      24.59952753       0.07883320       0.25230295      -0.71598143       1.69440019       0.30140668       0.37033272
F        9.59859108       1.71601583      25.90515708      -0.39255981      -0.44575772      -0.17877603      -0.40752867      -0.00925205       0.28591850
F        8.74933830       1.02524028      24.01701713       0.81868743      -0.82892553      -0.01886380      -0.31035304      -0.66493475      -0.36841378
H       12.09099441       3.46974942      21.13526464      -0.12421916      -0.05357515       0.10243600       0.25182655      -1.15128970      -0.24943736
H        8.03500313       2.93473147      22.47083966      -0.01318930      -0.35014706       0.08987701      -0.27496445      -0.20431606      -0.48434040
H        8.01786158       4.69307180      23.00428402      -0.09756159       0.02779316      -0.07084583       0.72236300      -0.96448720      -0.58487719
H       10.43548149       2.13463276      24.16121660      -0.07630647       0.00174883      -0.02673124      -0.93937522       0.01979061       0.13005085
F       31.06235816       7.66020525       3.83294825       0.08748120      -0.08486062       0.70072995       0.13646384      -0.46403727       0.38240859
C       29.82912481       7.09933442       3.64688061      -0.00222624      -0.69114426      -0.25416237       0.02778147       0.66201198       0.85875702
F       29.66587423       7.04642392       2.33291947      -0.74932055       0.72587663      -0.58989599      -0.35174116      -0.33075488      -1.09713125
C       29.77245924       5.65070753       4.22124352       0.24033523      -1.22315682      -0.41389230      -1.46203327       1.08251500       0.34388235
F       30.56297312       4.90538988       3.45662354       0.26942644       0.56163542       0.02401584       0.51438570      -0.68045175       0.44951007
F       30.17046623       5.65890791       5.54604168       1.13636381       0.87051377       1.35899646       0.37531304      -0.26133540      -1.01382029
O       28.44975915       5.26814424       4.16729077      -0.55666158      -0.12011196       0.19289708       0.52212834       0.68020111       0.19683300
C       28.09371436       3.92164826       4.17527071       1.07155002       0.34133118      -0.03146825      -2.76454377      -2.73768997       0.87935221
C       26.73693151       3.67859666       3.32407842       0.60635688       0.98639158       0.66290070       5.00420952       0.21137053       2.63374281
F       25.90705797       4.67240485       3.49405108      -0.19428400      -0.26678864      -0.18419461      -1.63713467       0.95356733       0.06309016
F       26.29451455       2.53984031       3.80922822      -1.09898355      -0.29227586      -0.23220906      -1.43258369      -1.65833449       0.92211074
C       26.99239114       3.44484331       1.90163722      -0.46501269      -0.04385606       0.49742928       2.03152204       3.79344177      -0.16115212
F       27.45919193       4.67971456       1.46696610      -0.90826450      -0.23231297       0.90559669       0.22440097       0.41341335      -0.42802125
F       28.01750733       2.63504920       1.62357255       1.21304899      -0.17773826      -0.03466050      -1.07409346      -1.28162920      -0.17182335
H       29.09080486       7.79290863       4.06839332       0.16154395      -0.07927266      -0.27697056       0.00564457      -0.38326713       0.17575711
H       27.68279306       3.36431775       5.26510147      -0.26886725       0.06201939       0.06446141       2.01509190       2.31692433      -2.87807155
H       28.80598508       3.30811839       3.59741120       0.04120247       0.01709287       0.23679198       0.15174478       0.12081062       0.98207039
H       26.02779679       3.47481959       1.53777950       0.22028413       0.18019199      -0.21586776      -1.94373465      -2.01355600      -2.35382509
F       27.01121172      10.07556678      10.80948609       0.07082134       0.38703721      -0.53336306      -0.66205204       0.27294058      -0.22775662
C       25.61349571      10.11334274      10.92606278      -0.29668548      -0.94628103       0.24282596       1.10190392       2.04963017      -0.40990040
F       25.22617067       8.89281896      10.74520846       0.71323757       0.29672971      -0.29445872      -1.08182633      -2.05444050      -0.20768267
C       25.34052338      10.60751563      12.32706073       0.57847118      -0.84686239      -0.60340904      -0.55375314      -1.25076771      -0.37831193
F       24.02572778      10.72857077      12.57826427       0.76773726       1.38982593      -0.48380965      -0.83003485      -0.04877628      -0.20694846
F       25.75116445       9.59772226      13.10293879      -0.19267488       0.00990284       0.41773233       0.60703856      -0.85804248       1.49621987
O       25.96874857      11.73074395      12.54267808      -0.33323340       0.43171360      -0.50378876       0.34554386       0.26262909      -0.67188704
C       26.15260844      12.10505924      13.86578033       0.63528143       0.19256851       0.67495300      -1.01271605       3.36150765      -0.20193385
C       25.40333869      13.46048162      14.03230182       0.10045055      -0.28732441       0.77356821      -0.00833490      -0.83983982      -0.00278115
F       24.08896336      13.38612526      13.68827388       0.30496503       0.81514937      -0.46838752      -0.46610177      -1.02473783      -0.00487854
F       25.89848363      14.35179636      13.19340014       0.41854343       0.44247624       0.01412524       0.91073608       1.14814293      -0.88302052
C       25.45407732      14.01199627      15.43484124      -0.10296248       1.37361167       0.08241985       2.13308692       1.41129184      -0.80314803
F       24.84027830      15.23217917      15.43539772      -0.14754845      -1.27329822       0.18582300      -0.21003763      -0.29700285       0.26094025
F       24.86475656      13.19485495      16.29655146      -0.05153662      -0.66336242      -0.09431391      -0.46732658      -0.56798822       0.70469403
H       25.16760724      10.80069000      10.21954541      -0.09843709       0.24800460       0.00868517       0.24855182       0.02966902      -0.59555972
H       27.19315774      12.22186129      13.97777321      -0.17479609       0.25485793      -0.14913803       1.09790134       0.43836954       0.57104254
H       25.72745248      11.59719845      14.66127741      -0.01858401       0.10633423       0.13172737      -0.77292877      -2.38895631       0.89524877
H       26.53574923      14.17952044      15.63400365       0.07398790      -0.20058158       0.08853684      -0.69489563      -0.11778538       0.50780773
F       23.10803952      13.39188098      23.50071961       0.58761056       0.88680228       0.24520262       0.15888011       0.86372107       0.40144664
C       22.12858868      12.55907402      23.16931861       0.33192193       0.14553960       0.69655539       0.21983069      -1.56984043      -0.62193894
F       21.56195456      12.08585188      24.30438485      -0.48870926      -0.69961615      -0.19229329       0.05464767      -0.23039499       0.24201360
C       21.03486176      13.16971447      22.29528260      -0.24822691       0.20562987      -0.05551239       1.10469556       1.06276309       0.91595227
F       21.67769394      14.04970984      21.49321307       1.19503630       0.35391087      -0.46520479      -0.39344391       0.19272217      -0.52184671
F       20.54534603      12.20653976      21.55049420       0.20424374      -0.48544844       0.64375579      -0.51987195      -1.39074445      -1.35172582
O       20.04332010      13.75448653      22.98659707       0.19237261       0.94576537       0.88410085      -0.21065423       0.27640724       0.51180112
C       18.94535830      14.12600170      22.14531199      -0.14439405       0.46396429      -0.00790961      -0.02687977      -1.65830100      -0.27655572
C       18.23454443      15.21985227      22.84898467       0.63787691      -0.24433708       0.00891970      -0.15814173      -0.82631969      -0.58153981
F       17.11756944      15.52492354      22.15473760       0.01232585       0.27425326      -0.29679880      -0.74022561       0.22917080      -1.05548429
F       19.05447508      16.23427609      22.82986919       0.25405944      -0.17784974      -0.06937663       1.01571703       2.42587924       0.33353436
C       17.70284141      14.98421701      24.22646287       0.29489042      -0.00797130      -0.29956106       2.71630740      -1.14707685       1.54329491
F       17.34560582      13.69303721      24.35545059       0.22617871      -0.88330669       0.11015717       0.18464315      -0.33878654       0.08938346
F       18.70673692      15.27517500      25.17505653      -0.55975948       0.07559340      -0.47557397      -1.04157674      -0.43716714      -0.84082890
H       22.58759097      11.73064543      22.58322080       0.14035514      -0.06580501      -0.15448531      -0.50065410       0.36998758       0.56970906
H       18.27542277      13.25992591      21.98459447      -0.21941337      -0.01787104       0.02892945       0.45931160       0.46958119      -0.01759857
H       19.35999709      14.50244715      21.20504024      -0.12133205      -0.21870409      -0.00988443      -0.45632023       0.12768523      -0.02672465
H       16.88934941      15.58698565      24.41232183      -0.25566510      -0.09206935      -0.33172497      -1.70328641       1.33864474       0.60835516
F       14.65680787      20.38721366      15.18004625      -0.34252182       0.06383197       0.92013524       0.23115140      -0.92961085       0.20740408
C       14.36964661      21.52468212      15.82616298      -0.29814152      -0.35857645       0.27873304       1.34084344      -0.38575295       0.24241427
F       13.36717181      22.05572067      15.21305819      -0.10080039       0.46649310      -0.24644742      -2.60364270       1.85368288      -2.00913405
C       13.88987504      21.30487344      17.22874516      -0.35605289      -0.11074666       0.36520834       0.20859277      -0.68605626       1.37600148
F       13.57848555      22.52451386      17.81038640      -0.90860185       0.60958116       0.33505313      -0.04923442      -0.03447730      -0.60764939
F       12.76092373      20.57291945      17.31073574      -0.32801558       0.35402790      -0.59877840       0.27611583       0.37025931      -0.36582550
O       14.91415291      20.73336968      17.87361233      -0.50363964       0.43549866       0.02785908       0.10665767      -0.89005238      -0.55015844
C       14.99373523      20.85446183      19.25628685       0.14211424       0.20754796      -0.42161970      -0.66945887       0.11181696       0.50206709
C       14.29013077      19.78526376      20.07532712       0.02194534       0.48514979      -0.26629432       0.17415591       1.98521733      -2.69878149
F       14.55727089      18.61315772      19.53351413       0.11027699      -0.61531500      -0.05849678      -0.14719599      -1.81675649      -0.33514476
F       12.97697936      20.06044338      19.97386862       0.11307271       0.26476037       1.10215009      -1.14678049      -0.58225912       0.22780740
C       14.73073047      19.80706679      21.45878403      -0.26747663       0.00593300       0.00618678       0.68267512      -0.42863351       1.61595464
F       14.47369232      20.98844220      22.06087332       0.38939252      -0.37894982      -0.21008346      -0.74250674      -0.42500290       0.13662882
F       14.14962515      18.71485834      22.07827312       0.69630770      -0.06272963      -0.30844413      -0.08701207       0.89655572       0.46965194
H       15.24873232      22.16498841      15.78992440      -0.06602973       0.06874256      -0.19166811      -0.03105365       0.02566020       0.23656926
H       14.50390193      21.75424726      19.53299254      -0.08161875       0.27100123      -0.02930784       0.15368170       1.11061251       0.66824323
H       16.02674454      20.86478744      19.42630958      -0.04709093      -0.19218174       0.13070450       1.45763874       0.09798434       0.75977826
H       15.78395857      19.68746931      21.49521953       0.07547982      -0.20482123       0.27585854       1.03586817      -0.45022988       0.18001884
F       21.33776408       4.55831030      11.59775411      -0.15583755       0.23973664       0.19956393       1.00515079      -0.81393087       0.91583002
C       20.26151267       4.80985217      10.85779092       0.25925115       0.33698494       0.28141143      -0.02291739       1.90337324      -1.63038826
F       19.53975244       3.70482392      10.63137489      -1.48891253      -0.78043333      -0.09010332       0.05421166      -0.58035946       0.34527510
C       19.43669766       5.85068509      11.56722058       0.88446917      -0.33302167      -0.82171837      -0.97746253       0.08776034      -0.26912487
F       18.19655337       5.75007295      11.00896419       0.39131093      -0.27844833      -0.43626638       0.12382805       0.36616489       0.32327825
F       19.30092445       5.53637684      12.86201865      -0.18138430       0.12522882      -0.31907028      -0.33321136      -0.86305285       1.31914282
O       19.94516958       7.10181610      11.50332922      -0.81666623      -0.63528712      -0.24373296       0.38251302      -0.97838378      -0.70808935
C       19.11119748       8.00404215      12.18429595      -0.73841225      -0.92519128      -0.69468208      -1.39101338       0.46540698      -1.30326939
C       19.54612937       9.40371795      11.89234223      -0.73278694      -0.57241107       0.23560003       1.72097611       0.18175521       0.44690371
F       18.63035352      10.16799294      12.51629636       0.11897915       0.30896739      -0.19605065       0.06219454       0.78867692      -0.16183166
F       19.51725466       9.61805434      10.55016213       0.85832396       0.52567816      -0.61704230      -0.09043837       0.26536825       0.22107834
C       20.99373351       9.83267768      12.41342082      -0.52970758      -0.49133682      -0.11651229      -0.76683968      -0.30607268      -0.62741411
F       20.93772711       9.78396196      13.73737482       0.81954002      -0.31376333       0.29377314      -0.08550411      -0.64400524       1.80999434
F       21.94319688       8.95510799      11.98448392      -0.21048248       0.64674399       0.88045780      -0.30726269      -0.12197691      -0.12341368
H       20.55184823       5.29585977       9.91850436      -0.05941156      -0.11822575      -0.03316730       0.15364888      -0.54790294      -0.14338577
H       18.99573748       7.78603988      13.21424417      -0.04328538      -0.12947327      -0.01330985       0.38627374       0.03935760       1.19560242
H       18.08065374       7.96996505      11.76842185      -0.04729559       0.01174376      -0.01441903       0.54644257      -0.06816311       0.04512027
H       21.33692348      10.83489156      12.23447477       0.12563710      -0.07158014       0.14862710      -0.22177568       0.22249635      -1.07150948
F        2.83092804      17.74642232      16.34289079      -0.31868791      -0.21316885       0.39549698       1.30664539      -0.71695757       0.56482059
C        1.63086227      17.99049068      15.87593275       0.36800979       0.71541937      -0.54017775      -0.27229279       1.82513285      -2.25471306
F        1.44204854      17.40821583      14.67430476       0.43206291      -0.81968193      -0.25677085       0.07124617      -1.73108745      -0.74482703
C        0.57824732      17.58521027      16.80995715       1.08962251       0.23350365      -0.29708338      -1.32975495       1.20428586       2.14283872
F        0.60932926      18.47250420      17.89468910      -0.07632244       0.40508153       0.53482704       0.05063350       0.05720030      -0.61058497
F       -0.66660163      17.76837425      16.29051934      -0.29830215      -0.04651309      -0.49494969       0.20707041       0.03749166      -0.36852974
O        0.79036779      16.38615783      17.23597918       0.05216720      -0.16473633       0.14565013      -1.59474909      -2.16697478       0.24254154
C       -0.34569214      15.67937119      17.87801896      -0.02988147       0.23483325       0.12979266       2.56264734      -0.81643784      -0.39930707
C        0.44083457      14.72056004      18.77343440       1.01187951      -0.81468931      -0.13519563       0.14337021      -0.15115300      -0.20205165
F       -0.53499177      14.18217145      19.52618933      -0.32188255       0.71759417      -0.85939715       0.13510895      -0.31599396       0.89499986
F        1.37949367      15.37025686      19.54474318       0.59310460       0.21324589       0.96752054      -1.08538043       0.02751441      -0.04405339
C        1.25448890      13.57658338      18.14150787       0.30189461       0.21541654      -1.17271067      -1.13647175      -0.95115066      -0.00834736
F        0.40960025      12.80578683      17.41765504      -0.30486901      -1.25726585       0.60394811      -1.00129890      -0.28839657      -0.27365488
F        2.13654366      14.03336606      17.29254254      -1.37295380      -0.16609549       0.07274642       1.64373422       1.58847761      -1.59321773
H        1.54261590      18.99701200      15.56627429       0.03935415       0.16637919       0.54208919      -0.06882930       1.74490511       0.73974526
H       -0.98106931      15.15515500      17.13964978      -0.00162674      -0.06757190      -0.17409882       0.70148003       0.27068549       0.23569182
H       -0.93999612      16.26661861      18.54536677       0.35616282      -0.06701764       0.10214162      -0.07916046       0.91507989       0.25217974
H        1.81183932      12.90246235      18.75842543      -0.02078108       0.15843184      -0.06262882      -0.22243631       0.01374030       1.36996377
F        3.80003890       4.57588524       4.14832196       0.21907422       0.33637880       0.39438621      -0.51227766      -0.78386587      -0.77610695
C        2.88544118       3.92887322       3.33922387       0.11991823      -0.03322594       0.30293487      -0.35342157      -0.40417296       0.91917241
F        2.53168994       2.72378590       3.94718949       0.82402286       0.63659805      -0.36793185       0.63666588       1.14902997      -0.70845246
C        1.60831832       4.78324593       3.37600935       0.00642139      -0.15000840      -0.52005499      -0.56385136      -0.42728573       0.78516692
F        1.06627027       4.77437870       4.61113999      -1.28870721       1.29954179      -0.87044990      -0.35174146      -0.98468995       1.08274460
F        1.83491731       6.05946294       3.21853323      -0.48722102      -1.18125171      -0.28723118       1.67934418       2.33185744      -0.96416187
O        0.71214416       4.37814785       2.46383185       1.02357601      -0.23017041       1.40213676       0.51727295      -1.14599979       0.09816083
C       -0.36255458       5.22271887       2.25398582      -0.84011390       0.60742077       0.15683991      -3.90285349       0.55945909       1.48223424
C       -0.53537590       5.22988361       0.81139437      -0.14030120      -0.85326319      -1.14262362       1.87101865       0.61470509      -2.80716062
F       -1.49404696       6.03904284       0.37679519       0.72028505      -0.19355587       0.13145373      -1.30486906       0.68014044       0.33804259
F       -0.81831470       3.98822026       0.37268115      -0.16822388       0.01620488       0.95295496      -0.39160338      -1.04982746      -0.18480852
C        0.71485389       5.65813683       0.00006197       0.21608929      -0.53172359       0.74613154       1.01907575      -1.45988870      -0.52595502
F        0.42313330       5.66250217      -1.32298608       0.60965570      -0.04582968       0.97051962      -0.86148649       0.46213463      -0.54624170
F        1.10046438       6.89242053       0.35406275       0.93474546      -0.32035975      -0.33704737      -0.01939899       0.69601583       0.36680925
H        3.25619496       3.77364758       2.31195687      -0.35900486      -0.34118186       0.14520103       0.11186591      -0.03442510       0.51293486
H       -0.27277755       6.30510383       2.58941603      -0.32127919      -0.53081646      -0.19588722       0.04618796      -1.63734269      -0.03344670
H       -1.41646885       4.72728573       2.62336696       0.30172930       0.24592378      -0.15009155       2.78729010       1.38405550      -0.39134312
H        1.57079757       4.96388176      -0.00362675      -0.51594184       0.21357175       0.47820075      -0.30642432       0.19029768       1.08926296
F       19.67347870      -1.56218228      17.86582581       0.05297450       0.15551511      -0.35541258       0.76697290      -0.00707113       1.01040399
C       18.96269583      -1.91626492      16.79835758      -0.07042299      -0.14400925       0.80328326       1.02477717       1.39803553      -1.03178549
F       19.36348202      -3.12893295      16.42260116      -0.76828613      -1.00221601      -0.21440991      -0.12206855      -0.77271837      -0.20470557
C       17.52803623      -1.89210428      17.19625283      -0.43223154       0.48710267      -0.22882452      -1.38305628      -0.51314646      -0.83123106
F       16.82435091      -2.36509691      16.11798251      -0.06123835      -0.18774787       0.07239850      -0.24964026      -0.24096884      -0.89569741
F       17.23766802      -2.76004205      18.15098678       0.12991831       1.93138278      -1.18294564       0.06111460      -0.51840800       1.03273022
O       17.13061806      -0.66652580      17.47458926       0.10549010      -0.50911124       0.15454622       0.76857609       0.95278454       0.21799292
C       15.80803405      -0.44749016      17.89849119       1.40688716      -0.90981460       0.52157272      -0.90971839      -0.75101370      -0.78220475
C       15.20839604       0.72710252      17.12176711      -0.14105952      -0.64436864      -0.04657826       0.30262130      -0.10839768       0.84285259
F       15.97456471       1.86609839      17.29041661       0.45444550       0.52444146       0.26663873      -0.62183630      -0.65516061      -0.34339824
F       14.01330160       0.90498433      17.72313631      -0.20909938      -0.37671775       1.13846464      -0.52794683       0.62517160       0.22176419
C       14.89914041       0.51089161      15.65024826      -0.07261491       0.04450949       0.07437920       2.44897699       0.74799943       0.40009925
F       16.10149628       0.19701573      15.03844814      -0.36979803       0.07520935      -0.41482214      -0.80998343       0.05909278      -0.00757356
F       14.04574816      -0.46244153      15.56456058       0.69703339       0.08459777      -0.78767564      -0.99995661      -2.64421988      -0.32302254
H       19.17152386      -1.18871817      15.98596139      -0.32724098       0.05582360       0.12246913      -0.23631048      -0.44097179       0.33014441
H       15.81417335      -0.18847265      18.94144439      -0.01711871       0.11964396       0.02506644      -0.10382118       0.16225110       0.49846712
H       15.11916133      -1.33592718      17.76302883       0.29515796       0.20611436       0.13514282       0.90017551       0.91128892       0.06836089
H       14.43758129       1.31795223      15.16007637       0.17140120      -0.18038367       0.01749321      -0.06282115       1.72110581      -0.50739676
F       16.94817244      14.56613441      10.18263782      -0.09007178      -0.79219567       0.58483420       1.11283731       0.29243317       0.32164308
C       15.74570827      14.47468862       9.66442102       0.05087312      -0.50609764      -0.03250195      -1.30717707       1.80053174      -0.73311126
F       14.82530187      14.84424726      10.58757116      -0.08892694       0.26622707      -0.04875013       0.00192957       0.03951623       0.27211791
C       15.56456547      15.48557619       8.47075887       0.66064316       0.19349413       0.95717178       0.37385163       0.13112056       0.24279444
F       15.60670066      16.77844662       8.92304711      -0.02926506      -1.11591108      -0.27710419       0.10415007      -0.74668765      -0.01387704
F       16.62574801      15.35409079       7.59981983       0.69196977       0.47769051      -0.38365816      -0.42840442       0.09334441       0.43581894
O       14.39407054      15.25271154       7.85175390      -0.51613390       0.29761547       0.29218730       0.44724903      -1.17210579       0.90769631
C       13.97338281      16.09188195       6.81687261      -0.13787811      -0.38937786       0.11219999      -0.39943364      -0.06878348       0.41900060
C       12.53078084      16.38997645       7.07577100      -1.09173501       0.76617616      -0.13661560      -1.22941911      -0.01122251      -1.63016164
F       12.36663117      17.06837525       8.19989697      -0.54048366       1.46516892      -1.24280765       0.12762421       0.79406995       1.51553094
F       11.76301441      15.25292682       7.23754476      -1.10154228      -0.84253378      -0.24106191       0.64627790       0.42939085      -0.34655222
C       11.83312216      17.26558218       5.95786179       0.00422017       0.89358526      -0.33191700       2.69345045      -4.01416969       0.97406387
F       12.34529098      18.44124826       6.07440219      -0.68935481      -0.06841825      -0.32060196       0.15524644       3.19693613       0.15905607
F       12.29615056      16.77974115       4.76771256      -0.07858260       0.69121301      -0.72691593      -0.81594718      -0.08417172      -0.30927992
H       15.52999602      13.49073249       9.36897094       0.16428197      -0.28389704      -0.02943485      -0.15016690      -1.46589315      -0.55385119
H       14.15424798      15.65703600       5.87966469       0.03695092      -0.16244216      -0.00593558      -0.23752567      -1.14035535      -1.31832170
H       14.52286100      16.98735033       6.74832533       0.05338981      -0.10436070      -0.01679393       0.59298855       1.48672390       0.47039786
H       10.81062272      17.11175573       6.16083884       0.24524803       0.06512998      -0.01289209      -1.71616840       0.59692037      -0.68912518
F       11.59093554       9.69146730      11.89812410       0.05815346      -0.54977602      -0.26604422      -1.06989539       1.04921043       1.02407873
C       10.72285241      10.62121533      12.51341480      -0.34599298      -0.34879420       0.01089852       1.50324190      -0.52060729      -2.33900213
F       11.23665651      11.85100416      12.22053048      -0.69104020      -0.03133097      -0.31926857      -0.17600396      -0.24763966       0.22950292
C        9.35162629      10.51726321      11.84166646       0.52588431       0.02595519       0.50007041      -0.07179978      -1.34691107       1.11448717
F        8.49419885      11.11540981      12.74669216      -0.65877813       0.50375338       0.62755580      -0.28714770      -0.01940075      -0.20357978
F        9.23792009      11.18385847      10.71904809       0.04309732       0.36672901      -0.08239496       0.21499673       0.94463634      -0.81690997
O        9.07918933       9.20254734      11.65740683       0.47529560       0.35093378       0.45766185      -0.79547286       0.64509273       0.30233604
C        7.77903916       8.93807776      11.02914372       0.17418759      -0.74284880      -0.33799573       2.06499147      -0.57593036       0.02647955
C        8.09673601       7.84494855      10.01105629       0.36765236      -0.34541803       0.71036002      -0.97414410       1.29661942      -0.08620730
F        7.02446849       7.88945064       9.15054801      -0.52162895       0.39317654       0.44394436       0.08386133      -0.24687462      -0.18837033
F        8.10218814       6.65367722      10.59244575       0.01512032       0.34034625      -0.69065779       0.10288531      -1.10263896       0.39098528
C        9.38101853       7.99046168       9.19888361       0.43534172       0.56133490      -0.23284707       1.53235745       0.00719151       0.86224127
F        9.36410863       7.05932262       8.22782451       0.06042947      -0.00801372      -0.06601403       0.26007512       0.04004186      -0.26351032
F        9.37664381       9.21012890       8.63659127      -0.55234324      -0.92301972      -0.00156171      -0.11976708       0.54121262      -0.43491918
H       10.68293199      10.47047418      13.57130555       0.19952064       0.12423650       0.00951461       0.09900382      -0.25209767       0.56020653
H        7.37861143       9.81368240      10.55737612      -0.01181915       0.05527522      -0.01025579      -0.11704386       0.31701276      -0.27861369
H        7.13249612       8.53870586      11.77905122      -0.21887570      -0.05664790       0.05161623      -0.54206091      -0.16788492       0.34432408
H       10.35802718       7.88946462       9.77092579      -0.13655145       0.18118767       0.02901788      -1.47327864       0.02030766      -0.39157143
F       10.23674058       1.98709274       6.36442411       0.74377210       0.04561847       0.42149409      -0.24109864      -0.02189585      -1.28108728
C       11.03082047       2.19668686       7.41756797      -0.04149778      -0.64628269      -0.11745198       0.25962251       0.04122163      -0.15192014
F       12.29355942       2.50455269       7.03007951       0.12911559       0.08998395       0.19231937      -0.46351647      -0.25467348      -0.03125058
C       10.42553127       3.34212732       8.18118066       0.29413290       0.33203101       1.47886161       0.49706763      -0.14770901       1.31522334
F       10.07919416       4.32406752       7.35584924      -0.69519002       0.38247506      -1.65604649       0.44220829       0.94159514      -0.37126866
F        9.24169087       2.92148161       8.70054970       0.21193965       0.25092637       0.02373735      -0.00998099      -0.21316813       0.26126543
O       11.32248395       3.68409949       9.16800980       0.17963808      -0.10695306       0.02184087      -1.31287515       0.13552004      -0.82082045
C       11.03748686       4.92607293       9.82175584       0.05457070      -0.08081369       0.59518256       1.31387126       0.24682955      -0.18310817
C       11.78657728       4.82034786      11.13985997      -0.49731507      -0.34922259       0.20824803      -1.67782259       1.02719998      -0.60617489
F       13.05390617       4.47319254      10.93203273       0.09573839      -0.14312234      -0.04871917       0.56874084      -0.30060840       0.04592280
F       11.16497487       3.84344568      11.84757522       0.72919539       1.07934105      -0.65490475       0.11371571      -0.04867422       0.82944632
C       11.76604719       6.14494470      11.94126881      -1.42303874       0.26804298      -0.05092493      -0.10435165       0.34100908      -0.73787224
F       12.57921501       7.02233733      11.26366487       0.35551252      -0.26945601      -0.00430415      -0.06346866      -0.18824929       0.19629955
F       10.53047019       6.73526181      11.97814740      -0.00147585      -0.09596367       0.37774078       0.53106344      -0.76804340      -0.15135257
H       10.99722465       1.28819404       7.96843991      -0.17660704      -0.20098126       0.21581004       0.48982692      -0.76006639       0.89946330
H        9.99349931       5.13550801       9.97195011      -0.10979345       0.31303076      -0.14031386      -0.52551264      -0.29192525       0.17647804
H       11.48006550       5.71727090       9.22197196      -0.25079939      -0.17822159       0.13411620      -0.15054110       0.04973231       0.05697211
H       12.14544723       6.00840646      12.92482058       0.02689891      -0.13448468       0.11341055       0.24102987      -0.05855674       0.94231707
F       22.44767684      10.01198201      26.82282168      -0.08249585      -0.01281626      -0.05374626      -0.76078385       0.15434870       0.04169348
C       23.48321140       9.28378224      26.31258150       0.41649535      -0.92681749       0.67041149      -1.11964595       1.75802934      -0.65315902
F       24.16779625       8.85356724      27.33250665       0.27055056       0.30034177      -0.18214310       1.14831328      -0.97946626       1.14500904
C       22.86508982       8.14828800      25.51809091      -0.07448489       0.11314130      -0.49294116       1.37485385      -0.46569213       1.10256612
F       23.82748036       7.22386642      25.33620294       0.01186275      -0.28127260      -0.02469464       0.87444210      -0.78459024      -0.42070097
F       21.95939995       7.51342189      26.27824088      -0.01535530      -1.18767590       0.49887424      -1.15132022      -0.37682033       0.89775097
O       22.36076053       8.55211289      24.38944036      -0.30173745      -0.72430343       0.23766877      -0.35887247       0.67696726      -0.64079446
C       21.65209490       7.57406288      23.64725098      -0.11993575       0.06261290      -0.91784515      -0.46937177       0.23614568       0.44408953
C       21.13641336       8.38792962      22.53013564       0.01285018       0.31462592       0.49687382       0.74678731      -0.22192517      -1.55308497
F       22.15811329       8.97905806      21.81860524      -1.24591165       0.04347621      -0.22900744       0.18566872      -0.10981838       0.22821009
F       20.37965886       9.39330120      22.96226226       0.30508260       1.87140423       0.70409883      -0.74733615       0.39161351       0.25824037
C       20.37722030       7.59330951      21.49030916      -0.74385678      -0.71066463       0.25463573      -1.37022924       2.12188268       0.40829548
F       21.12439890       6.72126730      20.86013387       0.14614808       0.31328069       0.07679974       1.08756328      -0.89855182      -0.77846009
F       19.38915246       6.94267560      22.11032468      -0.50449033      -0.18698703       0.17146107      -0.93260306      -0.95861173       0.73055029
H       24.03745132       9.98813277      25.70694099       0.07512942       0.08566682       0.10306477       0.41276041      -0.24640958      -0.29597509
H       20.82581470       7.11670956      24.19830146       0.00731079       0.01429922       0.31114453       0.07348138       0.45778006       0.06249224
H       22.27506509       6.78135379      23.29860380       0.00387342      -0.18540169      -0.28869882       0.68617308      -0.34885171      -0.31636700
H       19.89818286       8.34058997      20.85451616       0.06112314       0.03272107       0.00452066       0.22861820      -0.19627759      -0.65382218
F       11.17676589      21.01784632      12.95425768       0.67551489       0.85967678       0.86977829      -0.31472430      -0.85578549       1.69511902
C       11.72804529      21.65641030      11.95806426       0.05031334      -0.14945722       0.86533286       0.65506667      -0.77151722      -1.74975133
F       13.09419170      21.65845071      12.03232054      -0.17393176       0.39978959       1.25233631      -0.32586205       0.04343349       0.64262271
C       11.40503901      20.87662710      10.68143309       0.36089180       0.07889887      -0.44246584      -0.15102832      -0.46980339      -0.18947101
F       11.61798524      19.56271318      10.91796583       0.98979943       0.67011435       0.23362981       0.05095778      -0.13135415      -0.17922293
F       10.06591372      20.96343836      10.37582048      -0.61810016      -0.46055396      -0.15342360       0.58025908       0.21650201       0.06762186
O       12.18691505      21.35418999       9.69145750      -0.02891018      -0.20771229       0.02523179      -0.23813820       0.15028682       0.33500829
C       12.61939429      20.53432400       8.63635970      -0.70927472      -0.90153470       0.47513656       0.47151059       0.00057688      -0.18738273
C       14.06880742      20.11904180       8.79357225      -0.01841569       1.13406044       0.63695425      -0.63296694       0.36067125      -2.09605861
F       14.44019535      19.37706620       7.67541492       0.15097328      -0.30429523       0.31970608      -0.36979222       0.24775794       0.20191474
F       14.17079858      19.31489924       9.80550723       0.38753093      -0.75012888       0.99862608       0.51548100      -1.27170634       2.22325587
C       15.07298757      21.26085647       8.87309035       1.28030734       0.65261143       0.56604145      -1.78191090      -0.49946600       1.98719931
F       16.21438739      20.75043018       9.33718880       0.28153090       0.49180611       1.77782033       1.08119762      -0.01712698       0.28777277
F       15.22997236      21.73891441       7.68748567       0.59254396      -0.03141342      -0.91957932       0.75892693       1.08906627      -2.89823318
H       11.34573529      22.62563122      11.92664599       0.09971642      -0.09638476       0.06167083      -0.19414598       1.63627839      -0.13786697
H       12.44859175      21.08207929       7.76961978      -0.24462450       0.05524015      -0.32311807       0.39550567       1.38823962      -1.61906278
H       12.03667495      19.68903741       8.38189193      -0.06041593      -0.02522085       0.18050446      -0.76573300      -1.32224214       0.71215200
H       14.67929910      22.06844617       9.48190984       0.15969905       0.04163874       0.17849119       0.24842708       0.09967053       0.75880861
F       27.79267046      22.23037300       6.31945117       0.25844247       0.48907856      -0.42494768       0.12273890       0.68292135      -0.79267019
C       27.61865220      22.01213854       7.63862727       0.85003208      -0.29290768       0.45092321       1.56655133      -2.44529414      -1.25705814
F       26.70825391      22.79949876       8.10110193       0.25014777       0.14863001      -0.16172528      -1.37373972       1.96765840       0.93837136
C       27.09098604      20.58252103       7.73755039       0.38249366      -0.72784664       0.18582596       1.51861274      -1.15222812      -1.94864547
F       26.08460270      20.34777465       6.89194827      -0.87198691      -0.57983370      -0.16826424      -1.61612177       0.61894327      -0.54255879
F       28.00861880      19.67239653       7.26153069       0.76472763       0.67712879      -0.42431265       1.01867402       0.45321220       0.11883718
O       26.81705486      20.32833863       8.96312808       0.20568207       1.46310235       1.85123278      -0.88886964       0.79110420       2.63128567
C       26.44036703      19.03478807       9.36064285      -0.55411677      -0.84260458      -0.49880505      -1.13671517       0.27110356       1.11750746
C       26.69836934      19.04239452      10.86677519      -0.29793273      -0.01600182      -0.88381640       2.28380013       1.21928990      -0.77771956
F       26.49430398      17.85032540      11.33696220       0.13309650       0.32314416      -0.03903493      -0.80645853      -2.91083026       0.74838084
F       25.88684014      19.87719812      11.48953741      -0.67110581      -0.29801892       0.65848365      -1.47532892       1.19623542       0.37953514
C       28.12499755      19.41236102      11.37364765       0.57491330      -0.18592632      -0.93382162      -1.76939774      -0.79971713      -0.86511207
F       28.96853329      18.99010430      10.46884999      -0.16999306      -0.24188866       0.42996140       2.21311855      -0.42675960      -2.28524399
F       28.29959335      20.70721366      11.56814619      -0.05138602       0.79508878       0.53085919       0.09375940       1.04619193       0.42643645
H       28.60014730      22.09892649       8.10518034       0.17734187      -0.13578249      -0.19654720      -0.15788050       0.22556551       0.44754967
H       26.93209120      18.30884942       8.75102796      -0.16733386      -0.19250802       0.04213202       0.55675149      -0.74010754       0.19821507
H       25.35209454      18.87736398       9.34376442       0.12388671      -0.07481104      -0.02266599       0.07712350       0.21892345      -0.55037522
H       28.32090076      18.76974249      12.18658348      -0.01651612      -0.05637999      -0.15105495       0.02094810       0.08737048       1.93153048
F       13.10458669       8.83058712      24.79202011       0.23975692       0.92167315       0.05747751      -0.04677507       0.32331041       0.64903289
C       14.05069490       9.42163798      25.59665561       0.03637094      -0.01102317       0.53045266      -0.39758432      -0.23940563      -0.65227175
F       15.13325547       8.63783258      25.51843482      -0.18818211      -0.08212739       0.62950441       0.48488814      -0.42708260       0.57460243
C       14.43040626      10.73898266      24.91378987      -0.02303717       0.75302914      -0.17848519       0.05190061      -0.43928605       1.90383351
F       13.33848980      11.52940069      24.91427131       0.50251844       0.50825054       0.82841133      -0.14529046       0.66045070       0.07134049
F       15.40673266      11.35713912      25.69834648      -1.18284028       0.18139882      -0.03351505      -0.68976343      -0.10800113      -0.58780116
O       14.86211369      10.45609032      23.71843263      -0.20669115       0.11135210       0.93612444       0.15999866      -0.17233212      -1.49419808
C       15.11631941      11.55327626      22.83671302      -0.28731205       0.00989375       0.32923581       0.22303332      -0.16563928       0.20884624
C       16.21979073      11.08816468      21.90782303       0.03374398       0.39577408       0.51355771       1.05112994       1.12175488       1.03350663
F       17.41399784      10.94112689      22.64712904       0.04852877       0.28742116       0.35805687      -1.25456393      -0.16520561      -0.61014545
F       16.46494941      12.12931620      21.08031770      -0.19280708       0.12750228       0.42953824      -0.01006334       0.35779679      -0.45457146
C       16.02237901       9.87643828      21.04187069      -1.23989740      -0.46883416       0.14992170       0.78719527      -0.37962323      -0.19441053
F       17.14512383       9.73524796      20.29689154      -0.23532523       0.64986729       1.58262461       0.30092195       0.11388062      -0.26502049
F       15.93254267       8.77594520      21.79421976      -0.28826962       0.18937381       0.44146435      -0.24801256      -0.75003260       0.62900180
H       13.67604146       9.52639381      26.62349288      -0.07665105      -0.05204956       0.03842093       0.17542574      -0.07760097      -0.22074285
H       15.54045705      12.35680995      23.43357960       0.17275736       0.07373179      -0.20742221       0.01874801       0.19290812      -0.24072541
H       14.22616370      11.88533381      22.26200116       0.28348560      -0.12765932       0.05479377       0.67476100      -0.40642276       0.48681092
H       15.16745820       9.94543082      20.40236915       0.01127897       0.10150823       0.04559770      -0.61231399       0.23292647      -0.33923221
F       26.58181417      20.27524500      14.46138381       0.05799492      -0.38865442      -0.01151290      -0.12383769      -0.17485425      -0.67979813
C       25.76773493      20.50482158      15.51323230      -0.15492156       0.43962560      -0.92172228       0.85906506       1.49084198       0.01304559
F       24.69047728      21.22076574      15.11341838      -0.57533833       0.17030411      -0.22152499       0.08656760      -0.06777868      -0.12253153
C       25.35353740      19.20220679      16.11213142       1.14021637      -0.15253812       0.41424922      -0.45326859      -0.08669697       1.05093825
F       24.33709882      19.43734015      17.01329981      -0.56365258       0.30169533       0.56373467       0.15569246      -0.13465430      -0.23345654
F       24.87593514      18.36840269      15.19761830       0.31164696       0.15567194      -0.53285025      -0.38100386      -0.52855694      -0.33453333
O       26.45044249      18.76243660      16.72866424      -0.19106874      -1.09023241      -0.69809846       0.94786280      -0.49601769      -0.25026363
C       26.48185196      17.47971477      17.40159111      -0.32657665      -0.38028576       0.19234086      -0.45817834       2.27519250      -0.35708851
C       27.59882325      17.74591644      18.39320044      -0.06869598      -0.33388712      -0.93843823      -0.21683542      -2.22369695      -0.60113430
F       27.33799408      18.78583622      19.15175709      -0.16213945      -0.25107901       0.09316586      -0.03237370       1.80378413       0.36122656
F       28.76891854      17.90254571      17.68316888       0.86962079       0.08466002       0.26002107      -0.41062343       0.45635033       0.47290704
C       27.79345190      16.60472059      19.36955756      -0.62055081      -0.53741352       0.41961499      -0.14840356       0.70625949       0.92671072
F       28.27175683      15.56717612      18.73449644       0.28224653       0.82640921       0.16335527       0.53994709      -1.81979764      -0.97565192
F       28.71542178      16.96763567      20.29963517       1.09464890      -0.24468883       0.71683455       0.88482165       0.42484325       0.45714918
H       26.38841458      21.08383002      16.20757437       0.10850139      -0.32744064      -0.04298871      -0.60458845      -0.01445875       0.20453589
H       26.63653307      16.69003343      16.71836468       0.07240107       0.00117905      -0.21275095       0.81717545      -0.84622866      -0.76690483
H       25.49980163      17.36971757      17.78872235      -0.27963532       0.15674234       0.16823992      -0.67401701      -0.43758008       1.23867095
H       26.94133534      16.36513718      19.97253160       0.17629280      -0.04171702       0.23802851      -1.02545488      -0.21860927      -0.19453338
F       16.22924505       0.22045260      10.04862625      -0.81870264      -0.63906745       0.20467418       0.13218178      -1.11088562      -0.74029642
C       16.16388006       1.30421445      10.81664187       0.10275185      -0.56071450       0.25858286      -1.49576163      -0.97274154       1.51909089
F       16.03708181       2.35880486      10.08493248       0.29920366       0.18854507      -0.09638649       0.35134897       2.29162931      -1.97482586
C       14.85760277       1.26770803      11.63891510       0.37804968       1.20323516       0.69478781      -0.62430888       0.48523164      -0.81483763
F       14.82107782       0.22641857      12.47789968       0.52922841       0.38267403       0.01635860       0.11160669      -0.10021298       0.49749959
F       14.82902522       2.41143016      12.36569564       1.02731282      -0.11190210      -0.68334675       0.15863571      -0.14531131       0.67215639
O       13.78298415       1.27939946      10.79269941       0.38342419      -0.97371800       0.13725369       0.36767200      -0.32926452       0.16375254
C       12.50048298       1.29328232      11.40162669      -0.62752260      -0.12006273       0.91448239      -0.85457158      -1.57780123       0.39697567
C       11.85740781      -0.11753705      11.27414665      -0.27842075      -0.09338536      -0.14867151      -0.55507886       0.37443441      -0.37035832
F       12.50608862      -1.04442386      12.00302830      -0.43304556       0.90138123      -0.47838635       0.60153025      -0.22244063       0.32648498
F       11.89729477      -0.54513183       9.97896429      -0.10902716      -0.40399401      -0.89911827       0.49108946       0.07292891      -0.46465379
C       10.37321109      -0.24793732      11.64593049       0.05857843      -0.43406200      -0.25906207      -0.16170637       2.64205742      -0.24050798
F        9.71069588       0.68656408      10.85853501       0.73189803      -0.53160026       0.32254883       0.26156873      -0.24545249       0.08569878
F        9.92155310      -1.42402834      11.31388842      -0.55730040       0.51421478      -0.02476206      -0.53994405      -1.97059083      -0.81121224
H       17.03223227       1.36390029      11.42796830       0.08123754       0.22732660      -0.10617411       0.84576219       0.02033420       0.75385219
H       11.86158052       2.01234365      10.90475711       0.04110965      -0.11718534      -0.07041978       0.15851080      -0.01581864      -0.14206530
H       12.49237115       1.48057694      12.48148011       0.00648820      -0.01275283       0.04452062       0.34466529       0.38147640      -0.18163787
H       10.08758522      -0.06626083      12.65823484       0.07182225       0.05785616       0.09113572       0.32443774       0.33172759       0.76801598
F        6.47447361      11.98309114      10.23167392      -0.94920004      -0.48339334      -0.07694814      -0.76994962      -1.58193386      -0.86410201
C        6.56662911      13.08647024      10.94305168       1.01315068       0.99816907       0.60994329       0.52165067       0.39680898       0.09597440
F        7.67912202      13.69824243      10.46798153      -1.03879784       0.16826682       0.47715865       0.13667266       0.58398306       0.39009234
C        5.37918001      14.00914134      10.69126213       0.93793231      -1.25309003      -0.47415297       1.83280587      -0.31255147      -0.24988258
F        5.58901321      15.07783517      11.45152876      -0.18292536       0.52388793       0.46270925      -0.22606000       1.30000341       0.42544180
F        5.52288305      14.39372220       9.41108387       0.29648060       0.58325209       0.37950142      -0.42659187       0.77766764      -1.13323164
O        4.21866569      13.43259922      10.91090022       0.05281423       0.03649588       0.45568616      -1.45408845      -0.43297520       0.11790145
C        3.02416179      14.13761951      10.54095074       0.37810131      -1.23957537      -0.26330552      -0.67116612       0.78063512       1.00681925
C        2.35894539      13.50743189       9.37835393       0.56487659       0.19767069      -0.51966980      -0.41118014      -0.92552876      -0.97877401
F        1.10830029      14.05794122       9.35079610      -0.25146727       0.47485641      -0.07952467       0.38815033      -0.12080230      -0.57096934
F        2.20433585      12.17913977       9.57903087       0.11977159      -0.19477116      -0.51315096      -0.18747133      -0.47980988       0.23593931
C        3.09240528      13.64655373       8.02276040       0.40789955      -0.43293911      -0.11685164      -1.41356373      -0.02417359       0.82459462
F        2.42069606      13.01307499       7.04068807       0.21737364       0.59690309      -0.06673946      -0.01459891      -0.05755736      -0.00858963
F        3.10561333      14.95145772       7.78260476      -0.08133858       0.63229955       0.96106064      -0.07390699       1.69823885      -0.78132170
H        6.67398651      12.85918362      11.98084233       0.01137716      -0.21468538      -0.04702350       0.17751810      -0.17869195       0.79971981
H        3.09334888      15.22207669      10.27463520      -0.07812246      -0.15877330      -0.11272207       0.59661233      -0.84636891       0.65959287
H        2.27410796      13.99305710      11.35817065       0.02440865      -0.02182404       0.07461529       0.86734587       0.31273457      -0.36245444
H        4.10364084      13.33949496       8.06100105       0.17362461       0.03044611       0.20022682       0.96142966      -0.90034533       0.06995618
F       31.11658929      -5.50070820       7.66032652       0.70194925      -0.16399949      -0.23225110      -0.31387490      -0.22916639       0.09431604
C       32.24554620      -4.79597738       7.46536733       0.98188961       0.83893727       0.69121833      -7.56577635       4.14935255      -5.21082449
F       32.55242498      -4.88368453       6.13811851       0.59734570       0.83314443       0.29645180       0.27403125      -0.22767955      -0.14759856
C       31.86499083      -3.26109572       7.64007664      -1.58126985      -0.64263101       1.31273289       0.23189670      -1.20454705       2.85067677
F       32.94128412      -2.60723657       7.33905536       0.92387499      -0.43995139      -0.84675649       1.87049651       1.29470265      -0.43160951
F       30.92136893      -2.73933371       6.81929790       0.63975010       0.89118480      -0.47677520      -0.20048201      -1.06914961       0.33032155
O       31.54955621      -3.07144094       9.01049046       0.04771633      -0.73705214       1.00755568      -0.72242469      -0.59651977      -2.36517882
C       31.42699693      -1.69508647       9.36824103       0.24629244      -0.65744303      -0.13724857      -0.14716910      -0.88700539       0.88444871
C       30.22511482      -1.48358874      10.26945182      -0.61962081       0.35136159       0.08480822      -0.76424181       0.41007799      -1.77765512
F       30.29567576      -2.36890095      11.23516827       1.00218435       0.37952815       0.06413637       0.00599051      -1.18320620       1.86198735
F       29.01009442      -1.79511676       9.61305295       0.38430641      -0.29056670      -0.15152932       1.25576568       0.78074372       0.30213016
C       30.06053146      -0.08791002      10.95784065      -0.24041248      -0.66082546      -0.62417060      -1.62528586      -2.25700521      -0.88384980
F       30.96009239       0.08521481      11.87390016       0.67331278      -0.33213102      -0.14453197       2.44188452       0.01965221       1.48494828
F       30.15194849       0.90278852      10.07367907       0.14813942      -0.33143761       0.16378712      -0.48849177       0.50073218      -0.40634283
H       32.91925992      -5.24015261       7.95522689      -0.34145190      -0.02415151      -0.35995879       5.80967093      -2.46066833       4.39096785
H       31.43016968      -1.05333502       8.53967391      -0.45248570      -0.23032001      -0.57156987      -0.12695214       0.93307489      -1.21758461
H       32.30669659      -1.56349158       9.93382949       0.40763430      -0.37241019       0.28393447       0.69601661       0.98404813       0.78491199
H       29.12331503      -0.20137430      11.50395470       0.09788460       0.02928259       0.14347399      -0.74437362       0.77298433      -0.49026385
F        9.07548092      23.58993575      24.26667911      -1.02151949       0.15785728      -0.42401645       0.29470500      -0.00220398      -0.44366780
C        9.21744206      23.64392877      25.59837288       0.02244113       1.30350167      -0.21111598       0.15311012       1.32197762       1.06705356
F        7.95697071      23.85244158      26.10039458       0.57127875       0.56149870      -0.35514023       0.55629569       0.10814134       0.07252227
C        9.69645499      22.29677808      26.11344418       0.50257719       0.02902607       0.60051460      -0.31777862       0.32838762       0.55077350
F        9.77112683      22.32371888      27.48733868      -0.18930162       0.96792457      -0.63727346      -0.06255896       0.08306937      -0.24306209
F        8.73753381      21.40276968      25.86114944      -0.99462520      -1.34111568       0.21827429      -0.52099168      -0.67160594      -0.39986736
O       10.88864830      21.98857252      25.59823908       0.02229525      -0.25753292       0.15731602      -0.54754472       0.28238764      -0.81295562
C       11.17033573      20.61143954      25.59767176       0.21948407      -0.10006859      -0.53549945       1.24639058      -0.59127647       3.91746354
C       11.29017013      20.05831939      24.25755760      -0.11675356       0.74721882      -0.18921051       0.50936234       2.05218744      -0.62111753
F       12.24697497      20.77665674      23.62113949       0.81327679      -1.34326348      -0.85889728       0.38341627      -0.33442959      -0.26747656
F       10.11190123      20.31654968      23.66093772       0.42657856       1.07344616       0.21675164      -0.78762901      -0.39511919      -0.88454598
C       11.59976968      18.60497599      24.23156130       0.11427585      -0.56374537       0.59668140       1.50747108       0.37125480      -1.88696480
F       12.65345819      18.40570161      25.03896562       0.75448764       0.70595785      -0.04021257       0.76881856      -0.09458184       0.68848234
F       10.55947993      18.01676869      24.72993665      -0.06699783       0.21049870       0.36464590      -2.28269315      -1.90370655       1.14084435
H        9.91096340      24.47518115      25.93303986      -0.16967429      -0.02061799      -0.15870845      -0.80048692      -0.79351997      -0.59871113
H       10.44616662      20.02532784      26.19689430      -0.20650221       0.12355476       0.19918139       0.19697355       0.46372059      -0.45026201
H       12.11658253      20.55676132      26.17309692       0.01762246      -0.02063590       0.04128168      -0.26663157      -0.38449469      -0.62276483
H       11.83832314      18.19767630      23.24148112      -0.09695481      -0.17073498      -0.12294490      -0.05868132       0.22879440       0.11322883
F        4.28386446      17.09743050      23.46233151       0.64687763      -0.31694437       0.39761637       0.97091234       0.77733505      -2.01411176
C        3.37684748      16.37697636      24.07124541      -0.90326611       0.02816919       0.10707656      -0.81674272      -1.63479543       0.62092435
F        3.88652120      16.26859499      25.31428014       0.36257178       0.42543457      -0.05220102      -0.43539095      -0.33640459       1.32325590
C        2.06814191      17.15688982      24.08160318      -0.15123780      -0.25834311       0.21406356      -1.00114310      -0.89245743       0.34075499
F        1.21920913      16.63867557      25.05999854       0.47473032      -0.68859259       0.71030741       0.52499872       0.13907658      -0.61917877
F        2.36065188      18.39462456      24.51299674       1.29033629       0.46964036      -0.23789482      -0.34140247       0.65931147      -0.22822411
O        1.45771712      17.06858018      22.86325891      -0.38049807       0.46384715      -0.49559191       0.58507925       1.45804346       0.99770242
C        0.33352065      17.97937248      22.67545848       0.77362889      -0.31816124      -1.01754794       1.30641019       0.06448264       0.45267710
C        0.61959636      19.29092859      21.98076196      -0.93363614       0.15798169      -0.23533837      -0.90305096       1.26728761       1.33204210
F       -0.68444854      19.82712114      21.84805189      -1.27860920       0.82258803       0.93869295       1.30383193      -0.34976301       0.02096397
F        1.08899140      19.09921472      20.78824269       0.17709251       0.44379272      -1.44657661       0.87006909      -0.43207192      -2.16110659
C        1.46375671      20.44490979      22.64528724       1.39636435      -0.76067020      -0.59212967      -0.81740808      -2.84620690       1.47619379
F        1.46325888      21.46647363      21.84098602      -0.82380570      -1.01592300       0.19199748       0.12508781       1.62768173      -1.08092320
F        0.74228193      20.73753400      23.76530375       0.10364895      -0.53676951      -1.20287329       0.17949484       0.55452794       0.39615154
H        3.22343141      15.34832583      23.68401936      -0.24707965      -0.29420473      -0.10798505       0.27869818       0.74829727      -0.20115292
H       -0.17206979      18.24492695      23.57955866      -0.33418855       0.22471057       0.61469698      -0.26936263      -0.47528067       0.51775867
H       -0.22560423      17.43555942      21.97781494       0.16339888       0.10105652       0.26723651      -1.31450725      -0.52609611      -0.63313901
H        2.48241085      20.16754664      22.97104482      -0.05705641       0.11326170       0.15013250      -0.37766179       0.07750428      -0.42603627
F       21.11753871       4.87498434      24.88669977      -0.39163026      -0.90417617      -0.37069085       0.92124140       2.12585187      -0.56772774
C       20.66641958       3.66757979      24.65215369       0.02295915       0.57418147       0.50523707      -0.18243539      -1.76552272      -0.25198039
F       19.42746333       3.63085064      25.13770461       0.81355582      -1.54617509      -0.52241988      -1.14926469      -0.21920881      -0.00099773
C       20.68561714       3.20070975      23.17237366      -0.60167390       0.44925253       0.00007683       0.18863338       0.01658887       1.11320055
F       20.00584043       4.00684161      22.41459984       0.46195793      -0.80980090      -0.35548226      -0.74681985       2.25674510      -1.48929071
F       21.99239931       3.22236445      22.75594834       0.97927453       0.71364589      -0.01020687       0.08925180       0.11146165      -0.19119678
O       20.15696216       1.99190311      23.10187827      -0.75032952      -1.21096043       1.33400754      -0.39132565      -1.97597086      -0.47955784
C       19.63884756       1.49665484      21.82430883      -0.16599170      -0.87445844      -0.47774649       0.37600261       1.19873476       0.30494627
C       18.17107319       1.16955490      21.95475032       1.03704244       0.60210322       0.45850605       1.00311852       0.98212963       0.86438715
F       17.86850137       0.38236364      20.92652623       0.64594101      -0.70254398       0.42000026      -0.69277132      -0.21554628      -1.19709361
F       17.51426968       2.36533865      21.91232705      -1.12629180       1.94787009      -0.57798921      -0.67207515      -0.34696180      -0.27410135
C       17.66766631       0.43194489      23.18874584      -0.58600002       0.12888468      -0.76486327       1.87358284       0.84449399       0.72241575
F       18.55557798      -0.58640784      23.49480579      -0.04250266      -0.16122962       0.11351471      -0.80083865       0.57095838      -0.18663684
F       17.64820307       1.30783237      24.23087280      -0.22700976       0.26632810      -0.01175198      -0.16188689      -0.65266335      -0.21543129
H       21.28368476       3.00243229      25.19073447       0.10774550       0.04487565      -0.02253279       0.64487851      -1.12777984       0.74392909
H       20.10895102       0.59193636      21.56517302       0.04101033       0.03932789       0.14034828       1.02056718      -1.06987107       0.08522101
H       19.80973274       2.19101010      20.96411223       0.02470654       0.07107350       0.06169731      -0.30333540      -0.30757728       0.92922223
H       16.70055347       0.06933522      22.95628053       0.11531636      -0.07914986      -0.03153328      -1.08363712      -0.73770326       0.27058491
F       18.22134482      10.03216483       8.32601054       0.03786678      -0.31838596       0.04995884       0.59269220      -0.24248467      -0.17312577
C       17.07185016      10.30505352       8.92598188       0.22480991      -0.59314415      -0.41622959      -0.98902839       1.35402012      -0.21190731
F       17.24503928      11.28525194       9.83632894      -0.61513955       0.07684920      -0.30035291       0.34741005       0.32358313      -0.07869713
C       16.06596316      10.78443232       7.88756039      -0.53643252       0.55770090      -0.40550748      -0.03893682       0.83060038       0.44634032
F       16.51575240      11.98444977       7.39101524       0.67637840       0.63545726       0.88971921      -0.53354543       0.09607613       0.22335532
F       16.07610042       9.95597119       6.84352185       0.80111081       0.52778613       0.61891681      -0.58213139      -0.22184917      -0.04229959
O       14.82557706      10.90710706       8.52283938      -0.57354379      -0.38585443       0.27646174       1.32113731       0.01353788      -0.40149307
C       13.80308889      11.48631144       7.73078656      -0.46030511       0.75840989       0.26935873      -0.33251205      -0.13591327      -1.51713586
C       12.65691069      11.95871036       8.59162919      -0.66499631      -0.25929928      -0.25717109       0.27638295      -0.84073299      -1.43859553
F       13.15023066      12.79782958       9.45632052      -0.41956535       1.35619971      -0.76847016       0.23691320       1.99134707       1.74510896
F       12.18081247      10.89443403       9.25032635      -0.64869478       0.31233580       0.41888437      -0.47411728      -0.88607681       0.97989190
C       11.46535955      12.55767126       7.81388372       0.18797099       0.40874635       0.48992408      -0.29409707      -0.26661721      -0.49891698
F       10.79277645      11.50301069       7.26538908      -0.28176588      -0.88351980      -0.04522982       0.27390945       0.14729403      -0.03297383
F       10.60785734      13.18218854       8.64935484      -0.89878782      -0.05179032       0.24598910       0.13818595      -0.07871066       0.37515387
H       16.61677127       9.50366772       9.40546750       0.20105810       0.08797669       0.00757642      -0.08440598      -2.00046086       0.97751117
H       13.41464441      10.72434512       7.07663773      -0.12215387       0.02693951      -0.01698263      -0.22040890      -0.37490371      -0.48593643
H       14.18382976      12.29727836       7.10538834       0.16198018       0.03698615       0.01524426       0.02376016       0.14385782       0.20086195
H       11.71335728      13.25152404       7.01829140      -0.19805940      -0.01448368      -0.07332206       0.32142037      -0.18414491       0.02543574
F        1.72387786       9.96479316       7.33742885       0.45680535       0.03571275      -0.30727003       1.33505344      -0.30737218       0.30505162
C        3.08272903       9.82133840       7.06118863       0.41088809       0.16708530       0.01970347      -1.35944557       0.88875002      -2.25692153
F        3.81636330      10.53501272       7.88612903      -0.44087491      -0.75194815      -0.12998290       0.50819337       0.85008711       1.31113517
C        3.47765964       8.37045358       7.16568404       0.29343480      -0.16403031      -0.96235048      -1.95712042      -0.38122851      -0.07382005
F        3.12890850       7.95568665       8.40260101      -0.06328612       0.20827631      -0.24920801       0.08728164      -0.42982596       0.48687023
F        2.57045133       7.69654026       6.32851682      -0.13553825       0.03706811      -0.40132403       0.91479957       0.05660138       0.12975076
O        4.74761574       8.14201230       6.88295186       0.46068637      -0.33478417      -0.31502072       0.65819198      -0.07790612      -0.15950668
C        5.13472682       6.75581326       7.20121684       0.57480377       0.73297914       0.48113601      -0.64307630       2.47187924       0.01885202
C        6.24781179       6.40694270       6.33821959      -0.63774343       0.05971997      -0.41623741       3.42756200       1.15963972       0.38287702
F        7.20942247       7.44147307       6.38733840       0.18131612      -0.96649312      -0.23846138      -0.94950306      -0.63104594       0.06117955
F        5.89263688       6.31979873       5.06517963       0.85610248      -0.53022709      -0.76320190      -0.66738814      -0.47736043      -0.88479137
C        7.09594154       5.19479260       6.74211858       0.06657821       0.21529096      -0.35895941      -0.73177052      -0.55689669       0.60956240
F        7.60588264       5.40195453       7.99199526       0.71161899      -0.39378424       0.79597663      -0.88114703      -0.58664030      -0.74652040
F        6.27013436       4.07789561       6.77418040       0.28029286      -1.02143325      -0.62806151       0.67187160       0.70102817       0.10340629
H        3.20285760      10.24653502       6.04717838      -0.12633575      -0.09920541       0.13585290       0.06962857      -0.52647763       0.34706202
H        4.30841125       6.25244885       6.84054941      -0.09134071      -0.16781292       0.04459249      -1.62032247      -2.02730608       0.01162027
H        5.34425335       6.73473814       8.24668459      -0.07263580       0.05489261       0.26379910       0.12043835      -0.50849956       0.53879631
H        7.90624087       5.04936284       6.03555810       0.08488601       0.14490330       0.17212921       0.09492596      -0.19477242      -0.10434181
F       15.40333145      -0.97777998       7.19883213      -0.52653915      -0.70388325       0.31775743       0.83531070      -0.21687546      -0.09503916
C       14.39742882      -0.16999102       6.84793307       0.09659374       0.34484618       0.09933569      -0.25285488       1.80316746       0.85183913
F       14.80159153       0.72980691       5.89443709      -1.07193943      -0.13114154       0.38118598      -0.11486762      -1.04640603      -0.13817656
C       13.26748970      -1.08432158       6.37751203      -0.22295047       1.71400917       0.45956249       0.50374949       2.24483442      -1.59967065
F       13.80321891      -1.80983130       5.36916652      -0.13600511      -0.93356790       0.23171767      -0.37956196      -0.08288424      -0.35184693
F       12.98732987      -1.94008012       7.33615863       0.54936142       0.93551726      -0.90026100      -0.88282776      -0.52990860       0.84055603
O       12.18471662      -0.29394291       5.95760637      -1.10069872      -0.03106684      -0.59327748       1.18156278      -2.07834601      -0.11998546
C       11.29311747      -1.06652623       5.10440237       1.25071284       1.01383911      -0.24206636      -1.08486128      -0.70714563       2.10550165
C       11.24033326      -0.47661398       3.71786865       0.97800715      -1.25793756       1.06376210       1.66975427       0.61783409       1.42068505
F       12.53674845      -0.32370388       3.16686493      -1.53496308       0.72658379       0.54068292      -1.68669140      -0.54913223       0.72067308
F       10.72229957       0.76733012       3.82788053       0.16845205       0.65515044      -0.37235474       0.25807911      -0.19755980      -0.29955259
C       10.39204698      -1.28350590       2.80005430       0.78544262      -0.83783618      -0.04543893      -1.59893179      -4.11190081       0.97932172
F        9.11520735      -1.45766580       3.54689421      -0.27756950       0.01947673       0.53827273       2.11638284      -0.15206665      -0.96362156
F       10.06219108      -0.53276026       1.82471823      -0.66793850       0.36531208      -0.39553003      -0.55598062       1.31183422      -2.83128333
H       14.15957399       0.47464591       7.70190294      -0.24836179       0.03758631       0.13413615      -0.41555271      -0.43417296       0.11435104
H       10.29462864      -1.03904656       5.68960566      -0.48852663      -0.09761943       0.24040661       1.27393150       0.01804427      -1.64722216
H       11.58046258      -2.13624477       5.05318778       0.05925499      -0.42502488      -0.38887191      -0.04847476       0.72341377       0.02717529
H       10.74184032      -2.40552205       2.39588945       0.06789301       0.04622653       0.14817997      -0.63521802       3.31152058       1.62634456
F       19.07751566      13.24467686      13.40958291       1.15086146       0.44263998      -1.57975132       0.34780675       0.23585866      -0.62973654
C       20.31051755      13.61151634      12.97985266      -0.17584638       0.94648882       0.77480046       1.54227483      -1.91377831       1.93931484
F       20.74540138      12.71437736      12.03088985       0.02862804      -0.20268104      -0.13216872      -0.41330409       0.29681280       0.02040896
C       20.31945857      14.97449987      12.36053636      -0.20030839      -1.10342965      -0.09263209      -1.55101502      -1.90423214      -1.06601346
F       19.32583604      14.89292099      11.39885032       0.54338255       0.10639223       0.79403117       0.60533869       0.75106758       0.09445377
F       19.94013837      15.78872798      13.29369739      -0.16141124      -0.38619056      -0.04604075      -0.87180346       1.95868587       1.41208565
O       21.43846238      15.32525082      11.76078935       0.69584303      -0.63190628      -0.72540804       0.66490299       0.24762557      -0.89942628
C       22.62962353      15.49997022      12.53245257      -0.31471845      -0.15722745      -0.40959402       0.36302358      -0.57086116      -1.74572277
C       22.96328455      16.92446138      12.46658504       0.36873660      -0.05385731       0.32394750      -1.21741915       0.23459247       2.67678094
F       24.19897790      17.13577464      12.96229973       0.33888485      -0.71342091       1.48864125      -0.12023432      -0.09566613      -0.10122684
F       22.05035449      17.57552213      13.29898864       0.42534922      -0.01860917      -1.35137275       0.62143946       0.25734460      -0.58118677
C       22.85648107      17.51655066      11.11863631      -0.30780695      -0.35820522      -0.73164164       0.77281421       0.82459044      -1.01616228
F       23.39416781      18.74073854      11.26478255      -0.14687037      -0.09361624      -0.40268931      -0.20703036       1.27113712      -0.33068028
F       23.72353575      16.85218061      10.32014626       0.93516663      -0.99712506      -0.50859037       0.09886382      -0.61320996      -0.55062073
H       21.00139894      13.50650712      13.87021229      -0.25583166      -0.13393128      -0.09555388      -0.64217567       0.34095410      -0.87900925
H       23.41439369      15.03775341      11.96579915       0.29700421      -0.04994722       0.08549206       0.34774363      -0.77364206      -0.21636446
H       22.60592597      15.10489591      13.50884290       0.23037769      -0.03506858       0.30445347      -0.27987510      -0.14637898       1.19277298
H       21.88603181      17.57025526      10.62201575      -0.01791509       0.43772853       0.23903774      -0.12657821      -0.00281244       0.39700317
F       10.63910313       1.38185895      21.32852185       0.25206108       0.37516570      -0.00229279       1.79078066       2.72268343      -0.19467448
C       10.34728619       0.13175993      21.26375842      -0.08967667      -0.38762539       0.36052757      -0.97762942      -2.99949718      -0.76089597
F        8.99669489       0.12666126      21.30137796      -1.02273610       0.28983184      -0.09540109      -0.74728346      -0.87241924       0.47904038
C       10.71628010      -0.54317084      19.90201279      -0.53821694      -0.73643538       0.66643184      -1.03965139       0.44654763       1.11002994
F       10.02978584       0.10135238      18.95139640       0.48999946      -0.00292518       0.79258758      -0.38978213       0.64468312      -1.19445443
F       11.98877684      -0.37612486      19.66144535      -1.20389555       1.06593919      -0.54276839       2.09169984       0.52495790      -0.56815559
O       10.40309355      -1.83808290      19.91313648       0.34311883       0.79753283      -1.05266749      -0.39071155      -0.94637251       0.84078670
C       10.73658438      -2.64586236      18.77504583       1.36944717      -0.37057908      -1.08495923       0.10579994       0.87098813       0.64467174
C        9.92450553      -3.89755384      18.90400670      -0.04408837      -0.27473519       0.36268434       0.53490233      -0.75696564      -0.44405824
F       10.42690050      -4.79065271      17.99927762       0.04682425      -0.21130643      -0.18562719       0.07977189       0.05558068       0.72097450
F        8.62274571      -3.76716487      18.54641012       0.56193866       1.06545664       0.92474486      -0.29839259       0.69683111      -0.06812803
C        9.88813475      -4.43998752      20.32526632      -0.44863401      -0.97017945       0.61273714      -0.59655404      -0.34421474      -0.26784149
F        9.32786351      -5.68527439      20.23727499      -0.74922551       0.90634269       0.06009139       0.22732946      -0.52262199       0.04896510
F       11.10889837      -4.49914522      20.83072494       1.01617360      -0.36496456       0.39758342       0.88423526      -0.36766970      -0.28045702
H       10.81664944      -0.44305483      22.05833850       0.22660272      -0.13994470       0.01751929      -0.26633209       0.03040560       0.42830202
H       11.81372941      -2.80636017      18.66621083      -0.12356115       0.07744656      -0.16435227      -0.24251175      -0.37084562       0.43003061
H       10.41253017      -2.13223558      17.91444708      -0.05954598       0.20583476      -0.13185207      -0.44567880       0.45324779      -1.21485233
H        9.26720216      -3.90078676      21.01135972      -0.30219371      -0.21938987      -0.06598439      -0.46264431       0.70554930       0.05148022
F        4.59432208      20.88235911      19.98146746       0.10111961       0.01568484       0.90774828      -0.95168388      -0.22546877       0.04677791
C        4.64658210      21.53486884      18.80053090      -1.08234261       0.18027738       0.00139678       2.06078744       0.91316485      -0.39609510
F        6.03652134      21.70555325      18.62297922       0.27406962       0.19440559      -0.40454553      -1.06763196       0.22676136       0.19179410
C        4.20092417      20.71151270      17.60128389       0.15677187       0.34474429      -0.65684005       0.25883794      -1.27710211       1.68563998
F        4.63888886      19.44991330      17.65573319      -0.38063212      -0.41720467      -0.29597468       0.56662542      -1.24876678       0.76606601
F        2.87928511      20.56443889      17.65699732       1.16258688      -0.56350459       0.07847904      -1.53845990       0.48421162      -0.20225811
O        4.70728428      21.26736566      16.54524113       0.06788703       0.52106819      -0.99155197       0.66209280       2.43157816       0.62258899
C        4.74217668      20.59134896      15.36501993       0.80963930       0.06089808       0.79002493      -1.81678236       0.48421866      -1.62580705
C        3.66959359      21.26078938      14.53571729      -0.19588213      -0.49826876      -0.57557733      -0.62518042       0.29016501      -1.64152133
F        4.05922450      22.53053929      14.31483953       0.41811363      -0.26783690       1.40843426       0.25183922       0.91243827       0.02366287
F        2.41181414      21.37204009      15.10430301      -0.30871284      -0.64669811       0.03486638       0.86592019      -0.56086969       0.20662057
C        3.47017028      20.63254181      13.14641925      -0.13597735       1.04768732       1.37592533       1.16012609       1.21896493       2.19000769
F        3.04192776      19.41657165      13.38074260       0.26045890      -0.16006683      -0.23034653      -0.94184273      -2.75910544       0.05528911
F        2.57038773      21.29512399      12.47933240       0.84133346      -1.10489146       0.93417339      -1.76260483       1.26530194      -1.14700949
H        4.15985185      22.52589456      18.79455832       0.18257301       0.00201048      -0.22518353       0.05603789      -0.34008849       0.36739668
H        4.59134893      19.55426959      15.40894684      -0.03832599      -0.11851336       0.10012201      -0.33803385      -1.50922489       0.44780707
H        5.67244041      20.76712612      14.89807732       0.04202736      -0.15554413       0.08570817       1.06460190       0.29754469      -0.66334200
H        4.37480488      20.62921169      12.62231221      -0.07374630       0.08119605       0.01084774       1.59995091      -0.22426908      -1.04055560
F       19.01900820      13.57249612       4.72027377      -0.78083981      -0.17309973       0.85184610       0.12935656       0.21124776       0.18888551
C       17.85125917      14.01335743       5.31238875      -0.24205295      -0.56091745      -0.76252773      -0.01565960      -3.98264790      -2.28104496
F       17.74419984      15.25932207       5.15141014      -0.40469020       0.04575920      -0.07249134       0.08280149       4.27210712      -0.16943756
C       16.70665743      13.35248005       4.50490108       0.10749039      -0.39722736      -0.13901045       0.71276772       0.60946697       1.01224172
F       16.69466386      12.03085221       4.65337534       1.16011365       1.00523107       0.33519834       0.13203634      -0.81178492       0.03017224
F       15.57036385      13.79988176       5.12921226      -0.65273927      -0.12890393       0.26611777      -0.49818701       0.11971045      -0.15963505
O       16.77775196      13.70863524       3.21282315      -0.53410182       0.14549102       0.32385996      -0.71097541      -0.43242148       0.33967823
C       15.59965366      13.26463094       2.50344460      -0.59683847      -0.70208186      -0.22544862       1.65733731      -1.11204088      -1.21002817
C       15.35521406      14.29255379       1.48582530       0.25569002      -0.43343519       0.81880785      -0.33243817       0.21824506      -1.30567002
F       14.42669942      13.78496092       0.64845979       0.91252106       0.83143264      -0.47197898      -0.66485614      -0.20014115      -0.53451574
F       16.45319797      14.54575345       0.74346180       0.23329549       0.14689092      -0.88080834       0.40966785       0.07426800      -0.03933778
C       14.81013226      15.59054525       1.97346452       0.27354266       0.39504478      -0.34627750       0.40258867       2.13164639      -0.34121984
F       13.83167107      15.35132062       2.84218701       1.06303934      -0.91824444      -1.26726779      -0.68123835      -0.18772109       1.16374648
F       15.83638545      16.26401504       2.58958303      -0.10503975       0.10518459      -0.52992672      -0.38538924      -0.00698055       0.26475829
H       17.84334592      13.69575238       6.30807900       0.03332450      -0.04791269       0.24598257       0.02868080      -0.32710314       1.67156971
H       14.74633946      13.21988172       3.13997307      -0.08807806      -0.02175400       0.12597928      -0.63270748      -0.47064891       0.54207116
H       15.78938014      12.31857130       1.90662346       0.04157564      -0.05939464       0.06367809      -0.24166821       0.83663958       1.17472458
H       14.38716129      16.28572714       1.22724653      -0.09002599      -0.03918905      -0.00004334       0.43297538      -0.56861514      -0.26860058
F       24.16452833       3.70586804      26.15640350       0.10122083      -0.37166624      -0.32892297      -0.98056972       0.80032653       2.41581011
C       24.34955868       3.74111400      24.86763474       0.27929424       0.74600748      -0.38663744       0.53276259      -2.75168633      -1.22883570
F       25.46391120       4.38036283      24.63178207      -0.29818656      -0.47025481       0.18467373       1.95666015       1.44638371      -0.60562885
C       24.57311263       2.23431400      24.51226851       0.11829683      -0.90974554       0.31773082      -1.75976527       0.41295439      -0.88691783
F       23.34771225       1.64986295      24.86292030      -0.86537479      -0.87764328      -0.14796574       0.84822124       0.00367076      -0.07635280
F       24.64761609       2.09725413      23.15644888       0.65528304      -0.09558533       0.05328962       0.22696237       0.02516912       0.24634501
O       25.60776239       1.69405520      25.15378889       0.90795887       0.36516748       0.30143010       0.26297855       0.50749558       0.33110353
C       26.38483460       0.65370079      24.56384450      -0.15392551       0.96517533       0.13963959      -4.41154146      -1.33298683      -1.72746336
C       25.64201009      -0.70956658      24.79648683      -0.33402205       0.22015276      -0.08257973       0.16106084       2.03471661      -0.86634547
F       26.38410670      -1.64341372      24.21140566      -0.00387100      -0.21053304       0.33674818       0.13627139      -0.63199902      -0.25269750
F       24.40691090      -0.67724695      24.22156903      -0.78239765       0.23071327      -0.13404408      -0.22530951      -0.19109102      -0.68801105
C       25.34982770      -1.05339517      26.21940780       0.33858658       0.10632723      -0.12873147       0.13862202      -0.72733217       1.38368750
F       24.96070053      -2.34608579      26.24134682      -0.27689718      -0.50860344      -0.00165640      -0.38719872      -0.75790673      -0.22869971
F       26.52195166      -1.03217422      26.90336246      -0.03419903       0.13778066       0.95702457       0.02421901       0.55488145       0.20868513
H       23.55902823       4.16464888      24.28117406      -0.01293065      -0.20949764      -0.06056131      -0.74080217       0.29268724       0.00311556
H       27.22612635       0.56106097      25.09220531      -0.10441479       0.28321660      -0.10418995       3.59471631       0.15790163       1.87332022
H       26.53668755       0.79538581      23.48690463      -0.19017718       0.02621038       0.04874852       0.11622301      -0.03025352       0.34497902
H       24.53830235      -0.49396720      26.72045146       0.17823300      -0.06178069      -0.02074804       0.73090041       0.24565589      -0.26616377
F        0.40556167      18.37642457      11.76796996      -0.56284281       0.80542449       1.19436852       0.86927152      -0.83258128      -0.24800675
C        1.44240270      17.65613696      11.24047768       0.27140716      -0.56378503       0.04570484       0.20079431      -0.04751343       1.30005848
F        1.02047022      16.42707308      10.86082427       0.11409755      -0.89121550      -0.97589776      -0.61491114      -0.06513470       0.17806587
C        1.99296461      18.33871219      10.03938737       0.61690754       0.25186927       0.53288333      -0.49300331       2.58978176       0.10945174
F        2.65608113      19.49241688      10.49563005      -0.79711145      -1.00159834      -1.30249388      -0.49375346      -1.18679142      -0.56398332
F        2.90121831      17.52398491       9.55765069      -0.96361982      -0.44525833      -1.65758775       1.53132796      -0.73010731      -1.03624868
O        1.05945609      18.67546919       9.11424970      -0.77564834       0.04343964      -0.61133456       0.32626021      -0.36015967       1.05402434
C        1.43684023      19.74248805       8.24576865      -0.94640342      -0.60638952      -0.29407502       1.39875484      -1.50998652       0.09461561
C        0.61729343      19.48447787       7.03472258      -0.13475494      -0.50216816       0.36178769      -0.46173659       0.94139636       0.21126038
F        0.97696487      20.47782949       6.20135248      -0.21105176       0.41510998       0.47742441       0.37399581       0.38696745      -1.37539399
F       -0.68251831      19.64107320       7.21589783       0.07453452       0.92244373      -0.20089367      -1.05867386       0.03332861       0.61986220
C        0.78388503      18.10564440       6.39627028       1.28040928       0.78064063       0.94975225      -0.13058965       0.22855636       0.14223641
F       -0.14333166      18.06662047       5.39314649       0.55879814       0.15736713      -1.12726091       0.38876536      -0.38779616       0.25809807
F        2.01556371      18.09208031       5.83329038      -0.12869824      -0.62756192      -0.43901802       0.01243778      -0.51302350      -0.08933234
H        2.32005882      17.51496242      11.92757475       0.23206809       0.22168759       0.04701637      -1.16401243       0.32202321       0.02752112
H        2.48361849      19.59144755       7.87656049       0.03418544      -0.00206611       0.15189751      -0.63175821       0.26806441       0.56158549
H        1.35162014      20.68734242       8.77434581       0.15709060       0.17383243      -0.24688367      -0.38402355       0.27131760      -0.44412422
H        0.61780555      17.26360113       7.10516994       0.00447192      -0.16148384      -0.19697018       0.19279599       0.56343001      -0.66498059
F       28.20063781      -3.11268284      20.72521820      -0.74557554      -0.44840455      -0.45087706      -0.99339241       0.59840775      -0.23653889
C       27.24482121      -3.42745139      19.81979778       0.30114145      -0.07045344      -0.58255246      -0.03162852       0.62472099      -0.41472843
F       26.00451655      -3.40158277      20.33319288      -0.69225697      -0.08250441       0.20976354      -0.10346040       0.27266285       0.69834071
C       27.20812827      -2.50511632      18.59099735      -0.06007039       0.37001799      -0.61439193      -0.77571052       0.40119427      -0.30987257
F       26.27393272      -2.99709408      17.69189498       0.24012409       0.62945682       0.12149773       0.51084387      -0.20024039       0.44039798
F       26.72801423      -1.27709211      18.87339967       0.28121494       0.56930009      -0.78054048      -0.18641636       0.28557163       0.37506539
O       28.42189111      -2.43655549      18.07168547       0.49220834      -0.16594235       0.46264719       1.60375261      -0.02473595      -0.78908563
C       28.71546274      -1.53237221      16.99370224       0.71277962       0.35199152       0.03187583      -2.57796955       0.19633067      -0.37027690
C       28.68689103      -2.22977199      15.64527107      -0.75701796      -0.04198366       0.20413866       1.06222081      -0.62669140       0.12338594
F       27.44270073      -2.33431213      15.20695348      -0.46367933      -0.26296413       0.70453761      -1.65805733       0.25346687      -0.68356746
F       29.10825481      -3.51478671      15.75970708       0.41604523      -0.37409348      -0.57348423       0.55492252      -0.29326656       0.30541781
C       29.51858509      -1.63060156      14.48731502       0.06140273      -0.55838965       0.92682815       1.83350420      -1.63629520       2.25773382
F       29.11734853      -0.43321629      14.20879682       0.65975625       0.80371523       0.23276635      -0.38418990       2.36698437      -0.33615109
F       30.88529946      -1.63187679      14.88209766      -0.47179539       0.54206552      -0.85687215      -1.64808905       0.46810317      -0.29743779
H       27.46310617      -4.39611014      19.49406634       0.08563108      -0.38443339       0.26904691       0.22190659      -1.69112420      -0.61053008
H       29.63596010      -1.07326277      17.14262260      -0.22447283      -0.03486259       0.20294398       1.76517284       0.50442666       0.64027005
H       27.94899073      -0.72504069      16.93782153      -0.01456557      -0.03371243       0.01088959       0.43214989      -0.48816565       0.07535506
H       29.45141906      -2.25443561      13.64372109       0.08778362      -0.10738208       0.30641651      -0.10955486      -0.95050138      -1.17337441
F       30.64267631      18.18119438      14.71547933       0.70476529       1.04926538       0.80106059      -0.49377468       0.08050667      -0.24991573
C       31.07481183      19.31488503      15.27101464      -1.28260955       0.24284193      -0.96169091      -0.19477671       1.29058170       1.83752847
F       32.24741486      18.97097779      15.91576331       0.97011481       0.82583847      -0.45710137      -0.96354663       0.70324826      -0.90524817
C       31.25161132      20.44801890      14.21675464      -0.23027383      -0.27316066       0.14442765       1.01016152      -2.66013908       1.29101229
F       29.98923956      20.82735101      13.87122546      -0.61776261      -0.16399194       0.13199431       0.81104857      -0.15739483      -0.86076587
F       31.82808217      21.47716058      14.80833880      -0.53616902       0.56982724      -1.14610250      -0.13222173       1.15222776       0.24572197
O       32.10001379      19.94353588      13.27692868      -0.60893996      -0.03644404      -0.42504222      -1.95750892      -1.08731413       1.05758584
C       32.32201167      20.76140606      12.20672798      -0.16719922       0.38027655       0.89302720       3.48680425       4.96900940       4.90211153
C       33.83920090      20.91476204      12.06255350      -0.32684711      -1.18658092      -0.44843997       1.52204728       0.58568305       0.58279073
F       34.48394335      21.37180614      13.23590565      -0.92077065       1.51806438      -0.51090778      -1.41224039      -0.07840827      -1.63543189
F       34.02856154      21.83070917      11.03585282       0.12183029       0.25293383      -0.39799383       0.15932640      -0.61033857       0.92289430
C       34.67603937      19.60148460      11.73113886       0.84427308       0.39872656       1.09206358       0.55927068       7.10450172      -0.44349840
F       34.33929311      19.19261582      10.57648296      -0.34182388       0.15189768      -0.01115931      -0.82379186      -1.95324302      -2.95787334
F       35.97170805      20.08491365      11.65990960      -0.15962455      -0.89743092       0.74198421      -0.04040192      -0.77113420      -0.01100409
H       30.33901704      19.79803565      16.01412307      -0.08986678      -0.10818315      -0.10745299       0.95377809      -1.37864113      -0.65734404
H       31.90556119      21.78147765      12.40961988       0.09415356       0.04523361       0.22345124       0.42079189      -0.99598008      -0.78598958
H       32.08924505      20.35027946      11.38051821       0.14378370      -0.53390464      -0.48471770      -2.70054793      -2.73226333      -6.00227594
H       34.54577480      19.04531868      12.53452426       0.38853367      -0.44274432       0.14523931      -0.14010584      -3.74756503       3.29012513
F        4.10120404       8.29544778      25.17324138      -0.62003742       0.26606194       0.59913483       0.34774551       0.05208885      -0.08197524
C        4.12329697       9.38441860      24.36821204       0.08824160       0.28471128      -0.21128209      -2.33100510      -1.06217659      -0.22887285
F        2.99252879      10.11265096      24.70642079       0.03956342      -0.51058521      -0.59545594       0.87473881      -0.33615777      -0.42435938
C        5.31435717      10.23301351      24.61218211      -0.51610215      -0.35348455      -0.64255467       1.47190642      -0.13001350       0.88770348
F        5.16095039      11.27733764      23.79756866       0.70682480      -0.62577959      -0.27243306       0.45866260       1.08116806      -0.43434846
F        5.35909289      10.68468816      25.88502273      -0.53396240      -0.15806311       0.11226320      -0.36708418       0.56406832       0.31325227
O        6.44213331       9.52312883      24.39344534       0.29410571       0.66507154      -0.34655995      -2.05879569      -0.93408835      -0.70753133
C        7.71967817      10.04334239      24.52323274       0.47199171       0.50968874       0.21904802      -0.26107189       0.30752224       0.39437249
C        8.55383543       9.01891685      23.88103885       0.36619445       0.02086898       0.66719213       1.17620516      -1.37649119       0.39675108
F        9.82005520       9.18493240      24.29421411      -0.17913248       1.38194960       1.43845690       1.35204577       0.46354982       0.41528791
F        8.58590470       9.06783575      22.56739447      -0.51193505      -0.64853830      -0.02155151      -0.26402217       0.66905349      -2.12675071
C        8.15770365       7.61578518      24.22336292       0.30630397       1.07212057      -0.37219994       0.38159561      -0.24239396       0.40487134
F        9.15714202       6.74013405      23.92725689       0.42418737      -0.06395021       1.17186261      -0.15707535       0.26626813       0.04518104
F        8.00134956       7.63923089      25.57139115       0.61839353       0.34729659       0.65864358      -0.19932309      -0.82703561       0.53088689
H        4.06955550       9.06506192      23.30584345       0.23648117       0.04377979       0.03950004      -0.01704919       0.34965163       0.69084054
H        8.00410136      10.15599282      25.57077916      -0.25408603       0.09828953       0.28049446      -0.03892659       0.38523331      -0.28799531
H        7.82387448      10.89950911      23.90491211      -0.12287828      -0.02577229      -0.14105385       0.20586470       1.38331008      -0.10918890
H        7.26861080       7.33490950      23.69611052       0.20452052       0.03417182      -0.17160056      -0.62598610      -0.40131405       0.03865216
F       21.93706179      -0.76709157       7.04020822       0.58442112       0.39404738       0.32220335       0.07090984       0.71905667      -0.39995524
C       22.45213453      -1.83694838       7.66791375      -0.08164736       0.68922606       0.98038470       2.05264497       1.80109155       0.59328771
F       22.84233559      -2.69409981       6.78016705       0.62365275       0.56780606      -1.24724696       0.47797516      -1.87096786      -1.86134064
C       23.73850249      -1.40399530       8.43814633       0.82591086      -0.45293214      -0.00585470       0.33817306      -0.38443038       1.08721769
F       24.71755770      -0.94920110       7.60444015       0.32754522       0.45983077      -0.07699022      -0.51461738       0.02791557      -0.01423627
F       23.41659248      -0.36669764       9.25078360       0.95092917       0.18748780       0.90841969      -0.00936315       0.36138344      -0.17458341
O       24.24500824      -2.44214644       9.20543701       0.18816079      -0.21742594       0.33857663      -1.20697927       0.05635569      -1.15839732
C       25.29340029      -2.11713331      10.07065034       0.24165364       0.84765003      -1.09791262      -3.27569842       0.38944036       1.48282433
C       24.86166135      -2.14314221      11.52515288       0.08578095      -1.08258660       0.03745989      -0.96388853       0.55985057      -2.09110379
F       24.55687245      -3.41605432      11.81906896       0.48666591      -0.46867708      -0.27486809      -0.05661130      -0.46748030       0.43466821
F       23.71737142      -1.42141475      11.69893153       0.95376031       0.05423134       0.14890155       0.36283648       0.06552982       0.56349689
C       25.93189357      -1.69006540      12.46396378      -0.87502831       0.72580889      -0.66011694      -0.71540064       2.16782284       1.49287713
F       27.10455923      -2.23087663      12.22819448      -0.57194774      -0.96505350      -0.20192153       1.27089322      -0.93388867      -0.62617218
F       26.12161660      -0.31036712      12.42550906       1.13672373       0.77870713       0.14007166      -0.29575390      -0.62291896      -0.55617350
H       21.73034361      -2.22100440       8.29571794       0.06635874       0.25202034      -0.09856243      -1.46247888      -0.94722289       1.56095505
H       25.79858237      -1.28949244       9.80009442      -0.27973797      -0.53669165       0.10377918       1.23025382       3.30975223      -0.74387848
H       26.00112620      -2.80249444      10.08817086      -0.14354659      -0.09232918      -0.25981820       2.98710322      -3.78290486      -0.71355313
H       25.59924080      -1.89180490      13.45458311       0.16031983      -0.20560355      -0.09834161      -0.07137056      -0.42665246       0.95064712
F        1.18957267       3.99299958       8.70668165      -0.02583786      -0.87618521      -1.26273618       1.05975497      -1.50699854       0.34386274
C        2.19227251       3.01661703       8.89372694       0.60046263       0.41849465       0.53182175       1.07137322       2.14391422      -0.58382261
F        2.47466256       2.47826295       7.72032228      -0.48143346       0.12744126       0.83597644      -0.16184966      -0.43552011      -1.02140129
C        3.45634735       3.75434469       9.43478985       0.91915946      -0.05434353      -0.01283375      -1.77267885      -3.12823200       1.93867445
F        3.93714592       4.68863458       8.71854189      -1.05538740      -0.41230057      -0.68921447       1.12419963       2.18060923      -2.27094984
F        2.91972430       4.36862646      10.52866692       0.11922581      -0.10018056       0.27415245       0.53026593       0.45984426       0.92468148
O        4.40882552       2.80305681       9.76628836      -0.04336782       0.96904074      -0.15126173      -1.01515996       0.36662024      -0.53049326
C        5.58549443       3.36942272      10.34717199      -0.24695951      -0.07150213       0.43924418      -2.48818851       1.65443170       0.41876784
C        6.56531022       2.31704615      10.60981765       0.77222354      -0.00759619       0.41163788       0.42429447       0.29242271      -1.29714775
F        7.70989060       2.95671517      10.88484689      -1.03653401       0.12848496       0.28976042       0.59997612      -0.36471266       0.15001597
F        6.69021122       1.51603674       9.49235237      -0.05568523       0.00947002       0.48459151       0.49678573       0.43844494       0.28622010
C        6.15399263       1.40076379      11.67799531       0.78456106      -0.29193554       0.27686240      -0.16783912       0.17845683       3.57929516
F        7.16561969       0.57858346      12.03603544      -0.02367003      -0.03138923       0.62163131      -0.40318471       0.15286821      -0.12741356
F        5.83925393       2.19463796      12.86160524      -0.39342553       0.21842002       0.51216681       0.59585869      -1.25403273      -1.93652511
H        1.98744603       2.27109881       9.62093477      -0.02704582      -0.19907424      -0.11818576      -0.97768158      -0.59932917       0.33168781
H        5.23512728       3.85115309      11.27015798       0.13222163      -0.03076331      -0.23948562       0.64805228      -0.19006157       0.09866849
H        5.94436568       4.15936376       9.71717626      -0.00299844      -0.22014617       0.10933724       0.79631573       0.10768928      -0.47778863
H        5.26226180       0.85631806      11.42486764       0.08430260      -0.11378936      -0.06509650      -0.29816884      -0.37062460      -0.04190655
F       26.54939600      20.34446733      24.64891928      -0.45030778      -0.09003334      -0.82915392       0.36289704       1.47369218       0.16973209
C       26.13993776      19.17352057      24.18584187       0.08882040       0.29537964       0.83714101      -0.38896412      -0.51126277       0.43912095
F       24.91953627      18.93421965      24.72275600       0.68094151       0.20771028      -0.31492207      -0.29195529      -0.43517837       0.50258303
C       25.91246023      19.22263810      22.71368930       0.12318260      -0.87952536      -0.16353632      -1.55198359       0.27337867      -0.66192925
F       24.95853190      20.16361455      22.51276987       0.03055477       1.30781630      -0.43045199      -0.03924803       0.92262977      -0.21204391
F       27.01782622      19.58427174      22.09224892       0.04315408       0.53730084      -0.32399344       1.03129911       0.32735550      -0.51480138
O       25.47562731      18.06558730      22.17746289       0.85739930       0.68940615       0.25157482       1.87526143      -0.30894518      -0.01662441
C       24.13834622      17.81435577      21.97109739      -0.35480223       0.29405622      -0.16584625      -1.40052974      -1.58641768       0.22559784
C       23.81417139      17.82048967      20.50952641       0.63313277       0.14768082       0.06594006       0.35550132      -0.21452428       0.31988382
F       24.48535361      16.80120914      19.88192188      -0.06328451       0.03656431       0.89183837      -0.53461528      -0.16455306      -0.12672243
F       24.26519355      18.94025166      19.95022447       0.49030192       0.08416225      -0.14146644       0.63962281       1.35506809      -0.68445176
C       22.32296809      17.80692187      20.22314892      -0.08400257       0.17830958       1.68494093      -0.20712824      -0.32751065       2.12055445
F       21.78172365      16.73324953      20.83371856      -0.59977657       0.17139253      -0.46446281      -0.11965481      -0.38408464      -0.16722584
F       21.69353358      18.89994955      20.75842578       0.52008590       0.17375231      -0.69766663       0.69792056      -0.01581050       0.10176392
H       26.85808264      18.44339800      24.45863258      -0.13242436       0.07353878       0.19404181       0.37789235      -0.94584793       0.30559894
H       23.44536354      18.54446955      22.38230292      -0.06720708      -0.01311434       0.06018909       0.18097447      -0.24998994       0.72462076
H       24.00849715      16.76446945      22.33703673       0.09184513       0.01087427      -0.06970705      -0.52629596       0.95818597      -0.09695283
H       22.14385428      17.83634103      19.21376488      -0.10805727       0.05601438      -0.13139065      -0.50620353      -0.36415714      -2.52965021
F       19.40758927       8.60061168      16.07254802       0.56775307       1.01790666       0.04170698       0.10199135      -1.21888161      -0.93221056
C       19.75014346       9.63103328      16.83291392       0.22658370       0.16760185      -0.34191648       0.77421474       0.49180922      -0.25999224
F       18.62486378      10.08094580      17.36237708      -0.15111958      -0.02306880      -0.39032127      -1.34247720       0.66044134       0.80060077
C       20.69131149       9.19279876      17.94586375       0.36599263      -0.41446091       0.20150759       0.74649686       2.85252595      -0.36951870
F       20.49491939      10.08752115      18.96454659       0.58631505      -1.43109422      -0.43634316      -0.00504111      -0.25782061       0.51129931
F       20.36642561       8.02108648      18.35759413       0.31863759       0.19091079       0.40063315      -0.56650311      -2.79098058       1.37804794
O       21.97549838       9.27162764      17.54337730      -1.26425404       0.55437697      -1.43333567       0.33142740      -0.13572708      -0.68321294
C       23.01121665       9.02502648      18.49244839       0.12366135      -0.56679064      -0.35420173       0.62420833      -0.56373930      -1.58735013
C       24.32006453       8.83840607      17.65423800      -0.27449532      -0.35777859       0.73294074      -1.46743572       1.08920324       0.84817564
F       24.28796992       7.68316140      16.96642063      -0.18326061      -0.40669716      -0.57732551       0.15919934      -0.52379453      -0.16506679
F       25.34190982       8.83899301      18.50958482      -0.91283792       0.46259248       0.48662107       0.78711635      -0.83127284       1.02011991
C       24.63932079      10.01506229      16.73402467      -0.78139120       0.06923335      -0.33663058       0.77852547      -1.70003068       0.41339403
F       25.97389962       9.94245671      16.40849679       0.74843211       0.88775320      -0.60226204       0.21708056       0.36519000       0.41622925
F       24.02461106       9.86891489      15.59618126       0.22467508      -0.32207575       0.10534704      -1.54894578       0.11728071      -2.03346539
H       20.21582344      10.40953359      16.26380468      -0.06791542       0.01177923       0.10309561       0.29763001       0.50217515      -0.58329487
H       22.81344295       8.13964819      19.06520997       0.06324566      -0.04908742      -0.05843320       0.02177861      -0.69092196       0.26613098
H       23.16124678       9.84264290      19.14876142       0.07254087      -0.01297592      -0.17116226      -0.02650173       0.99069744       0.53461194
H       24.37452402      10.90126238      17.23036506       0.07225314       0.22657503      -0.29520315      -0.00580384       1.58206606       0.41572002
F       22.54923385      11.60168038       8.99734617       1.38175679       0.32897754       0.04865368      -0.42661956       0.63994008       0.07877681
C       21.38905297      12.39395219       8.97339606      -0.51804745       0.34032501      -0.21018044       1.99256992      -2.16947508      -0.80817735
F       21.70735396      13.61946831       9.24140730      -0.30112387      -0.10060010      -0.25811871       0.38027668       1.83131492       0.73870414
C       20.85564204      12.31546112       7.57750447       0.17820536      -0.44664624      -0.64587786      -0.19625582      -0.83245569       0.29346991
F       19.66432573      12.97757453       7.61452398       0.22336479      -0.83184952      -1.28104844      -0.13540947       0.57080609      -0.39730656
F       21.67951530      12.93789387       6.71152359      -0.06847013      -0.35345894       0.66298459      -0.34752226       0.11668714      -0.09365258
O       20.66234462      11.01876342       7.26324631      -0.07402135      -0.31507843       0.60777474       0.57600629       0.19690764       0.08597730
C       19.91167928      10.83760206       6.06579242      -0.11906774       1.17075804      -0.37620311       0.16192740      -0.81583452       1.01127505
C       20.77530229      10.21004355       4.99120408       0.10305135      -0.60653900      -0.46300951       1.08078051       2.73533821      -0.21809354
F       19.94990700       9.91526648       3.99466259      -0.39081122       0.17848974      -0.34570095      -1.05292857      -0.34290180      -1.79004240
F       21.30714995       9.12676473       5.41679979       0.34057614      -0.50146616      -0.01889675       0.98128766      -3.78270745       1.59267724
C       22.04381706      10.98164510       4.46690428       0.24009098       0.80328154      -0.29571495      -0.11111780       2.11804748       2.95192075
F       22.75524283      10.31080101       3.59136433      -0.53432076       0.91350512      -0.52646473       0.07178307      -1.08736372      -1.22972512
F       21.61546949      12.15117593       3.92812775      -0.19082886      -0.79781407      -0.96232660      -0.30628839       0.46637341      -0.86979640
H       20.74490204      11.93495573       9.66615407      -0.11852478       0.22355902       0.13992207      -1.14902461      -0.21054003       1.02500844
H       19.56183003      11.80214790       5.79322495      -0.29140890       0.07212960      -0.14208054      -0.76110554       0.33436227      -0.81404626
H       19.12292764      10.12474781       6.39361314       0.32114926      -0.11751641       0.25671005       0.30220985       0.50873196      -1.02263987
H       22.75111360      11.29131179       5.29903822      -0.32885586       0.35152213      -0.02887448      -1.08360410      -0.71573293      -0.59537774
F        5.36425624      16.16817070      15.08955384       0.22939534      -0.19679623       0.45818371      -0.81966770       0.56324387       0.30619180
C        4.64698785      15.11260689      15.51503331       0.13113383       0.09891969       0.29223758      -0.53775102      -1.21217477       1.20945215
F        3.45860408      14.95788485      14.86893468       0.02624299      -0.32670662      -0.52014489       0.19779778       1.00891256      -0.29327682
C        5.45208831      13.89635776      15.13516149       0.08103657      -0.51780223       0.66428615      -1.44263995       0.81651247       0.03354158
F        5.50592849      13.91997345      13.79026391      -0.89255844       0.83733036       0.11743603       0.09819420      -0.92786169      -0.96769106
F        6.70465211      14.03852291      15.53203856      -0.71594808       0.53518028       0.44941663       1.07435322      -0.46529621       0.73797876
O        4.77968771      12.85365963      15.65303134      -0.00348239       0.32237754      -0.60774053       0.31609929      -0.37497941      -0.10058440
C        5.26587222      11.57323393      15.29391566      -0.28369574      -0.19106745      -0.74599566       0.40652305      -0.08113304       0.27563810
C        5.08259272      10.60581458      16.43529466       0.42525030      -0.38364360      -0.47523416      -1.55136204      -0.38795000      -0.04639907
F        5.82671170      10.92389190      17.49168487      -0.19111261      -0.93039570      -0.82866429       0.23130347       0.31415191       0.71274477
F        5.52429659       9.42494875      15.95790490      -0.21174256       0.88148584      -0.48876285       0.47596931      -0.83290035      -0.25736865
C        3.61183169      10.30922854      16.89162486       0.12146957      -0.54822303      -0.07343466      -0.04397801       1.09895718      -2.25810385
F        3.06417646      11.33504324      17.54284508       0.00897003       0.69186165      -0.75646764       0.34616834       0.41111854       1.06632125
F        2.86264801      10.23474266      15.74085964      -0.69773968       1.74958318      -0.99513918       0.37038141      -0.37709403      -0.31982729
H        4.39493171      15.03589689      16.60585942      -0.15956549       0.06692901      -0.21095269       0.53134221       0.98099959      -0.72067839
H        6.33166313      11.62205840      15.11406113       0.07566996       0.07723140      -0.11631285       0.39889780      -0.08363297      -0.06155808
H        4.78713924      11.16128529      14.42177279      -0.03908571       0.00386192      -0.13519417      -0.42970720       0.06559119      -0.34379649
H        3.48991882       9.36889798      17.35175745      -0.19528699       0.11269146       0.10801100       0.20694821      -0.84272653       1.18518341
F       25.33225040      11.06755701       4.84527765      -0.20610015      -0.89109955      -0.69311738       0.14460024       0.84264827       0.43830746
C       25.76951668       9.82014669       5.08871292       0.03966060      -0.18432207      -1.15517770      -0.67159921       1.12469733       1.38671184
F       27.09254166       9.81113493       5.25941734      -0.99818271      -0.74945771      -0.81882166       0.92925078       0.17746438       0.01828298
C       25.15247358       9.27109537       6.37994230       0.85449186       0.33627182      -0.19736051      -0.29188773       2.33329844      -0.51392728
F       25.67818380      10.00822699       7.40512841       0.93005349      -0.22617383       0.52074059      -0.30893907      -0.26859528       0.29296952
F       23.79982501       9.48947778       6.40589502       1.00945038      -0.21176135       0.08379985       0.42326438      -0.01885598       0.19469194
O       25.44722965       8.00893504       6.42175941       0.00896722      -0.67818317       0.01018231       0.58993089      -2.32399821       1.18755674
C       25.22329003       7.29070896       7.67255764       0.53154922       0.34180643      -0.63536443      -0.19702107       0.98095912      -0.42235374
C       26.55586991       6.86872109       8.24263055      -0.01532647       1.69969614       0.72457207       0.13383520      -1.06655860       0.03946376
F       26.29457827       6.07684174       9.34300063       0.81485299      -0.58209629      -0.41134288      -0.16090533       0.40550220      -0.12661204
F       27.33107332       7.87753100       8.61638099      -0.45940983      -0.67392596      -0.33520257       0.30429035       1.18057680       0.79057723
C       27.47600057       6.04157649       7.30037493      -0.16576828      -0.68639880      -0.31845987      -2.59048390       1.23894382      -1.01089168
F       28.16463579       5.20197470       7.99657464      -0.27352686      -0.87374465      -0.35352035       1.44674337      -1.36948264       0.95372808
F       26.67703953       5.35396696       6.42867623      -0.86146472       0.05700356      -0.25320194      -0.13603596      -0.40368569       0.00317453
H       25.49702477       9.29203421       4.25188792       0.07632851       0.03316327       0.00863095      -0.52184886      -1.98750234      -2.15407372
H       24.75031042       6.39376216       7.37123586      -0.05688330       0.22191971      -0.01058988      -0.76263875      -0.88244236      -0.14501783
H       24.55036266       7.85232065       8.36124244      -0.16437963       0.13847251      -0.14785664       0.82622647      -0.33130997      -0.32310176
H       28.05815797       6.71523415       6.71175689       0.02326150       0.00915770       0.26331834       0.82962126       0.39525878      -0.31704062
F        9.85142215      13.11292359      22.09900715      -0.40297362      -0.06312429       0.68914731       0.10415089      -0.12205310      -0.12203731
C        8.62751482      13.67752610      22.24751752       0.02619149      -0.77833050       0.44592858       1.31792498       0.22147423       1.52035797
F        8.76594564      15.01073276      22.16906907       0.40342138       0.01154411       0.42442813      -0.05199564       0.60942483      -0.44740033
C        7.75740223      13.14997914      21.17445038       0.45672105       1.12469767      -0.75640729       0.27379319      -0.56816655      -1.61943102
F        7.67388261      11.81241193      21.28273949       0.17467423       0.44131106       0.92259971       0.81597924      -0.68279576       0.12722640
F        6.51448747      13.53430311      21.31741134       0.01700768      -0.94207880      -0.40245549      -1.88943756       1.27716982       0.47997320
O        8.22295731      13.55711040      19.95214398      -0.57744538       0.25597704      -0.40692405       0.08657285      -0.13693921       0.99655086
C        7.54122541      12.94267868      18.88108891      -0.40448321       0.31443639      -0.49613153      -0.84702152      -0.69769067       0.67543805
C        8.59360790      12.65327197      17.91286429      -0.23038591      -0.70551120       0.64761203       1.49565911       0.53661740      -1.66305971
F        8.13453064      11.99946145      16.82564250       0.44506585       0.46508897       0.48821117      -0.43262455      -0.40664470       0.08853587
F        9.59180188      11.90248754      18.45528643      -1.00010134       0.21245001       0.12929493      -0.29850569      -0.51128161       0.19485144
C        9.33336966      13.88829360      17.41401780      -0.73627435      -0.46131605      -0.84015167       2.10970902       0.02222995      -1.09703743
F        9.88798427      13.54576621      16.16874253       0.03915347       0.03099719       0.92385125      -0.46496177       0.40955195       1.11795282
F        8.58212265      14.97330055      17.23247758       0.59096128       0.94453244       0.40498711      -0.73532736       0.28422707      -0.07053222
H        8.29864724      13.47753838      23.26098554      -0.09329308      -0.06067794       0.31660735      -0.41503927      -0.50603843       0.02082873
H        6.76485323      13.58899357      18.50775729       0.12018374       0.23894185      -0.22287450      -0.19185281       0.30432236      -0.42734987
H        7.09003272      11.99246531      19.15241381       0.01577294       0.03677267       0.13313056      -0.12125872      -0.08750948       0.25309008
H       10.17985282      14.15572067      18.05423657      -0.10392455      -0.42429167      -0.10196849      -0.26144162      -0.15446067       0.08046553
F       27.95739820       1.46320961       5.94398069      -0.06697092       1.47221919       0.68022849      -0.16976613      -0.50181460       0.73319358
C       27.62363511       0.60011927       6.96999290      -0.69655457      -0.20686054       1.26685674       0.10286967       2.02188730      -0.78809768
F       28.75174430       0.11958806       7.46154560      -0.01087646       0.06257818      -0.05918200       0.82028663      -0.81650138       0.30473000
C       26.91676302       1.37750600       8.06725199      -1.70151363      -0.86020778       1.84139219      -0.78258842       1.98721886      -1.23206031
F       26.76083769       0.61404417       9.12949758       0.09251415       0.55207691      -1.01436795      -0.39134461      -0.75553542       1.04391015
F       27.69845148       2.41877324       8.47211508      -0.14560073      -0.55309434      -0.43648645      -0.07447720      -0.11244577      -0.05010908
O       25.72280802       1.84632134       7.53520784       0.22322018      -0.06204755       0.00589310       1.61188030      -0.82909960      -0.60753298
C       24.89023092       2.56715794       8.37900525      -0.20290244      -0.53936928      -0.09678027      -1.24722862      -1.08986306       0.97652930
C       23.69893613       3.08871501       7.66115916      -0.22091182       0.52265630       0.08139148       0.47181064      -0.64744437      -3.31661773
F       22.96120825       2.10396327       7.00567361      -0.31234127      -1.01227402      -0.14333314       0.89707541       0.26459011       0.76789111
F       24.12922669       3.91672985       6.61181329      -0.21525001      -0.41944315      -0.33457356      -0.47186714      -0.22057091       1.05194736
C       22.67735710       3.80538795       8.45459268      -0.86771649       0.80890942       0.12343099      -0.10525464       1.64787805       0.17050236
F       22.16219307       3.05050834       9.43398005       0.44769169      -0.43542535       1.29960852       0.08125892      -0.45534092       0.37157714
F       23.22982311       4.92825051       9.00390094      -0.88803377      -0.10272174      -1.29716171       0.30271587      -0.09134471       0.43414873
H       26.97803026      -0.11258468       6.54634117       0.07090151       0.19099308      -0.16126845      -0.63991380      -1.43756127      -0.31924811
H       25.38644508       3.38647459       8.86079306       0.17818727      -0.21132396       0.13877500       0.31546882       0.45142904       0.43528369
H       24.41329079       1.85854059       9.06631708      -0.30016022       0.34393041       0.11161378       0.42543215       0.20455877       0.62176949
H       21.91354601       4.13407653       7.78584419      -0.04572924       0.04075165      -0.08343059      -0.76845443       0.17772175      -0.38696525
F       11.76972050      12.14986134      14.82897907      -0.39274709       0.08909707      -0.54989212      -1.46738970       0.32524660      -1.20513237
C       12.72680998      11.85377532      15.69323160       0.45729851       0.35039397      -0.41810768       2.69112325      -2.98945761      -1.28315771
F       12.48646298      12.39038171      16.82415647       0.07972639      -0.21389142      -0.21957173      -0.95900154       1.81514251       3.01159859
C       12.68739774      10.28200098      15.95739113      -0.04017039       0.33061129       0.56763957      -0.44821021       2.16579366      -0.74010402
F       11.44954190      10.01888893      16.41525513       0.67308688       0.45747049      -0.37149830      -0.65314400       0.01292477       0.52290779
F       12.77999395       9.59121088      14.82530054       0.09922462      -0.23597507       0.15338322      -0.02654053      -0.29020864      -1.28476775
O       13.64874325       9.96116661      16.79761234       0.92794365       0.43312692      -0.04224583       0.47577709      -0.31873149       1.10237145
C       13.44573856       8.74234881      17.55864505      -0.83580499      -0.39699072      -0.99389086       1.30509651       0.10997972      -0.93088371
C       14.41968657       7.69848047      17.00396554      -0.20431562      -0.29639147       0.19094276      -0.81505615       0.21557459       0.93914634
F       14.03116776       7.35741220      15.78892392       0.21151626      -0.06331079      -0.11727956      -0.19261676      -0.45981750      -1.65069020
F       14.25240943       6.58110516      17.78377204      -0.18093345       0.51908474      -0.40122214       0.24883890      -0.27372104       0.32275370
C       15.91091958       8.05516840      16.94376947      -0.21390201       0.15552867      -0.34406353      -1.10003340      -0.07441755      -0.53770989
F       16.30051644       8.43767215      18.14572183      -0.80755310      -0.35606587      -0.46103305       0.47045439       0.33777493       1.38759625
F       16.58537962       6.93680423      16.60108238       0.43832064       0.10627585       0.09425064       0.11799495      -0.13792267      -0.24190593
H       13.68968388      12.20963436      15.29718711       0.20735717      -0.08457368      -0.19565439      -0.25377026      -0.30873966       0.01770344
H       12.40860241       8.40297426      17.51895228       0.08471049      -0.11669579      -0.18180697       0.21754415      -0.19570866       0.06324981
H       13.78519493       8.99315768      18.52822969      -0.29382565      -0.08525641      -0.13763263      -0.11656162       0.10359247       1.23768342
H       16.08050044       8.85383892      16.24001637      -0.07842673      -0.07861994      -0.12451927       0.25490144       0.10988207      -0.47063759
F       24.14096880       2.06505566      28.46635938      -0.54436062       0.56532841      -0.83616208      -0.65586090      -0.57940400      -0.08614859
C       22.92255531       1.52137455      28.85650919       0.21929170       0.60012115      -0.88865112       1.88486230       0.40370759      -0.09337787
F       23.03319505       1.14384059      30.12931715      -0.12057489       0.06917762       0.09533013       0.17214549      -0.35410544       0.97246885
C       21.93457450       2.63623331      28.80866810       0.69900576       0.55388136       0.63845196      -0.96529132      -0.42199451       1.14673865
F       21.79200153       3.09415068      27.57188204       0.33179449       0.79664500      -0.07353812      -0.24306662       0.41110805      -0.79617345
F       20.73922753       2.06351849      29.17370049       0.92332157       0.27800656      -0.15026861      -0.19974165       0.34709370      -0.28128445
O       22.27100121       3.59261701      29.70189647      -0.21502421      -0.23700661      -0.45386174       2.26449633      -1.83604515       0.30667096
C       21.45522780       4.65892326      29.79165513       1.07560269      -1.66902453      -1.17199567      -3.48490715       2.11440778       0.82590169
C       22.15405943       5.93603069      29.49324634      -0.09951653       1.19272318      -0.07371081       0.65583259       0.64416134      -0.71300375
F       21.27163923       6.99542295      29.39270216      -0.54656455       0.52920466      -2.05692694       0.50889087      -0.77480185       0.25174782
F       22.85489458       5.87057412      28.33988712       0.04393511       0.15797987       0.92602973      -0.46137959      -0.44355071      -1.49225926
C       23.25390200       6.28530316      30.40341968       0.30511879      -0.18909012      -1.12707081      -0.14913283       0.17909323       3.11600828
F       23.83751297       7.37255994      29.99340371      -0.34594906       0.23797289       0.43212606       1.32948995       2.06292152      -1.26501834
F       22.76275043       6.59409102      31.63949397      -0.40203194       0.08250954       0.06261087      -0.84375805      -0.01453172       0.95585680
H       22.69131456       0.65363495      28.26641547      -0.20617341      -0.15884887      -0.10972538      -0.22982936      -0.28859395      -0.62573439
H       20.91175102       4.78814409      30.82364688      -0.76844383      -0.17754711       0.25954263       0.92493421      -0.65352631      -1.95775974
H       20.77888251       4.58981286      28.93877289       0.11175225       0.20441184       0.31354378      -1.02678490       0.28543428       0.26580620
H       23.96863461       5.53444008      30.62509980      -0.01832729      -0.16856978      -0.20573410       0.67457390      -1.19018197      -0.60576773
F        8.46043563       4.91256680       3.67018612      -0.01901582       0.27687903       0.46899231       0.16108376      -0.01698770       0.42277986
C        7.67280163       4.25914381       2.75812620      -0.67223983      -0.76797662       0.33600586      -1.74941492      -0.58164716       3.01398969
F        8.11343398       4.59128731       1.60453036       0.29169383      -0.28280505       0.29957500       0.68656433       0.15505061      -2.51903510
C        7.72421518       2.72645230       3.09900331      -0.95876558      -0.62550252       0.34341378       1.07584953       1.88552845      -0.44785947
F        8.96775365       2.17623990       2.81560939      -2.05499733       0.19674595       0.81925059      -1.70800114       0.36127481       0.39703447
F        7.51972351       2.64463669       4.43525162      -0.00153813      -0.12432511      -1.23713389       0.39125896      -0.29969791       0.09599054
O        6.72512270       2.19063651       2.42609229       0.71505328       0.86634607       0.02865986      -1.11550212      -0.84563422      -0.70988506
C        6.66203159       0.77051741       2.45470683       0.02421236       0.11223973      -0.22129310       1.25485456       1.55694711      -9.15330315
C        5.30734202       0.24447365       2.23624148      -0.71824356       0.02948556       0.13093643      -2.07221580       3.44409227      -0.44780824
F        4.89392018       0.60871478       0.96662435      -0.03233020       0.70029051       0.43353356      -0.28800318      -0.38508877       1.09637773
F        4.42327729       0.88790147       3.18154144       0.00486291       0.09369880      -0.54792669       1.18781877      -1.04779351      -1.70450926
C        5.13147875      -1.19948196       2.43253449      -0.20633825       0.10330951       1.09791827       0.70699233      -1.72924352      -0.13423234
F        3.88393805      -1.53002383       2.08351961      -0.46112984      -0.05860745       0.20388553      -0.93959057      -0.20598137       0.03170253
F        5.96996185      -1.86468952       1.58544723       0.72310645      -0.05207981      -0.66507588       0.07095018       0.18514007       0.00429390
H        6.60041069       4.57555550       2.91806036       0.26538510       0.04012573      -0.28932674       1.00672412      -0.23744065      -0.27732518
H        6.87126715       0.43712955       3.31056539      -0.14296540      -0.40286006       0.33117769       2.85062408      -2.72596002       6.90261555
H        7.39931061       0.41631225       1.47182779       0.14686727      -0.04243948      -0.25416127      -2.08153892       0.40815347       3.20094657
H        5.35207407      -1.56434867       3.43136073       0.09234772       0.31848668      -0.35627727      -0.12471440       0.27215627       0.27657515
F       24.22992729      14.14789487      21.13819349       0.23004441       0.37159734       0.30502692       0.29379034       0.28790426      -0.38632029
C       24.81974182      13.55497019      20.04126086       0.25561977       0.11385743       0.37270254      -1.59457934       0.34765673       2.94188833
F       26.02099029      14.05022389      19.90330942      -0.11545148       1.03384306      -0.40340521       2.25974345       0.65000445      -0.15242836
C       24.89844370      12.09816238      20.42902480      -0.14073209       0.04719724       0.91104052      -0.52914095       0.31022120      -2.23024225
F       23.69725222      11.53923806      20.64256845      -0.44689601      -0.40071123      -0.08959229      -0.78866941       0.02376037       0.22095719
F       25.34834536      11.51431507      19.28311128      -0.69581519      -0.60825541      -1.36047549       0.57585150      -1.00022542      -0.79720235
O       25.71280759      11.91317181      21.41562388       0.18660053       0.47049111       0.35808764       1.57346880       0.15197101       2.19292212
C       25.90880618      10.56290938      21.82615963       0.12519950       0.31112436       0.44830258       1.33886755      -0.07412572       0.53251845
C       25.70356610      10.38193118      23.34596148       0.52586465       0.24215124      -0.27762576      -1.02686322       2.23594713      -1.83668458
F       25.77126455       9.08977002      23.55081955       0.46505948      -0.47843989      -0.23342527       0.67173696      -1.46195531       0.85305721
F       24.37879918      10.70246094      23.66220748       1.23666055       0.63785925       0.40037013       0.94341254       0.49916038       0.14296857
C       26.71676616      11.19235913      24.22795449      -0.25200326      -0.19131806      -0.04270028      -0.74539143      -0.82660055      -1.63670719
F       26.64810530      10.67273971      25.43017235      -0.86045342      -0.86206940      -0.23133010       0.00693133      -0.60423726       2.14981318
F       27.93988399      10.89242443      23.70973478      -0.01683975      -0.79053311       0.62343648       0.35996556       0.23102996       0.01154102
H       24.27238609      13.81250197      19.19667642      -0.24461835      -0.18494400      -0.02037500      -1.33967865      -0.11036575      -1.59690762
H       26.96698197      10.23594057      21.59196380      -0.05066372      -0.27817378      -0.02706649      -1.35213196       0.27442807       0.10766993
H       25.17204246       9.95590422      21.34300113       0.17021688      -0.24543689       0.01163636      -0.12776878      -0.57999045      -0.17245796
H       26.61054733      12.26451341      24.29805055      -0.21904365      -0.18296186       0.12821792      -0.27757129       0.28695029      -0.39508095
F        1.41776144       4.00853536      14.47633743       0.21360324      -1.22129036      -0.83441841      -0.15212420      -0.06469729      -0.70587909
C        1.64403459       3.83858105      13.14264255      -0.44021943       0.35129532       0.48278362       1.79936421      -1.14817190       1.55178547
F        2.98093663       3.45496605      13.06246545      -0.36738053      -0.41211191       0.33449991      -1.35977924      -0.28142583      -0.24796009
C        0.73294642       2.71753756      12.63312833      -0.33556427       0.18242316       0.09339788       1.12938750       0.88156688       2.09560061
F       -0.50105065       3.17929028      12.81633728       1.12237405       0.42433990      -0.19257661      -0.91497445      -0.18462113      -0.13204268
F        0.95272733       2.64864009      11.34522201      -0.69019191       0.48949194       0.85996394      -0.15098651      -0.41623342      -2.05653262
O        0.94440318       1.51267493      13.24458535      -0.43369292       0.33368602      -0.09059745      -0.40813902       1.51756465      -0.35641217
C        0.14587868       0.53289160      12.65443974       0.82861274       0.81293613       0.49569346      -0.51780325      -2.51279378       1.25252640
C        1.00129675      -0.65908968      12.43003305       1.34544554      -0.13755884      -1.09133923       1.91900837      -2.31804824       0.35086474
F        0.22973785      -1.70370598      12.00911687       0.19208279      -0.38875153       0.38630490      -0.40924978       0.46448013      -0.22261447
F        1.53157152      -1.14099473      13.63758443      -1.06421004       1.60558384       0.09211033      -0.25591299       0.89227295      -0.82657963
C        2.22003835      -0.64028848      11.41962512       0.16207146      -0.76900302       0.09671119      -1.43412209      -1.02425730       0.09677996
F        1.72540075      -0.24334666      10.21038297      -0.05967293      -0.02295632      -0.27165245       0.31917679       0.50106150       0.23484907
F        3.15303288       0.21949317      11.83018296       0.19705654       0.43773838      -0.32724297       0.33318794       0.25752875      -0.00201672
H        1.51826381       4.75921874      12.59624433      -0.31803965      -0.13597175      -0.33591338      -0.21827647       0.27518439      -0.08656701
H       -0.31092772       0.71219560      11.72808330      -0.13572650       0.11567306      -0.15624294      -0.27494141       1.07382095      -1.40998769
H       -0.66548739       0.15460374      13.29491725      -0.16520830       0.45497390      -0.17207589       0.51252919       0.58182174       0.18399353
H        2.62014853      -1.66767656      11.25121799      -0.17056191      -0.55556409      -0.17599284      -0.08173802       0.77793276       0.59152758
F       16.87469694      17.77070415      23.81746559      -0.16273075       0.00431998      -0.26978356      -0.43154478       0.25178158       0.41761941
C       16.22915151      18.64956880      24.64853716       0.59617289       0.46481666       0.04310681       1.30447817       2.07878566      -2.28751349
F       16.12807874      18.19673821      25.83437591       0.64498097      -0.02436115      -0.04585626      -0.09954447      -2.25361109       3.50821829
C       17.10021474      19.92624601      24.77139357       0.70863002      -0.52836861       0.34380042      -0.19904469       0.06562857      -1.96645045
F       16.50333035      20.81194297      25.56151212       0.39718869       0.03022479       0.38343999      -0.14546189       0.19793843       1.15251982
F       18.29825283      19.58119547      25.30211379       0.02713872       0.36489499       0.81898610       0.18098575       0.11836868       0.57371235
O       17.25831403      20.47595696      23.54570039       0.07256034      -0.33736219       0.40113839       0.21558544      -0.30857417      -1.12409973
C       17.97594392      21.72650902      23.45776044       0.49895628       0.58002261      -0.06539565       0.86304140      -1.21694887       1.10805750
C       18.31144779      22.03073509      22.02475379       0.41002886       0.41185708       0.13259162      -0.46115792      -2.06734085       0.33222827
F       19.01694940      23.12747486      21.93219925       0.32188467      -0.52119375       1.33361920       1.79459524       1.81899381       0.46846145
F       17.16937934      22.32226275      21.40071420      -0.25566949       0.57449264      -0.12492921      -1.42240238      -0.38322735      -0.87798244
C       19.03553978      20.91158231      21.22592771      -0.72078013      -1.31655230       0.12945074      -0.92810577       1.01707852       0.19673881
F       19.25823174      21.48163844      20.03605634       0.16616587       1.07413663       0.37779849       0.65713549       0.05440868      -0.97742337
F       20.20393891      20.56288265      21.77687186       0.17142019       0.19810530       0.04319591       0.43678626       0.29705653       0.67737514
H       15.25009575      18.88164727      24.30879217       0.10573892       0.03898367      -0.00935738      -0.85552078       0.16164622      -0.97397107
H       18.90305978      21.61359547      24.04939423      -0.26871726       0.01249167       0.00022353      -0.26458505       0.36302465      -0.26801836
H       17.32143178      22.48197674      23.82204009       0.15310953       0.05703426      -0.02306963      -0.29123938       0.93169093       0.37249988
H       18.44464077      20.04237684      21.08536288      -0.18468226       0.12310548       0.22712281      -0.64012688      -0.82948470       0.03982046
F        4.06789099      -5.97585399      26.43203566       0.87518580       0.13775538      -0.70722700      -0.29030013       0.38686687      -0.24530683
C        4.52576658      -4.70139882      26.45768195       0.42170048      -0.27634154      -0.16736930       0.98683536       1.35579574       1.91585410
F        5.83477196      -4.75882780      26.09963761       0.27251021       0.09748303      -0.16529458      -0.23049544       0.18806575       0.09935068
C        3.78238727      -3.79334563      25.45087091      -1.39481056       0.01420816      -0.94921518      -0.52699864      -0.48391572       0.89884019
F        3.73392157      -4.36852382      24.25287628       1.50360077      -1.21923441      -1.06586454       0.00004340      -0.80586803      -1.24430060
F        2.52089684      -3.81357202      25.92712624      -0.20799117       1.03772941       1.48837867      -1.28652203       0.18437155       0.10763709
O        4.24206222      -2.55412034      25.37428871       0.17696777      -0.56794635       0.09453035       0.81197655       1.27966142      -0.15316962
C        3.49329182      -1.54169969      24.63701202       0.28787981       0.93948595      -0.53877820       0.42142037      -1.68203211      -1.22460163
C        4.20843769      -1.12062653      23.31143246       0.80138832       0.14855594      -1.42099112      -0.03139301       0.55766338       3.22459531
F        3.43021614      -0.21290357      22.76991268       0.54735299      -0.16117231      -0.46884083      -0.97315633       1.43507195      -0.71685010
F        4.22324346      -2.15559125      22.52566019       0.38854845       0.10623244      -0.76405150       0.36246336      -2.07075429      -1.80230403
C        5.61458362      -0.57640519      23.51414366       0.12809708       0.15484418      -0.51789134       0.49731165      -0.83012617      -1.20307410
F        6.06294895       0.00582062      22.34906985      -0.34625267      -0.11315143       0.76873820      -0.47903475       0.14145203       0.62775397
F        5.59380821       0.32688193      24.48921125       0.65377110       0.83983668       1.24908060       0.19218084       0.42644966       0.19638854
H        4.39663522      -4.25891916      27.55634030       0.13186710       0.15334888      -0.05825681       0.41920379      -0.91271782      -2.18132830
H        3.32679663      -0.72028727      25.27246207       0.09809507      -0.04998222       0.10835380      -0.02194068       0.96059602       0.86449373
H        2.54132785      -1.94150762      24.27673354       0.02329111       0.07043182      -0.07651460       0.08439127      -0.05827095       0.28796524
H        6.29491575      -1.40452662      23.70584127       0.00140240       0.23511384      -0.09981128       0.10831598       0.20261356       0.46731648
F       29.08415910      10.07010204       1.31530084      -0.71671757      -0.69499370       0.17414509       0.64281255      -2.35213065      -1.17408538
C       28.80225555      11.16301814       1.96289672      -0.20327575      -0.54486281       0.49717853      -1.67127073       0.67538053       0.61057115
F       27.71645779      10.95677916       2.73891190       0.99802962      -0.15735101      -0.23132571      -0.79539871      -0.42233726       0.52970517
C       29.91245902      11.46116174       2.89842082      -0.40030100       0.03996863      -0.72603703       0.15522735      -0.36206764       1.05156004
F       31.05845032      11.53750480       2.23969864      -0.38865084       1.54308318      -0.09567018       1.09456432       0.86950338      -0.67964464
F       29.68075020      12.60282454       3.58310958       0.98551993       0.89877846       1.13666330       0.18497229       1.01311874      -0.33688346
O       29.98242777      10.46410912       3.79626354       0.35279896       0.43847146       0.68914649       0.55714905      -1.09050262       0.47909221
C       31.05011660      10.59378405       4.73784061       0.06465553       0.31990870       0.11181999       0.07317537      -1.01418936      -0.13496993
C       30.41777723      10.51461361       6.08948091       0.03136615       0.12568945      -0.64589330       0.52585512      -0.09371230       0.08734939
F       31.47600016      10.44044682       6.93749491       0.56904292      -0.82844972      -0.67513815      -0.02226080       0.09807462       0.73583651
F       29.69726454       9.40175987       6.20901625      -0.26919017      -1.06457452       0.88986707      -0.39735389      -1.26387882       0.04454569
C       29.47571054      11.61934573       6.53630184      -0.10398721       0.71771557       0.14954849       1.08282089      -0.42927468       2.88095593
F       29.06801988      11.21604744       7.83105538      -0.11717244       0.74627455      -0.00052864      -0.45667061       0.00025251      -1.27575040
F       30.21818878      12.71277029       6.82755899       0.34250660       1.02977058       0.55312478      -0.16171910       0.57936090      -1.06053257
H       28.50799803      11.89259526       1.27204425       0.19817973       0.08139937      -0.10389706       0.20597321       1.50121570      -0.81344455
H       31.53166557      11.54553246       4.68543956      -0.06895344      -0.19365637      -0.13289976       0.51386428       0.62553746      -0.31495875
H       31.82144193       9.75803646       4.70456866       0.16006091      -0.20984166       0.14063660      -1.12769079       0.95687354      -0.37893516
H       28.62360631      11.77332339       5.90678735       0.06372714       0.26167573      -0.04039518      -0.46357673       0.42071667      -0.28316098
F       10.25280112      16.73334595      19.50717065       0.01459131       0.46951360       0.68707479       0.90260476       0.30185843      -0.08094000
C       11.03386350      17.12819406      20.55490563       0.18757377      -0.41270433       0.23809035       1.13457227       1.42009163      -1.74770176
F       10.20847667      17.30985678      21.54759904       0.06700621      -0.15678759       0.79157210      -1.10570788      -0.34707475       2.19058371
C       12.11724942      16.10050144      20.80706904       0.86898877       0.43910103      -0.55332102      -1.47706330       0.24894597       0.51989341
F       11.52354307      14.89222207      20.78063381      -0.83145428      -0.28954067      -0.52982740       0.21424472      -0.90500528       0.10469398
F       13.03329877      16.10611051      19.83847894       0.30803443      -0.26118174      -0.12476905       0.32368448       0.12246985      -0.44956145
O       12.64392483      16.40187940      22.01430736      -0.57262090       0.53081543       0.85322279       0.74770910      -0.54551792       0.18643679
C       13.75417416      15.51589011      22.31114099       0.53200958       0.09595943      -0.22423672      -0.70428711       0.92146844      -0.71163619
C       13.67414721      15.11554320      23.73108271      -0.16751450       0.92275663       0.09140497       0.19295152       0.21871784       0.55180830
F       13.77149374      16.21121825      24.50058257      -0.63141156      -0.72958019      -0.27372097       0.28876805       0.46980324       0.65222752
F       14.80607577      14.36963488      23.92688892       0.35249551       0.86930166      -0.09330377      -0.27219474      -0.13421302       0.32033744
C       12.45434899      14.30412363      24.20212104      -0.21558426      -0.11218068      -0.39452771       1.56689310       1.28770554       1.08177423
F       11.38543562      15.09341219      24.43259825      -1.03757951      -0.06809991       0.00001685      -0.22121881       0.26625291      -0.01281365
F       12.20867983      13.50905003      23.20880087       0.20322455       0.58630992      -0.33470412      -1.01369560      -2.12590861      -1.65511346
H       11.58164043      18.08960138      20.46395673      -0.19226045       0.02617976       0.26873461      -0.52368569      -0.23354243      -1.07948220
H       14.71191036      16.03236887      22.16122725       0.10818527      -0.10659889      -0.27022860      -0.28759819      -0.21180485      -0.19671328
H       13.58744226      14.66179773      21.68304012       0.12563454       0.08026382      -0.01197272       0.73465592      -0.66843355      -0.18390869
H       12.72515727      13.76843606      25.10577349      -0.07840743       0.08710626       0.14120065      -0.23008433      -0.18474469       0.21633673
