3388
Lattice="33.56042151615458 4.042220898202215 -5.009260744835374 0.0 31.45024377135486 -7.749047577555358 0.0 0.0 31.869856698848153" Properties=species:S:1:pos:R:3:momenta:R:3:forces:R:3 charge=0 spin=1 energy=-3534598.01171875 free_energy=-3534598.01171875 stress="0.002794977044686675 -0.0006206638645380735 -0.0006011823425069451 -0.0006206638645380735 0.005958946421742439 -0.0019152595195919275 -0.0006011823425069451 -0.0019152595195919275 0.014572061598300934" pbc="T T T"
Na       9.06397091      -2.69288850      18.37135040      -0.55186871      -0.13416180      -0.79934759      -0.26272815      -0.17686690       0.23586202
Na      16.96625352      36.12819425      19.77501592      -1.13226257       0.23566252       0.22194833       0.11811626       0.13338973       0.17605972
Na      -2.43702770      15.54906080       6.01588418       0.18216290       0.18331347       0.57028185       0.02354214       0.17361639       0.32766914
Na      11.43479778      30.44552241       5.31663150      -0.27803156      -0.35720270       0.34016640      -0.11789276       0.52956468       0.23845518
Na      30.78788843      19.92338376      -3.74536444      -0.51777648       0.10053703      -0.32913916      -0.10868297      -0.17592733       0.07369488
Na       9.66462610      27.83260293       3.71523187       0.82598150       0.27358505       0.28007953      -0.22124848      -0.19168280      -0.23285323
Na      12.51853818      38.21882720      -4.62245470      -0.50161576       0.35053615       0.26916688      -0.02648062       0.03449127      -0.04328776
Na      27.82686250       8.76932490       5.01161749       1.54536786      -1.34864222      -0.27253753      -0.12865296      -0.39198664      -0.05692280
Na      30.45581962      17.62645088      -1.59838548       0.64575811      -0.23137660      -0.79670744      -0.05690569       0.19381285       0.09996155
Na      28.63046440      30.41872386      17.78192488       0.07987855      -0.15270156      -0.29986034       0.07376128       0.08862863      -0.16585425
Na      35.75210746      20.66142507      13.58604333       0.11463087      -1.42524231       0.01875748      -0.02941702      -0.12215979      -0.40400612
Na      19.13047296      10.71649102      18.42361661       0.72274123      -0.17561064      -0.54070775       0.02373977       0.43539590      -0.10590550
Na      12.73183319      29.34666228       8.97922863       0.33735425       0.53284243      -0.04867734      -0.28046727      -0.09940577      -0.09102373
Na       1.01162105      17.08442054      28.13919201       0.28829150       0.07968909      -0.06407549       0.16911413      -0.46186501      -0.17493010
Na      16.33663196      34.82317897      23.55739933      -1.28599220      -1.07932007       0.65643009       0.07290925      -0.32024363      -0.25899157
Na      36.49384197       5.03663794      18.43333016      -0.24575126       0.30729072       0.61082393      -0.58682466       0.08411616      -0.21105134
Na       1.18249541       4.53229966      22.96308679       0.40894491       0.61919019      -0.23414083       0.44331470       0.41751263       0.35531110
Na      14.96661002      31.88887660      21.28749507       0.22699204       0.02680836      -0.29022323       0.08811370       0.69553924       0.09729221
Na      12.29541788      14.39964603       8.69749152      -0.04652149      -0.03374271      -0.02203902       0.14657223      -0.08018382       0.01425340
Na      16.99843899       6.09159820      11.00667624      -0.20118413       0.00458396      -0.14813528      -0.01957137      -0.62179136      -0.30775416
O        9.62165768      25.63649187       2.55347235      -0.14254164       0.25855290      -0.18156551       0.71715486       1.05810547      -0.22453520
S        8.89523731      24.42227672       2.43614059      -0.35270651       0.39159064       0.89185981      -1.10670567      -1.99133408       0.74476218
O        7.54055982      24.42941362       2.93205553       0.12288184       0.66017798       0.03010891       0.43019915       0.07784803       0.02893816
N        9.66827780      23.07218339       2.81852898      -0.98009515       0.81151744      -0.16573734      -0.10464714       0.71850133       0.60112095
S       10.93992604      23.09281487       3.74440896       0.14430522       0.26705425       1.14905371       1.14237130      -0.27858818       1.27123642
O       11.15088284      21.80581276       4.38511033      -0.70589702      -0.10139909       0.37675045      -0.52236104       0.50472391      -0.86345375
O       11.13996620      24.24879778       4.57786991      -0.25699163       0.34807828       0.78765868      -0.60530913      -0.03486022      -0.15413241
C       12.33974435      23.22693791       2.56102921       0.12240172      -0.26469564      -0.21278912       0.23286165       0.65694124       0.44413510
F       12.38245266      22.15367609       1.79037028       0.08859878      -0.03427036      -0.07237733       0.20988178      -0.27260903      -0.59540486
F       13.47597723      23.31715578       3.24457316       0.57649422      -0.43245257       0.44270386       0.24943680      -0.31143472       0.24414520
F       12.26929214      24.33459453       1.82071354       0.03081336      -0.37956004       0.36707274      -0.41664293      -0.21061137      -0.26836550
C        8.66168072      23.92614278       0.70726616      -0.79092769      -1.01214420      -0.21428193       0.88249278       0.66569996      -0.15487128
F        9.82528242      23.66798745       0.12185345      -0.09807676      -0.35013053       0.66303321       0.73056179      -0.25354815      -0.25382772
F        8.11976640      24.91935290       0.04312296      -0.13750683       0.77776213      -0.32919550      -0.96092170       0.53687251      -0.51082444
F        7.92453601      22.84962794       0.65801930       0.33096149       0.30792504       0.27177598      -0.64831907      -0.42241335      -0.25132069
O       28.55713067      17.11734723      14.41122670       0.32618870      -0.02574428       0.23558806      -1.01998675      -1.10196757      -0.54077452
S       27.57819585      15.99635025      14.02425627       0.28002744      -1.29769339      -1.22777040       0.96471500       1.29814446       1.91862965
O       28.28320643      14.87918988      13.38807115       0.69551924       0.73904454       0.96622423       0.33381504      -0.78567064      -0.54837620
N       19.82825766      11.84843024      16.43849491      -0.41881338       0.05329421      -0.33411837      -1.25944185       0.99703431       0.13968772
S       21.05315876      11.09635947      16.41359574      -1.05337828      -0.25082818      -0.27444599       1.79418099      -1.83603156      -1.22690701
O       21.61865321      10.58857575      15.11366204       0.70235431       0.09186173       0.17551843      -0.28912559       0.55371410       0.69588017
O       21.21901189      10.00084835      17.42464894       0.22342356       0.95061624      -0.14755379      -0.10734029       0.14365110       0.24976814
C       22.56854489      12.08477225      16.93167848      -0.12004780       0.49380311      -0.44281553       0.77902013      -0.26627216       1.11039150
F       22.95832833      13.03265772      16.02573676      -0.40939434      -0.26005028       0.44256028      -0.13782141      -0.64517915       0.87020063
F       23.69768694      11.27666055      17.20430305      -0.70427261       0.34424646      -0.61819734      -1.71797204       1.58414793      -0.49098507
F       22.31901357      12.73660166      18.13461255      -1.17955631      -0.24380144      -0.70119013       0.44829381      -0.24472016      -1.16075718
C       27.29144905      15.27790413      15.86420350       1.10840381       0.20694849      -0.07508407      -0.26190108       0.70696807      -2.44077277
F       26.83427203      16.32497398      16.56775254      -0.29137014       0.24375081       0.46749888      -0.22942491      -0.34198022       0.68711281
F       28.38930263      14.78252599      16.41097504      -1.35376354       0.26640893      -0.50557304       0.51866382       0.10003272       0.40583739
F       26.36425017      14.31534681      15.86289707      -0.13891209       0.31908657      -0.55012139      -0.27684367       0.02316750       0.19180094
O       31.90609371      15.77586942       2.66944446      -0.40504103       0.10299669       1.50764297      -1.02844918      -1.46265924       1.79223931
S       32.23243667      16.27793216       1.40389850      -0.60308000       0.46690091       0.35413688       1.22125435       2.20306182      -2.00707555
O       31.33119982      17.22945677       0.77522047       0.95877531       0.62349017      -0.30848123       0.44185957      -0.40061137       0.26662725
N       32.90807391      15.29262152       0.40307589       0.79895057       0.45676279       0.11339202      -0.37356898      -0.63956767      -0.22741458
S       32.44087671      14.69487354      -0.97868916      -0.01122902      -1.71021884       0.19165983      -3.89753962       3.86325765       0.10242262
O       33.54798356      14.25516917      -1.67791368       0.97452595      -0.13111668       0.00685506       3.08419204      -1.92034245      -1.57873333
O       31.52037826      15.55514826      -1.80513331       0.56409128       0.54201570       0.15315189       1.38949192      -2.01918030       2.37825322
C       31.45873144      13.23548267      -0.43532879      -1.36349651       0.17248664      -0.20468145      -1.64635980       1.35446250       1.49844766
F       30.38427798      13.75715979       0.33399932       0.26569235       1.07594740      -0.12115538       1.89523125      -0.97651768      -0.73651373
F       32.20781497      12.42531640       0.32591893       0.23706429      -0.17771865      -0.60478501      -0.91845810       0.40728846      -0.88414049
F       30.88904451      12.64570800      -1.45750535       0.02176291      -0.81000185       0.71665057       0.43864080      -0.71047783      -0.09286862
C       33.77644200      17.21852526       1.85631896       0.48993570       0.73205548      -0.01430322       0.81808537      -0.53880858      -0.17018342
F       34.71513410      16.35624057       2.35690956       0.04975380      -0.38134492      -0.51662897      -0.81153268       0.63130003      -0.35590297
F       33.48208907      18.08562113       2.84692233      -0.52117465      -0.54114535      -0.33900335       0.21483254      -0.13606913      -0.99249291
F       34.34728601      17.81413921       0.77984498       0.13284713      -1.16104025       0.80230968      -0.76512700       0.04637245       1.15926492
O        7.52960615      28.00786522       4.66647368      -0.06139181       0.25648446       0.31101656      -1.49817145       1.72853422       0.67080563
S        6.61131084      29.06700420       5.16905255       0.83406687       0.47395808      -0.91767110       0.92489165      -1.60128832      -0.07174593
O        5.25772819      28.68673022       5.53189832      -0.38444149       0.42927827      -0.05883520       1.13123262       0.37583083      -0.63828278
N        6.61386002      30.38034409       4.30709711       1.33245649       0.21420373      -0.07534504      -0.91235340      -0.59559894       0.53193831
S        7.81587756      31.04123245       3.57980721       0.42573685      -0.62236438      -0.94971019       1.82649565      -1.59201419       0.27959570
O        7.57858535      31.17269305       2.17801271      -0.71183728       0.87060706       0.67595939       0.03967659       0.30790901       0.01274925
O        9.12171620      30.51402516       4.00613370      -0.31085650       0.36053605      -0.49104086      -0.94761038       0.45498347      -0.47116357
C        7.73001045      32.70249104       4.27015839      -0.11579211       0.56974104      -0.45260354      -1.07675099       1.35155106       0.95211136
F        8.69376924      33.44338291       3.71407481       0.50588394       0.56027234       0.86225147      -0.45116228      -0.34291092       0.77633917
F        7.80801858      32.69951764       5.66153423       0.79429350      -0.59350218       0.23622301       0.00812361       0.20963059      -2.61097860
F        6.51373794      33.23170624       3.90350150      -1.69356699      -0.03066997      -0.00775550       1.45176220      -0.46692991       0.79943359
C        7.32365140      29.58705223       6.81489003       1.00982964      -0.13840925       0.65564873      -1.32470906      -1.57216680       0.14249694
F        8.36322532      30.34158222       6.70987462      -0.10541238      -0.24004457      -0.16983060       1.27320683       0.44318908      -0.02018790
F        7.58421422      28.48248340       7.55827617      -1.06758688      -0.14321609      -0.40242364       0.36358216       0.56935787      -0.60385990
F        6.36500497      30.23469313       7.44583787      -1.10862069      -0.72787258       0.05545600      -0.51712209       0.71207035       0.42066744
O       18.63521352      30.89005728      17.38002424       0.50447978      -0.90319485      -0.59920601       0.01843655       0.00991098       0.17490295
S       19.61717342      30.91499875      16.32972407      -1.29507618       1.91190902      -1.29364122      -2.14053988       0.12900221      -1.80160511
O       19.09973054      30.67797717      14.97554699       0.35524828      -0.47296411       1.71815625       1.19034719       0.52765882       1.58972800
N       20.83079022      30.10194064      16.78894136      -0.31812610       0.16336175      -0.15491038       1.47899926      -0.83933687      -0.23818809
S       22.22538188      29.70927560      16.11591075       0.69539502      -0.30108157       1.23949985      -0.28206491       0.89641929       0.99987900
O       22.59050184      30.42551287      14.91955833       0.33749832       0.46617757      -1.40813871      -0.42325103      -0.51182103       0.11371648
O       22.46105163      28.29701843      16.24421059      -0.24845315      -0.08470047      -0.05491147      -0.19747034       0.19684118      -0.43501598
C       23.39597981      30.41413548      17.37793511      -0.02226187       0.83033730       1.65083512      -0.20284609      -0.17629275       2.02720499
F       23.24722963      31.73882403      17.64492213       0.53918181       0.27159799       0.84464900       0.21546008      -1.56809962      -0.74586743
F       24.60733268      30.15115265      16.89150046      -1.15824232      -0.32722771       0.35010524      -0.32994828       0.48226860       0.58841515
F       23.25530456      29.76862052      18.63416332       0.22655123       0.53832343       0.13254294       0.21511397       0.95274496      -2.33406568
C       20.16052925      32.66843324      16.39221326      -0.48123188       0.52467595      -0.32723421       0.23727925       2.17610216       2.35131788
F       20.70329783      32.90764539      17.64957366       0.94931047       0.84150123       0.32262518      -0.43538535      -0.67389131      -1.16443491
F       19.16735268      33.59628099      16.31341217       0.02254088       0.71636075       1.39853367       0.05581186      -1.17814469      -0.45521757
F       21.07486691      33.00596721      15.52037475      -0.35234557       0.36930259       0.65608409       0.45601487      -0.30689475      -0.79608542
O       30.17964864      21.53182518       0.16070826       0.01091850      -0.73410005      -0.12724506      -0.06948325       0.21768095       0.42906567
S       30.70516436      21.23922755      -1.17603984      -0.90684542      -0.48378937      -1.81426225       2.74237704      -2.27485800       0.76180536
O       29.79483639      21.65770958      -2.20886871       0.80625086      -0.85603167       0.57688584      -1.74297774       0.26063380      -1.85452068
N       31.47243531      19.92777575      -1.34167274      -0.66410900       0.51859491       0.42173964      -1.48338199       2.18391609       0.20007966
S       27.70661422      19.45451275      -3.06290234      -0.44526905      -0.15463327      -2.11190058       1.12928128       0.50906932       0.41017032
O       28.88425694      18.52970326      -3.00703454      -0.21919173       0.37128028      -0.42726172       0.25074425       0.01325294      -0.11403902
O       26.59237742      18.85061224      -3.79797615      -0.34572212      -0.22078657       0.94365825      -0.76334119      -0.50370532       0.09188498
C       27.20982563      19.33675483      -1.20614679       0.35854494       0.22775330      -0.65741233      -0.31819823      -1.37494373      -0.58014411
F       26.45794839      18.16914219      -1.02012776      -0.07118889      -0.23050610      -0.03016851       0.80866581       1.31116331       0.13318349
F       26.44310368      20.38400629      -0.90709213      -0.08960737       0.41750082      -0.04585057      -0.17627978       0.04627039       0.29776368
F       28.24801332      19.30222505      -0.35372047       0.53537300       0.39313740       0.17820487      -0.63525009      -0.06799651      -0.36926085
C       31.84164211      22.70347418      -1.39775839       0.32275527       0.66261736      -0.39302010       0.60328615      -0.11965717      -0.38891137
F       32.98921466      22.57666632      -0.69780385      -0.22326099      -0.04199036      -0.95223173      -0.23759572       0.23806074      -0.15225759
F       31.29923926      23.90420384      -1.07282139       0.79179382      -0.52009260      -0.67443930       0.16983905      -0.63740504      -0.23273066
F       32.20600778      22.79339942      -2.73287205       0.35303281       0.97925125      -0.45248986      -0.35523194       0.05107250       0.96275586
O       18.12896098      13.19619651       4.93540891      -0.72103732      -0.68043596       0.55866695      -0.07471391       0.34159389       0.30123818
S       18.45576224      14.45865924       4.32104358       0.67267134       0.99683590       1.17896340       0.69467127      -1.21490693      -0.35543647
O       17.15903994      15.29487554       4.10197048      -0.22672113       0.47201678      -0.64859743      -0.54197907       0.59084904       0.23845078
N       18.17269830      14.97889462       2.89615604      -0.00140408       0.12358966       0.86170256       0.22024192       0.10013089       0.10280709
S       20.86614341      14.32857359       2.56738332       0.29013136      -0.69499741      -0.33470026       0.54405475       0.13759679       0.96727461
O       20.94579056      13.23290616       1.60336961      -0.55619053      -0.13582633      -0.09359743       0.20642090      -0.22464755      -0.08306338
O       20.21037232      13.82791741       3.89672802      -0.85317450       0.13578500       0.55321880      -0.02109868       0.13564792      -0.53225529
C       22.57666276      14.37405018       3.44731985      -0.49935685      -0.29201474      -0.40267932      -1.56843746       0.36544746       1.16757202
F       23.52991244      14.72201553       2.62398147      -0.18431644       0.30029054      -0.09310316       0.83883828       0.15829375      -0.67051452
F       22.86322985      13.18464586       3.99298049       0.37035134       0.14379060       0.12890281       0.09161209       0.80957943      -0.18941653
F       22.50395098      15.32942800       4.44021281      -0.21552377       0.84461230      -0.76610330       0.17356811      -1.14338541      -0.87035489
C       19.34943091      15.53756327       5.57391568       0.12072228       0.20947687      -0.03993294      -1.13408911       0.11857115      -0.71059376
F       19.88856008      16.59737452       4.95428183      -0.43087937       0.07562740      -0.25407934      -0.02629431      -0.48544919       0.43347695
F       20.23670460      14.84680689       6.22481140       0.39701219      -0.05337415       0.04941905       0.78288412      -0.03814011       0.26635706
F       18.43211568      15.95140652       6.45088519       0.06151857       0.11956802       0.70189584      -0.02742438       0.39432210       0.02958346
O       28.20493460       9.55613736      24.04434325       0.61468274       0.47307837       0.50048218      -1.05060863      -0.72604978       0.53865701
S       28.68523404      10.80938568      23.57862436       0.10362184      -0.01538320      -0.76277091      -0.50390792      -0.90356874      -0.17624867
O       28.00012299      11.46149069      22.50495421      -0.04248896       0.28120658       0.00434901      -0.01229222       0.38927919      -0.00281662
N       30.20679950      10.59024877      23.41316647       0.82607700      -0.01772934       0.77480046       2.21639299       1.80899334      -1.22515547
S       31.10471308      11.63223617      22.52586997       0.87998433       0.27874319       1.14122428       0.81761229      -2.70540929       0.15934259
O       30.63663472      12.95161707      22.30171350       0.07423144       0.46161816      -0.56751787      -0.54358548       1.26271093       0.61289531
O       31.60535128      10.96803534      21.34495323      -0.15394706       0.03745665      -0.31049538       0.18372092      -0.16121265       0.22801967
C       32.61050548      11.69175729      23.69355508      -0.16916618       0.32869438      -0.07678361      -0.36583802      -0.71179789      -3.48780060
F       32.20134554      11.96383987      24.86079058      -0.05362798       0.31735947      -0.53074133      -0.24074312       0.82684940       2.57816863
F       33.44970114      12.63550968      23.20056715      -0.13868680       0.33760185       0.07198429      -0.23162121      -0.58234727       0.73073292
F       33.23548937      10.49335699      23.69230981      -0.46247740       0.22892611       0.44282306      -0.08343081       0.79499435       0.08298837
C       28.55992529      11.90611413      25.01365160      -0.74435835       0.68372521      -0.51276708      -1.33221316       1.35251057       2.03184104
F       29.20929716      11.47001017      26.12672428      -0.06945669      -0.32026542      -0.92472337       0.03416926       0.26065525      -1.38133597
F       27.27272395      12.07112330      25.43674154       0.47935204       0.35598074       0.21232302       0.84123325      -0.31177181      -0.88789237
F       29.01877598      13.12796058      24.67237514       0.09945894      -1.18398428       0.76695652       0.11975518      -0.55136532       0.36186576
O       13.34446012       4.18377367       9.92552265      -0.87185305       0.27058476      -0.62973763      -0.32387206      -0.11836056       0.32780123
S       14.56053161       3.98712799       9.19305883       0.14917272       0.98229548      -0.05359798       0.02516400       1.01722312      -0.35795322
O       15.79057098       3.90101846       9.93358220       0.26699110      -0.32352023      -0.17794361      -0.05133745      -0.24218866       0.11669925
N       14.64307399       4.89706900       7.90717684       0.39638849       0.04398670      -0.48552416      -0.16775706      -0.43021786       0.40351588
S       15.24931859       6.33310278       7.82591242       0.62057518      -0.16505295       0.44475169       2.07704234       0.25704238      -0.10805056
O       16.00164037       6.47360466       6.57941904      -0.03565059       0.25907849      -0.24159725      -1.55124879       0.31718248       1.47021556
O       15.92332469       6.80707192       9.03900650       0.25783391      -0.23601086       0.64878311      -1.00120735      -0.50032818      -0.81216043
C       13.72570059       7.42281918       7.74504364      -0.79618291       0.97152091       0.11098619       1.50078714      -0.18029113      -1.19501996
F       14.12200551       8.67380194       8.01269857       0.18514580       0.63698423       0.34653362      -0.36247671       0.00305127       0.24157922
F       12.80243564       7.01741731       8.57974298       0.14896928      -0.20826116       0.70318979      -0.25929904       0.12957583       0.07923546
F       13.28969884       7.40417836       6.47545140      -0.23233365      -0.90984131      -0.44049580      -0.43231237      -0.00673362       0.42327410
C       14.30565168       2.37173739       8.37213436      -0.42464470       0.05173762       0.03178807      -0.20753641      -1.46151805       1.20970619
F       13.43819659       2.46005604       7.38851330      -0.78332221       0.13857708      -0.43078616      -0.21795660      -0.15509026      -0.03738087
F       13.80600017       1.45898679       9.32056497       0.51209819       1.12578071       0.21844561       0.71954894       1.48947561      -1.46043301
F       15.45565257       1.88576903       7.92706092       0.09066795       0.27578026      -0.27008913      -0.12752971      -0.05377873      -0.07655776
O        2.22031602       0.29885276      -1.38439898       0.98345248       0.52656620      -0.24262966       2.46609330      -2.32994962      -1.64434814
S        1.15637820       1.09471919      -0.96549133      -0.34276645       2.39775618       0.95596451      -3.40516472       2.18822670       0.62471771
O        0.19576506       1.63820738      -1.96398806      -0.44371628      -0.19527661       0.40064699       1.25152600      -1.86060739       1.74182343
N        1.58139386       2.27780066      -0.08449111      -1.39973391      -1.37148247      -0.91532779       2.69364738       1.72719097       2.14316154
S        3.12978056       2.57025378       0.50365631      -0.66584241       1.40236862      -1.89534490      -2.47019053      -2.59782982      -0.26536310
O        3.68861471       3.62597915      -0.28656125      -0.51126095       0.11444401      -0.22441911       0.70068938      -0.18229738       0.56140548
O        3.92105980       1.38263996       0.88748701      -0.44630100      -1.19966892       0.77154658      -1.12119269       2.00391293      -0.60450631
C        2.67067006       3.31335502       2.14985162       0.42802099      -0.62594536      -0.06014877      -0.20822194       1.49162161       0.43571422
F        1.96750481       4.48497045       1.93050041      -0.70947766       1.61857444       0.37422147      -0.08652473      -2.15992498       0.31499606
F        3.77672164       3.74244857       2.73244439       0.69770526      -0.44710972      -0.27199728       1.12472987      -0.12905170       0.03879554
F        2.12736963       2.46148224       3.04896303      -0.07014330      -1.52927025       0.81808871      -0.45912600       0.81489354      -1.50949156
C        0.18962708      -0.00498991       0.28116070       1.28741978      -0.06083268      -1.15141034      -0.92718971       1.81357968      -2.61059594
F       -0.50541948      -0.81264198      -0.52584807      -0.20560855      -0.27571924      -0.33573237      -0.13837123      -0.45905313       0.68632841
F       -0.67197778       0.80236452       0.93065978      -0.65719779       0.23377022       0.57800104       0.42258579      -0.72175181       0.14827843
F        0.91531455      -0.69727367       1.11432354       0.12404402       0.08946414       0.24683677       0.28726664      -0.06476323       0.35689527
O       -1.39310410      19.33188032      19.07531234      -0.21591192      -0.70234345       0.21854981      -0.51441443       0.37484968       0.38685384
S       -0.04504581      19.12028490      18.66574851      -1.01167275       1.70856882       0.16931572      -1.34872127       1.62483096       0.59953189
O        0.22994483      17.79011757      18.28512480      -0.13134324      -0.89423505       0.18904644       1.24368072      -2.11340737      -0.68132019
N        1.01662329      19.90431390      19.52311014      -0.49668508       0.17182098      -0.74123934       1.09648466      -1.34779966       1.97987425
S        1.90075948      19.15936163      20.71007119       1.00924509       0.55058900       0.33471490      -0.58732200       1.11563003      -1.89434910
O        3.12996086      19.91823611      20.76710356      -1.09058339      -0.41617176      -0.18395108      -0.57441354      -0.85420120       0.61357933
O        1.92678393      17.70113442      20.57978129       0.03374855       0.01320217      -1.19236705       0.13773413       1.12031317       0.68688762
C        0.96716121      19.47300570      22.37074105       0.24258877      -0.05163849      -0.80335313       2.60924602       3.02988625      -0.81021678
F        0.72944994      20.84624535      22.46244356       0.72114550      -1.41546315       0.05864089      -0.18838230      -2.45084620      -0.25637060
F        1.80590635      19.20686622      23.41515472       0.91717022       0.49749870      -0.57949859      -1.37494445      -0.49459839      -1.11658466
F       -0.11334819      18.77465307      22.33081639       0.32010984      -0.02082579       0.28630476      -0.68387830      -0.17431420       0.84497571
C        0.09913903      20.12382090      17.15295583      -1.11712167       0.49180714      -0.60789899      -1.48835385      -0.03872595      -2.16296625
F       -0.85256592      19.61639132      16.18453467       0.63868832      -0.47905161      -0.00897257       2.08219075       0.87032717       1.98465753
F        1.31429261      20.05055180      16.60256958      -1.35628511      -0.59534575      -0.01977419      -0.80893397       0.25834766       0.18307355
F       -0.25522175      21.39264226      17.37962202       1.02062501      -0.04424682      -0.81758856       0.51395839      -0.71510708      -0.26988810
O       22.19782159       6.45133495       6.61804802       1.02642765      -0.77506299      -0.47634035       1.02619791      -0.64294708       0.35695136
S       23.34657032       5.71420264       7.11089940      -2.36382482      -0.74142642      -0.42110351       0.05112320       1.99028158       1.13205087
O       23.29866836       4.31070180       7.27243707       0.38020793       1.00096399      -0.58766823      -0.53714937      -1.67541003      -0.69149196
N       24.09973289       6.30576220       8.40611231      -0.65483939      -0.00098147       0.34757018      -0.47674876       0.08463907       0.39522970
S       23.34264482       7.01384128       9.62292156       0.41654056      -0.44678271       0.48752308       2.44516039       0.50457323      -1.09593892
O       23.89392057       6.71262259      10.92105452       0.76789420       0.28115607      -0.20788102       0.38586023      -0.16462503      -0.73725808
O       21.94936904       7.03028522       9.50341867       0.12735200       0.64243829      -0.10880245      -2.65060544      -0.00691382      -0.25847080
C       23.85912191       8.76495931       9.26766429       0.35077769      -0.35591346      -0.26918545      -0.66054535      -0.24125117       0.31064016
F       25.17740189       8.89198562       9.27425024       0.73225009      -0.08202211      -1.22454950       0.31874415       0.11073826       0.15958083
F       23.32977441       9.51543053      10.23822643       0.36044777      -0.42834972      -0.06303489      -0.03117014       0.23156004      -0.47304597
F       23.41641207       9.20996859       8.06719864      -0.39614865       1.43804764      -0.06514128       0.03029235      -0.32122102       0.66438299
C       24.69832549       5.95756089       5.89888362       0.08404119       0.48777379      -0.11511148       0.12499178       0.98805422      -1.56191468
F       25.25151735       7.16491328       5.99425351       0.59654759      -1.01358167       0.23380092       0.09924999       0.62778163       0.58926857
F       24.19986882       5.90955011       4.64962274      -0.51974643       0.80412714      -0.11729756      -0.36773053      -0.41791412       0.23380262
F       25.65232959       5.07086410       5.99133906      -0.38450262      -0.66949162      -0.04035980       0.28134602      -0.79559726       0.47726080
O       22.60258227      22.39961067      21.37983644      -0.14088583       1.57714857      -0.23010057       0.86725056       1.63494110       0.17462924
S       22.28628304      21.02181251      21.41348942       0.52775987      -0.17435107       0.69304813       1.01825392      -0.90191960       0.64827788
O       23.35130657      20.04423637      21.25010159       0.42172146      -0.46711326       0.19523281      -0.98042458       0.63182259      -0.39673674
N       20.99193049      20.87249571      20.59341035      -0.53202395      -0.29487871       0.40712025      -1.11280012      -1.26419616      -0.30413502
S       20.36485390      19.54247386      19.93942078      -1.33548369       0.03711964       0.02560800       2.11016798       1.23034573      -1.18291974
O       18.96268985      19.59024097      20.02490675       0.03205778       0.36488743      -0.88503701      -2.30813169       0.36566988       0.22408819
O       20.97368796      18.28395551      20.21275085       0.39814543       0.18793471       0.11788399       0.80781639      -0.33117965       0.19358650
C       20.72165320      19.96033898      18.11713448      -0.81988053      -0.39754745       0.37022371       0.06708722      -3.40137815       2.13578582
F       20.00364885      20.92845298      17.72145639       0.23927366       0.03236376      -0.44567257      -1.24536765       2.01124525      -1.00470626
F       20.39123144      18.82007337      17.47838863       0.19135095      -0.17416267       1.16679454      -0.41693792       0.11013274      -0.37391073
F       21.99068138      20.15724000      17.90337078      -0.12662279       0.37300619      -0.18442584       1.36084032       0.68727237      -0.05807677
C       21.84774643      20.65218768      23.16630546       1.12906112       0.39595952       0.22280391       0.18020335      -1.38919067       0.41397232
F       20.84291140      21.33111552      23.72762867       0.33275923      -1.04151775       0.51653149       0.81302345      -0.12547156      -0.45727000
F       22.96054612      20.67948378      23.96128435      -0.31896057      -1.15232024      -0.15848275      -0.98649752       0.60826105      -0.51977056
F       21.49732538      19.34484550      23.12513163       0.72600785      -0.66976912       0.62894770      -0.44943482       0.16036576       0.25259551
O        6.07126867      16.89165160      26.68002589      -0.34456464      -0.90263321       0.30124283       0.95633531       0.59272754       0.04766373
S        7.49066299      16.64887612      26.84023897      -0.00530019       1.36569833       0.48597691      -0.14754853      -1.68375695      -0.36060467
O        7.89866531      15.28683366      26.54628139      -0.12972682      -0.56487340      -1.29213727       0.15075567       0.55774057       0.32987121
N        7.99848433      17.28801440      28.17039874       0.70219439       0.14398595      -1.01005802       0.54960793      -0.14349382       0.69367576
S        9.28316366      16.87703421      29.04427536       2.02035959       0.60361195      -0.10503460      -1.54524183      -0.29791778      -1.13644707
O        9.45262568      17.84394987      30.06020296      -0.54330535       0.64678331       0.37263977      -0.06106072       1.31473076       0.97792542
O       10.43253521      16.49268140      28.30803556       0.52023195       0.32896460       0.23268217       0.75050282      -0.49891308      -0.82014543
C        8.83488211      15.38793777      30.01854184      -0.90496542       0.74077685       0.39532681      -3.32727432      -0.33937472      -1.60395527
F        8.51283652      14.33534207      29.17762191      -0.31306859       0.75173422       0.29493809       0.43244320       1.24854910       1.25806022
F        7.73022928      15.64682411      30.80928508       0.21064161       0.14721636      -0.72471474       1.21052706      -0.25026375      -0.91492796
F        9.81520640      15.07954325      30.76951640      -0.12995652       0.20438088       0.01043019       1.56878030      -0.71457911       1.26557934
C        8.34397026      17.57056858      25.46733408       0.09637351       0.53950835       0.66098595      -0.46706647       1.10059094      -0.27349222
F        9.67578611      17.41554276      25.33666589       1.00888315      -0.23248557      -0.27923960      -1.42407477       0.29493836       0.66212642
F        8.01923907      18.89703854      25.61917423       1.06933298       0.36580577       0.27258700       0.77838856      -0.90519887      -0.25307992
F        7.76820227      17.15770312      24.32722638      -0.39970404      -0.85212453       0.44653027       0.29681832       0.12214104       0.07960702
O        8.56127592      10.35910537      17.91482685       0.27610026       0.11387335       0.52337543      -0.39469945       0.15327302      -1.06899679
S        9.15524854      10.87818840      16.69936989      -0.25089319      -0.20424908       0.41240128      -0.18565112       1.12360752       1.53033733
O        9.04488188      12.30141108      16.42898186       0.64040885       0.64942308      -0.68748762      -0.13153613      -0.52882797       0.23020369
N        8.96520086      10.14191469      15.36082659       0.06082479       0.34481989       0.19948405      -0.71523726      -0.98762536      -0.58238697
S        8.50390192       8.61189080      15.19739129      -0.35559043       0.01790488       0.22372937      -0.08431867       0.39020902       0.05846587
O        7.17222293       8.49792579      14.64228940       1.02987764       1.03375743      -0.39107000       0.77984917      -0.05810472       0.47646996
O        8.91041470       7.76550822      16.29624479      -0.54315687       0.78248858      -0.53297695      -0.30897465       0.28533328      -0.88126498
C        9.57446873       8.26783005      13.72940454       0.55945121       0.40233448      -0.07681275       0.17893301       0.55039024       0.27338961
F        9.23789224       9.03832579      12.69278364       0.36970639      -0.90225097       0.22512379      -0.24630043      -0.19489303      -0.01064068
F        9.40278886       6.99477866      13.39338640       0.85057705      -0.08144313      -0.10552033       0.26663002      -0.05150793      -0.09908717
F       10.85766860       8.55163174      13.99797536       0.36373363      -0.36067670      -0.50947047      -0.28596759      -0.63792318       0.04302329
C       10.90680429      10.70816483      17.11266663      -0.50133372       0.65781526       0.14170673       1.00651455      -0.90268797       0.68699026
F       11.30396910       9.40208074      17.26463687      -0.29618824       0.37041272      -0.01380248      -0.53823596       1.17884982      -0.22693473
F       11.15495367      11.34143347      18.27209623      -0.25014409      -0.07745840       0.13258301      -0.04746944      -0.22006376      -0.53205401
F       11.64230606      11.24737152      16.15319790       0.29763250      -0.06064890       0.59975957       0.43796760       0.15171264      -0.13606673
O       29.93835674      29.07883359      15.77779728      -0.79889116      -0.07020286      -0.44391500      -2.66166115       3.30820847      -1.85735238
S       30.77270785      28.03589387      16.11548033      -0.38794434      -0.46852258       1.30380331       1.46638381      -4.29942417       5.87296772
O       30.20709239      26.89463281      16.86599551       0.33126028       0.43098515      -0.05677418       0.41110420       1.27157617      -1.70884693
N       32.08101549      28.52494413      16.85846810      -1.09356752       0.28671304       0.86664727       0.39868283       0.09472565      -0.55550581
S       32.12077993      29.28506271      18.23591420      -0.68089384      -1.19615194       0.38937488       0.95327634      -2.35310650      -1.69681597
O       30.83616515      29.62325954      18.70685749      -0.06998352      -0.14254658       0.18693108      -2.21080875       0.84624255       1.12170517
O       33.13734977      30.26461768      18.21447302       0.46252996       0.61541978       1.13964234       1.09774661       1.05877900       0.12247050
C       32.72861668      27.92941768      19.38457931      -0.57181686       0.01096551      -0.33313941       0.50212514       2.90389943      -0.50263327
F       31.72508829      27.21214043      19.70626098       0.00236646       1.09814847       0.04407607      -1.79580367      -1.98470604       0.61968756
F       33.20816753      28.49752025      20.51717908      -0.42099498       0.08627320      -0.51810715       0.22839981      -0.20372987      -0.27728772
F       33.65751127      27.24388888      18.77915303      -0.05899484      -0.28723441       0.49323403       0.68348730      -0.65130597      -0.04551686
C       31.48237140      27.33568247      14.65216334       0.50020184       0.24711927      -0.46650699       0.12479776      -2.06361699      -2.96426153
F       32.31022948      28.19428374      14.05377007       0.36262704      -0.33827923      -0.96517771      -0.54060447      -0.40134954      -0.01686154
F       30.43469196      26.98815496      13.74227520       0.23839394      -0.09937969       1.04194587       1.80220437       1.05272806       1.71560788
F       32.15006865      26.18469188      14.87690895      -1.08279242       0.73820295       0.76160635      -0.58802611       1.20464754       0.13790245
O        4.12591300      20.07790336      11.94238506      -0.30849290       0.49485618       0.11467632       1.40013170       0.29989091       0.51810503
S        2.87583694      19.93995334      11.28977985       1.07542808       0.83265724       0.48932803      -0.66655403      -0.93463081       0.66403019
O        2.85943799      19.28567067      10.01319491       1.21000916      -0.43440821      -0.38785610      -0.33513865       0.13563582      -0.16237462
N        2.09846328      21.27817081      11.44486790      -0.53958558       0.33871799      -0.13971383      -1.06755030       0.11028460      -0.72399098
S        0.74504786      21.54461319      10.62677975      -0.23156966      -0.48397345       0.03990829       0.06775773       0.40175244      -1.51549435
O       -0.08577519      20.42043589      10.22948510       0.11031207       0.85055181       0.05269479       1.03980231       0.86256224       0.71238476
O        0.96257290      22.57983608       9.62148531       0.26727630      -0.94682763      -0.24926677      -0.11091049      -0.88197267       0.80455250
C       -0.15046077      22.41978490      11.94739494      -0.42476205      -0.77559939      -0.01892029      -2.34275079       0.69675535       0.54853702
F       -0.30445123      21.66078235      13.05996839      -0.87774132       0.95153679      -0.52575488       0.10415655       0.73429728      -1.09766972
F       -1.42938566      22.70580335      11.42660404       0.27118895      -0.02891091      -0.22966320       2.04058433      -0.48749614       0.97818738
F        0.40333178      23.59325309      12.28389522       0.14753741      -0.09762915      -0.29901418      -0.21886095      -0.89766091      -0.20311368
C        1.99125655      18.79052123      12.48211817       0.69550191      -0.06554959       1.16791984      -0.84966779      -0.80307758      -0.01691765
F        0.77478942      18.37034868      12.00079325       0.17387366      -0.67660103      -0.83639938       1.14357340       0.58066458       0.44489646
F        1.78537410      19.33812382      13.68991224       0.32018201       0.37063302      -1.27396832       0.17107379      -0.02915280      -0.77266836
F        2.73326124      17.68218630      12.65349823      -0.33397000       0.89894701       0.94646849      -0.03656618       0.34105957      -0.07636567
O       13.47975731      13.25083795      23.94984354       0.07277238       0.08215499       0.18970052       0.17229810       0.98807108       0.43170023
S       14.45494676      14.20978231      24.41303984      -0.89586985       1.06630853       1.48764262       1.16192544       0.49975428      -1.84827065
O       14.89163100      14.15694919      25.77730158       0.40738519       0.76565005      -0.58966465       0.03873850      -0.09156574       0.21016002
N       14.17038284      15.68208057      23.86208823      -0.44572500       0.63132472       0.55273876      -0.38011312      -0.79066366      -0.29848319
S       14.55755135      17.11268710      24.36501409      -0.86722476      -0.29315506      -1.38951526       0.77685165      -0.93045634       2.07368898
O       14.74507907      18.01210658      23.26495586      -0.36668070       0.33966624       0.48252776       0.46928775      -0.10004722      -0.08159411
O       15.48243180      17.11661386      25.50895511      -0.09598202       0.01983384       0.26673604      -0.88410962       0.34728682      -1.61342812
C       12.98701077      17.73838791      25.07820979       0.04700603       0.62186404      -0.00598955      -0.22268508      -0.59656656      -1.14853871
F       12.04126579      17.74765216      24.10626342       0.10705377      -0.17080477       0.02757038       0.43934390       0.00713886       0.69933498
F       13.18778814      18.98216620      25.48294682       0.32315198       0.12216677      -1.13613485      -0.15072766       0.56567919       0.31468552
F       12.57602540      16.99340680      26.08567397       0.14427809       0.00693235      -0.62553549      -0.18745100      -0.02767374       0.23429954
C       15.96866411      13.69271723      23.32675938      -0.74135748       0.03979269       0.61456715      -0.94623035      -0.66712236       1.60889554
F       15.79591291      13.84337040      22.02336980       0.69968294       0.02917769      -0.41282041      -0.26014176      -0.40997770       0.54661310
F       16.08429225      12.34831337      23.64774099       0.17208140      -0.09957957      -0.62511351       0.45126799       1.39996731      -0.74749839
F       17.05062456      14.35797976      23.69014670      -0.06340875       0.21441135      -0.02481376       0.01338641      -0.30629486       0.12011944
O       14.25769991       3.46311128       0.12378997       0.36332646      -0.59091708      -0.40672563      -0.71882856      -0.06391792       0.05795194
S       13.24476363       3.89025206       1.06237252      -0.62478193       1.25520637      -1.46967383       1.28806734      -0.33127433       1.04421842
O       13.27091738       5.29468346       1.40223527      -0.69624629      -0.36373578       0.20682822      -0.31659126      -0.41754600      -0.29306903
N       13.20454635       2.86968183       2.30398128       0.39464318       0.02880211       0.07117719       0.14604728       1.21407962       0.01546756
S       13.19715714       3.34801565       3.84326914       0.46626134      -0.08742655       1.10257806      -1.24622655      -1.21484733      -1.57425940
O       12.52303722       2.32486106       4.58428545      -0.14347210      -0.53533904      -0.66508120       0.41139877       0.04181015       0.28665888
O       12.82588306       4.70483905       4.08958361       0.72883759      -0.61372829       0.38754559      -0.08506325       0.62310553       0.16831560
C       14.95190996       3.27604911       4.25969232       1.26604940      -0.83929114      -0.08168685       1.20332384       1.71550202       1.62564254
F       15.66918683       4.05203322       3.43068957       0.08122445       0.26892561      -1.11219246      -0.27432108      -0.43757278      -0.30488434
F       15.45713775       2.08470317       4.33853067       0.23893662      -0.03317621      -1.38692766       0.19912505      -1.70812464      -0.97486430
F       15.13896073       3.76723151       5.49333089       0.46635315      -0.21896383       0.76450739      -0.54833913       0.56738049      -0.01931097
C       11.60660732       3.49297080       0.29698016       0.47243063       1.03603329       0.11629107       1.04334474      -0.99648696       1.70115042
F       10.74397203       3.59131755       1.27580990       0.07404927       1.10548567       0.37287258      -1.18411899       0.16011971       0.81715119
F       11.58770888       2.24863983      -0.14561725       0.50257691      -0.46874023       0.70961136       0.27093884      -0.55959314      -0.35355759
F       11.30378496       4.30011624      -0.64167576       0.11090347       0.04725943      -0.30504860      -0.33645383       1.54743385      -1.97792971
O       10.83156068      32.41394492       6.62174609      -1.28203836       0.64982177       0.83666553      -0.12922937      -0.34451878      -1.20294929
S       10.72497014      32.47749682       8.04030233      -0.13825424      -0.71183641      -0.90902248       0.30359009      -1.00475574       0.28016618
O       11.39032463      31.46406259       8.80148407      -1.15617238      -0.38180042       0.01254444      -0.56612164      -0.24058568       0.21770883
N        9.25979814      32.88272249       8.42676477       0.27489584       0.00338385       0.34329934      -0.24265896      -0.27503273       0.72550976
S        8.30819874      32.28655889       9.52917578      -1.07001478      -0.46888930      -0.64506154      -1.34421074       0.45277047      -0.33824286
O        8.34951961      30.86496665       9.73115915      -1.17249107       1.05615139       0.48072618       0.29906237      -0.28298807      -0.23732051
O        6.99896330      32.88660639       9.36531296      -0.30451580      -0.30455140       0.67860178       1.02202797      -0.36334175       0.26249081
C        8.94537309      32.90146853      11.12935225       0.47475680       0.28143518       0.11536379       0.77908146       0.55918777       0.28222117
F       10.19827431      32.46546517      11.26014668       0.78109806      -0.36522382      -0.07296031      -0.28875664      -0.12353636       0.32299680
F        8.21222494      32.50010934      12.17712013      -0.40066237      -0.11173836      -0.03952593       0.28734374       0.29894814      -0.72593224
F        9.00508466      34.25530704      11.12240804      -0.28588950       0.32975014      -0.44818841      -0.31610447      -0.37634194       0.09735794
C       11.65173658      33.95893713       8.40081369       0.75747506       0.01717247       0.72863774       0.31856084       1.24621415       0.56340784
F       11.01429995      34.98956420       7.81658642      -0.06363992       0.24543480      -0.32441645       0.43740839       0.11361612       0.26187736
F       12.89414827      33.89331844       7.94505449       0.64845986      -0.89504852      -0.17508082      -0.22359097      -0.08218674      -0.06968997
F       11.71500227      34.18682208       9.72885986       0.40270785      -0.86629845      -0.64587178      -0.15761670       0.04918570      -0.40726912
C        4.98811938      14.61570564      29.62828040       0.39647860      -0.38533407       0.41056759       0.05466267       0.34480265       0.34550738
C        3.52960930      14.44156127      30.07729599      -0.60979909      -0.01697274      -0.14583566      -0.70360458       1.96946537      -0.04782426
C        3.02948901      13.02205679      30.24411691       0.52636694      -0.36734936       0.77360929       0.79711568       0.55637360      -1.69791734
O        1.96829994      12.96343797      29.27491271       0.07958785       0.62366684      -0.96199052      -0.87207216      -1.34547329      -0.79628694
C        1.79760531      14.07296518      28.53348870       1.14472375       0.46277056       1.62095247      -0.95197558       0.63681555      -0.64076012
O        0.95098303      14.24913377      27.64308698      -0.04471998      -0.73945147      -1.07486333       2.17116523      -0.73804146       2.43391562
O        2.61868576      15.01167533      28.97412292       0.27145316      -0.72085140       0.34780498       1.14800060      -0.43918353       0.34393618
H        5.08932564      15.69037929      29.57744117      -0.01972104      -0.14285474       0.10681374       0.31428337       0.37428021      -0.57483304
H        5.24001147      14.15520903      28.62638488       0.00751972       0.08495503      -0.12896163      -0.49383855       0.30852714       1.22579992
H        5.75084431      14.36473403      30.41430096      -0.07964994       0.22848270      -0.05217271      -1.03477204      -0.35447061      -0.65063101
H        3.15039538      15.10078838      30.95084079       0.11234156      -0.12466007       0.02803776       1.46955538      -1.17114472      -1.31114626
H        2.59444613      12.96387710      31.20295313      -0.08437715       0.02028331      -0.06645013      -0.45026457      -0.70302647       1.12416363
H        3.84947996      12.26422184      30.03884111       0.20651492       0.00265843      -0.14669858      -1.25084126       0.72254229       0.07997112
C       24.06752035      22.90648192       6.69336135       0.45227445       0.05082301       0.64982574      -0.34997317       0.34161633       1.27389038
C       25.21463689      22.95278625       7.69588606       0.30031789      -0.31211885       0.21418515       0.54148048       0.27718660      -1.24700177
C       26.58387773      23.42163705       7.03883350       0.03336821      -0.33494394      -0.11649876      -1.90337753       1.03992689      -0.21001597
O       27.51431953      22.56581342       7.62972244      -0.32291431      -0.08740996       0.27067589       0.61611027      -1.05641460       0.47992587
C       26.91962005      21.49002369       8.16075777      -1.03690762      -0.08819954      -0.01541948      -0.79515851      -0.03298676       0.93365735
O       27.52818855      20.57526928       8.67860061      -0.09567649      -0.40717530      -0.04610873      -1.01454008       1.13730979      -0.93583363
O       25.51504962      21.63398507       8.13824117       0.01012488       0.38213499       0.15016762       2.74305916      -0.80925161       0.35460931
H       23.12787803      22.51055653       7.16249509       0.02204969      -0.07096696      -0.01005812       0.78361577       0.26498529      -0.33447343
H       24.31235473      22.30614079       5.80640424      -0.07989984       0.04541621       0.04638634       0.01784145       0.44318485       0.15268447
H       23.92179880      23.98167054       6.52767406      -0.01584037      -0.12116509       0.13716011      -0.37620240      -0.28461635      -0.84581935
H       24.99137919      23.58846725       8.56985755      -0.01757635       0.08247681      -0.04817430       0.02207553      -0.29120058      -0.28028461
H       26.80279159      24.47448332       7.26645943      -0.02377654       0.18963559      -0.02510297       0.09591985      -0.51254654       0.24958168
H       26.61420865      23.32581644       5.94356412      -0.03791442       0.09509599       0.04166045      -0.18287084      -0.29238436       0.33760047
C       -0.64819330      14.94141957      17.04832845       0.50357026       0.01965388       0.81179794      -0.91399604      -1.55737936      -5.59621859
C       -1.96653356      15.60655778      16.75377086      -0.25353283      -0.60242995      -0.05404241       1.69122434       0.64120251      -0.53445506
C       -3.19276269      14.83518673      17.07374008       0.17261842       0.55741869      -0.12204890      -1.40468132       0.38198277      -1.51697624
O       -3.40265830      14.12164349      15.78647239      -0.13497093      -0.19446678       0.40012832      -0.77204329      -0.19231202       0.52012902
C       -2.83434604      14.82235132      14.79524759      -0.48096882      -0.03695208       0.35596638       0.19942141      -0.25355202       0.92311072
O       -2.94090241      14.64528467      13.62518185      -0.12966375      -0.11864973      -0.59886493      -0.61735475      -0.66420794      -1.06474924
O       -2.04731615      15.74645996      15.28825947       0.01192233       0.65970983      -0.33349646       0.47075820       1.47938180       1.13944113
H       -0.65757050      14.75633529      18.01622330       0.03588849       0.02252972       0.03225655       0.68591255      -0.98777872       4.54411507
H        0.20709958      15.46208665      16.66454465       0.12498287       0.02988297      -0.01486314       0.28340039       0.70620418       0.23975259
H       -0.62112292      13.95752331      16.42186485      -0.02710223      -0.09890183       0.01415669      -0.12479077       1.23064566       1.33220375
H       -1.98073065      16.59175191      17.20768003       0.03592077       0.23748237      -0.02107926      -0.12304104       0.21930973      -0.14065933
H       -4.01047006      15.56730782      17.22839115       0.18005839       0.22877395      -0.08828717       0.14928053      -0.65763110      -0.16746210
H       -3.24560473      14.11775449      17.86886457      -0.05138848      -0.15626484       0.14035699       0.37162644      -0.28755414       0.33054680
C       21.68332339      15.95165254      16.58404145      -0.18967700      -0.44240497      -0.06748924       0.00224218      -0.47507089      -0.84757954
C       23.08096507      16.12192317      17.11601567       0.10993359       0.24323651       0.51558143      -1.11662281      -0.72464144       0.33708531
C       23.10708710      16.07975860      18.63662269      -0.08254276       1.53106683       0.35561239       1.53142953      -0.77292120       0.18682209
O       24.20877369      17.00495574      18.91901525      -0.58230391       0.75668760      -0.09230091      -0.70817721       0.25041020      -0.88521552
C       24.25009719      17.88532958      17.85104828      -0.82369746      -0.44229161      -0.76506569       0.42885998      -1.40313280       1.24602938
O       24.95318851      18.83861637      17.83931106      -0.22732875       1.02473114      -1.13480207       0.44102222       1.04731655       0.01073874
O       23.49160815      17.47256270      16.84866533       0.89137864      -0.08971120      -1.35996474       0.17639259      -0.14961669      -0.25729993
H       21.70388933      16.08414637      15.47312667       0.12208992       0.09095873      -0.06677262      -0.31595930      -0.06802922       0.86971349
H       21.05207897      16.71519959      17.05166509      -0.17022680       0.13043282      -0.12921905      -0.01162829      -0.26426575      -0.27503580
H       21.30168958      14.93537034      16.82612925       0.08385994       0.03116029      -0.06355210       0.19369909       0.61823213      -0.17058502
H       23.79566533      15.38580876      16.67116894      -0.23903452      -0.12564812      -0.05147083      -0.30266500       0.75484395       0.29166362
H       23.33641887      15.06122168      19.00431807      -0.00800411      -0.02663984      -0.12020601       0.22849856       0.56601351      -0.13696945
H       22.23262987      16.39479033      19.18784860      -0.03328048       0.15626268       0.08877575      -0.27647924       0.57066202      -0.29342613
C       17.79323844      13.00526189      26.88405131      -0.89943849      -0.11902850      -0.25879883       7.80451775       0.69503415       2.93819475
C       17.32668164      13.88818279      27.97193463       0.72080961      -1.03340797       1.48692002       0.67774522       1.76317596       0.56703895
C       17.23310093      15.36954747      27.59263266      -0.14771227      -0.65600121       0.95785272      -0.25886682       0.77623028      -1.77392197
O       17.59756039      16.10968036      28.80381510      -0.42585261       1.57789037       0.14011377       0.50412714      -0.86732125       0.44276485
C       18.39036607      15.28697698      29.58056771       0.69158118       0.28990100       0.43901523       0.47226706      -0.31203997      -0.63196272
O       19.09235146      15.60163464      30.53527445      -0.20212822      -0.27988779      -0.74794139      -1.84742510      -0.64682305      -2.32613039
O       18.35606184      14.02988969      29.03643652      -0.14730201       1.19804804       0.30660842      -0.22104354       0.12079982       0.45787871
H       18.17064528      11.98867133      27.09209351       0.05856187      -0.98156166       0.29629012      -0.63578689       0.30219895       0.99913967
H       18.83979498      13.46825510      26.50586494       1.02562389       0.34508408      -0.23038779      -2.32002449      -0.69755894       0.44239208
H       17.22611680      12.86852710      26.12340864       0.50902584       0.06397774       0.45899905      -4.03009605      -0.15765288      -4.67455769
H       16.38773263      13.57634893      28.38369308      -0.31745847      -0.18811545      -0.05897740      -0.31213632      -0.39523029       0.70389545
H       16.24950627      15.68184993      27.15972908       0.10911267       0.12161860       0.08242081       0.60609806      -0.17800839       1.07518256
H       17.92916414      15.66610063      26.73817424       0.48582059       0.07711739      -0.02577307      -0.37123117      -0.55917877       1.28588867
C       17.60728380       8.74366605       1.32253835       0.27814039      -0.30013215      -0.06338305       0.11686713       0.52169752      -0.02243474
C       18.33372337       7.62742767       2.00951492      -0.53766434       0.17272032       0.77825922      -0.29520768      -0.58846104       0.68485081
C       19.67386742       7.28253911       1.38282700      -1.01272064      -0.13903984      -0.36832544       1.97312760      -1.70820999       0.06037365
O       19.45191128       5.92942380       0.78064842       1.47642773      -0.40324841      -0.75520020      -0.45770526       1.34538090       0.49179438
C       18.21369621       5.53212439       1.10722286      -0.13772969      -0.07484900       0.12947605       0.46154416      -1.13426054      -0.70235837
O       17.78925730       4.44795677       0.72915874      -0.34020858       0.46023648      -0.48104759       0.11546291       1.30348611       0.76408696
O       17.55929145       6.41647374       1.83201676      -0.76483964      -0.64958389      -0.36642428      -0.13558646      -0.58769596       0.00820563
H       17.77646974       8.65027528       0.27763429      -0.17408953      -0.18064697       0.00431077       0.18610060      -0.24995701      -1.14805484
H       18.14836664       9.62589419       1.58743082      -0.02688491      -0.08100121      -0.07022023       0.11835250       0.94384962       0.25560668
H       16.52660868       8.91340454       1.39609553       0.04326800      -0.14968782      -0.04200097       0.23755693      -0.50165540       0.84170806
H       18.51761995       7.70623444       3.09201635      -0.08020570      -0.24947188      -0.08764432      -0.58272398       0.39109617      -0.35098898
H       20.53318534       7.11303530       2.11404725      -0.23497976       0.11967833       0.03198200      -1.38388252       0.42412740      -0.84039050
H       20.05381298       7.91989533       0.58751659       0.08559568      -0.27969866       0.02941937      -0.42085522       0.19745381      -0.06481165
C        2.04792327      35.70770098      21.26777804      -0.15272216       0.00095900      -0.41742824       1.55481422      -2.73027015      -1.42562294
C        1.94830421      36.17631731      19.76451444       0.18068356      -0.01190104       1.03322350      -0.69780082      -0.50997239       0.90369546
C        0.56431926      35.96791541      19.02829670       1.06103850      -0.83671797       0.80857445       0.72922987      -0.15146519       2.78714132
O        0.86194275      35.21377731      17.88754721       0.91446573      -0.52830346      -0.26959857       1.00857365      -0.68316686      -1.49086142
C        2.19605293      34.88780092      17.82022810       0.75708521      -2.00601340      -0.09670597      -0.65876842       0.88340652       1.48172379
O        2.71251740      34.30467597      16.88644318       0.72158957      -0.79202450       0.58777693      -0.67368174       1.21733391       1.58303106
O        2.78062481      35.29147512      18.99757327      -0.00113801       0.03865209      -1.05005843       0.53171194      -1.09878838      -2.24000931
H        3.10305715      35.53928530      21.74747786      -0.07123910      -0.16086116       0.30410900      -1.67357278       0.80576497      -1.58563781
H        1.66138168      34.63859039      21.18632814      -0.14970014      -0.56129635       0.16265163       0.15948430       1.35134661       0.54661775
H        1.48885527      36.23976325      21.99667537      -0.30813233       0.14187104       0.16881642      -0.80341077       0.62297142       0.28858811
H        2.30075974      37.18374621      19.57432514       0.04350113       0.06040055      -0.52106276       0.09297319       0.13009174       0.12377469
H        0.09177833      36.89036878      18.90113791       0.12587091       0.55337032       0.32122248      -0.16153996       1.73607779      -1.61693680
H       -0.22312330      35.53019915      19.64088312      -0.40473246       0.18225839       0.02076913       0.42141724      -1.21029913       0.16344032
C       -0.08182442      10.70962647      -1.12030579      -1.67189055       0.29310335       0.12697573      -4.28753710       0.14314356      -0.07323208
C       -0.62386418      10.67121579       0.29098042       1.53913752      -0.32873287       0.49409630      -0.21657136      -0.54613423       0.71543771
C       -2.15839371      10.50174123       0.27682772       0.53646410      -0.59518675      -0.47692983       0.89569807       0.78077954      -0.52298993
O       -2.57853718      11.86015132       0.41825662      -0.06810344       1.31467813      -0.30484386      -2.32465959       0.00435928      -0.67398638
C       -1.63428926      12.61933371       0.87796162      -0.65655835      -0.78745909      -1.29329921       0.79398662      -1.16613674      -0.34760201
O       -1.72133250      13.72998897       1.26343889       0.52773920      -0.30406927       1.04749106      -1.32633793       3.23480248       0.79051113
O       -0.47833487      12.04701758       0.86746389      -0.09555909       0.50212113      -0.56370894       1.91995287      -2.92824197      -0.44965866
H        0.62556226      11.45409693      -1.22196161       0.16156188       0.12465646      -0.42604135       0.90125692       2.01863456      -0.56352758
H       -1.08465141      10.76614911      -1.77602968       0.87487722       0.26922452      -0.11697553       2.81814981       0.42126584       0.62167484
H        0.42861062       9.85456950      -1.36211362      -0.02633761       0.31080706       0.21985944       0.86963171      -2.44171786      -0.53064752
H       -0.21040160       9.86626373       0.95445550      -0.27657810      -0.07794700       0.41051842       0.18541633       1.35544956      -0.52669585
H       -2.55869757       9.98581972       1.11805331       0.11533054       0.10022028      -0.42101465      -0.20200469      -0.71068883       0.42923313
H       -2.50460130      10.12863328      -0.70325125       0.09996801       0.12019463       0.22035361      -0.09222662      -0.00608722       0.69645494
C       -0.49766376      10.76068639      13.40864202       0.30990088      -0.49348791      -0.65157484      -1.24275589       2.74882245      -0.64463383
C       -0.08027172      10.03445591      14.67824747      -0.41792798       0.40122280       0.69185979      -0.51518387       0.21397035       0.10152543
C        1.39807808       9.92732791      14.89441503      -0.69122543       0.05088383       0.45576042       2.06519938      -0.46905166      -2.59559631
O        1.58668289       8.63864797      15.55227169       1.45957782      -0.21774941       0.92902153      -0.79127753       1.61177659      -0.30493134
C        0.53404473       7.96545324      15.12235114      -0.65597882       1.07882023      -0.09782777       0.76994896      -4.73702002       0.74728018
O        0.48360934       6.74355372      15.25158571       0.24868574      -0.42724190      -0.20502073       0.00011359       1.11647666       0.03908671
O       -0.38981552       8.63208620      14.52816070       0.71539345      -0.27814655       0.25795942      -1.10354090       0.88528222      -0.48070520
H        0.11236644      10.43521534      12.50904359      -0.19309660       0.58858575       0.17450424      -0.51304024       0.47754019       1.22744238
H       -0.41057972      12.00776629      13.57303745       0.08666375      -0.08826302      -0.10217804      -0.04255842      -3.52222586      -0.46939248
H       -1.61474974      10.58185801      13.12515220       0.06574602       0.23181726      -0.18406912       1.96162868       0.24148586       0.81209570
H       -0.58836346      10.33360103      15.64168011       0.08515125      -0.09491768       0.00011732       0.29337755       0.17610466      -1.10744929
H        1.80551890      10.70744181      15.45843292       0.00186246      -0.27519558      -0.01116036       0.62203372       1.05097413       1.10501373
H        2.02488538       9.83308060      13.90431497      -0.06598640      -0.20340716      -0.14731959      -1.38769579       0.40461361       1.58187127
C        6.66699884      28.73776148      -0.18615134       0.97867062      -0.24400569       0.16631280      -0.73891783       0.49404076       0.99187541
C        5.60449549      27.79043069       0.33541655       0.06645615      -0.38112466       0.69078363      -0.92242527      -1.15749383       0.96207982
C        5.85802513      27.12291301       1.74645136       0.42557045       0.42170594      -0.62480108       0.47013000       1.91750669      -2.07620335
O        5.27576880      25.83790116       1.57185921       0.45880681       0.89970237       0.43721135       0.05572477       0.17104183       1.59293628
C        5.34625740      25.50216823       0.31255158       0.01201928      -0.90368561      -0.97910424      -0.06473730       0.62477690      -2.26667094
O        5.12144861      24.42165025      -0.13927075      -0.07078603      -0.22488229       0.16307619      -0.07020274      -0.70852083       0.09888659
O        5.64285596      26.57062613      -0.49115773       0.08367843      -0.67479408       0.30671622       0.09261944      -0.39641172       0.77967364
H        6.80502827      29.65326056       0.45556612      -0.01237570       0.00608034      -0.30185994      -0.30603868      -1.01021707      -0.50162280
H        6.37562323      29.03366224      -1.18250146       0.03103043       0.29879553       0.12583312       0.05595262       0.21757458      -0.36598676
H        7.58446294      28.16784353      -0.22814658      -0.03104110      -0.22625936       0.12789376       0.44686562       0.01611146      -0.05090766
H        4.53078822      28.06408914       0.28976267      -0.21122256       0.26805432       0.04455701       0.80554229       0.65709203      -0.05967529
H        5.42659757      27.70374191       2.55889548       0.04119045      -0.06995052      -0.22073622      -0.08567233      -0.43482280       0.09153634
H        6.94811115      27.08087889       1.76385807       0.12167380      -0.22600026      -0.17298325       0.08091696      -0.51224309       0.79045022
C        6.78056558       5.01860324      16.66402077       0.23686398      -0.09870118      -0.74327096       0.43672451       0.52151340      -1.14438081
C        6.79151843       4.12615846      15.42738526       0.64966985      -0.20834387      -0.18940224      -0.47125247       0.06598775      -1.15486526
C        8.12557912       4.17504728      14.60691702       0.13662338       0.45792411       0.14739074      -0.61176187      -1.38870823       0.39921141
O        7.68962634       4.14216784      13.22113777       0.21227544       0.41227658       0.06052873       0.52264518      -0.10038620       0.70167631
C        6.41795908       4.50449523      13.15786543       0.39111203      -0.36524849      -0.70870397      -0.86398381       0.55332261      -0.60806096
O        5.82360955       4.62974512      12.10568016       0.26111552      -1.31926475       0.11100561       0.17462634       0.01786147       1.21647668
O        5.90644324       4.73570878      14.39103038      -0.74191847       0.36941896      -0.26567772      -0.00171925      -0.06856899      -0.38889235
H        7.42628522       4.61457518      17.44596907       0.06314052       0.23617887       0.09874582      -0.10434268       0.12779054      -0.06022738
H        5.79566118       5.23670653      17.01915894       0.15954928       0.04881327       0.26927747      -0.74363887      -0.63285536       0.49004456
H        7.08383815       6.04229523      16.37659892      -0.00427871      -0.00804935       0.13445382       0.58163649      -0.56802064       0.11518977
H        6.29946661       3.11973142      15.55417485       0.23638950       0.09019841      -0.35305034       1.17811608       0.82345647       0.22090173
H        8.81608542       3.33637164      14.75879737       0.19683630      -0.10315355       0.03816538      -0.51974297       0.20012768      -0.01938227
H        8.64895252       5.09065648      14.79679973       0.01815498       0.11954869       0.06613198       0.18287194       0.67676765       0.05033749
C       18.56883177      26.06524213       4.33869414      -0.55535779      -0.22309984      -0.54575165       0.45894656      -0.35880634      -0.82319182
C       18.12582904      25.77687034       2.91251207      -0.23670345       0.01412995      -0.13832124       0.34205601      -0.79059523      -0.08303598
C       18.46350986      26.86974333       1.90342004       0.14121338      -0.03933548       0.42654489       0.79858047      -0.13243532       0.73942035
O       17.38642139      26.76754983       0.98769304      -0.33235636      -0.15092648       0.32571204      -0.98027569       0.25952482      -0.68664336
C       16.31429355      26.14486926       1.56749069       0.10778164      -0.08716287       0.24968027       0.33238786       0.13742507       0.69203085
O       15.19865261      26.08462443       1.13832014      -0.13486951      -0.03870676      -1.01784132       0.55966157       0.19332460      -0.41453248
O       16.67766564      25.61801568       2.75121208      -0.00806817       0.41813228       0.09275796       0.51987624       0.43786886       0.02162960
H       19.65475847      26.18857240       4.27582934      -0.19351661       0.14805182       0.05120894      -0.12239939       0.01322577       0.05586638
H       18.38253245      25.24712349       5.02548800      -0.02726473       0.01297437       0.08709701      -0.41691989      -0.09046919       0.03519271
H       18.17689852      27.01283930       4.67767289      -0.09462521       0.20844649      -0.07198099      -0.27087694       0.19049554       0.20926280
H       18.54856738      24.82777715       2.52688603       0.04285152       0.02178469       0.20420207      -0.11857574       0.31461692       0.48460886
H       19.44367747      26.74618224       1.42302227       0.16908516      -0.00726130      -0.11064624      -0.51381582      -0.49254921      -0.28430063
H       18.58633497      27.84824425       2.36506308      -0.01567363       0.05709200       0.11399788      -0.87809753       0.30126512       0.01333835
C       24.84905141      21.74069122      -3.98884556       0.51373503      -0.19058813       0.58044791       0.53105736       1.63922775       1.54418850
C       23.88139487      20.66865749      -4.27926983      -0.81823782      -0.33778956       0.24594732       0.34356445       0.13425951      -1.25855052
C       23.74066260      19.65827118      -3.16727079      -0.35756914       0.49542838       0.43549899      -1.01683187      -0.95667446      -0.33268017
O       23.62781741      18.44493185      -3.96081365       0.77764141      -0.81637394      -0.44835728      -0.32952011      -0.42050093       1.29549658
C       24.20893971      18.60419961      -5.11186055       0.02287737      -0.75777181       0.37589821       1.57624817      -1.51780033      -2.97927666
O       24.46511674      17.65854066      -5.87044814      -1.05208759      -0.25256077       0.50354353      -0.54176116       1.58482742       1.17910600
O       24.49789667      19.87850868      -5.41794391      -0.15644564      -0.23672368       0.42347571      -1.50344288      -0.42095605       1.61227429
H       25.84036662      21.26412397      -3.72263360      -0.04243198      -0.20624673      -0.01598450      -0.88226384       0.79455334      -0.98110461
H       24.55442132      22.20315790      -3.02260238       0.01481003       0.21432057      -0.03103935      -0.03468058      -0.12680969      -0.41490167
H       24.83838094      22.61180493      -4.70006643      -0.23628573       0.10566301       0.04345167       0.50076914      -1.22535825       0.32096165
H       22.88971032      20.98727927      -4.63480983      -0.12384310      -0.10256673      -0.12381658       0.42416036       0.02412676       0.09209314
H       22.78002419      19.68234217      -2.58492739       0.05212933      -0.00843885       0.04463340       1.10978687       0.42857933      -0.36781058
H       24.64649300      19.55828745      -2.57002717       0.14422098      -0.01065914      -0.07631914      -0.28281623       0.14801347       0.17832518
C       34.72259377       5.73724394       1.41526591      -0.47625805       0.73035714      -0.69795598       2.86556554       0.14036603      -1.18137646
C       34.05012992       4.59640256       0.83363368       0.43773672      -0.69673640      -0.23919324      -0.75733554      -2.80211735       2.22525787
C       33.37345273       4.82039821      -0.38805019      -0.46649374       0.63986192      -0.31981539       1.28630328      -2.21942210      -6.38643694
O       32.19595437       3.91434837      -0.35465465       0.01375244       1.36081302       1.04088188       0.93304622       0.42403185      -0.40038738
C       31.89301911       3.74186469       0.93154451       0.46766755       0.17912384       0.84622828       1.23960280       1.90637827       0.20573600
O       30.89622949       3.25177725       1.36495892      -0.03287904       0.93243339      -0.06859729       0.10116374      -0.34410921       0.08165285
O       32.87148091       4.38523137       1.67631808      -1.58947045      -0.44698272      -0.76408571      -1.44700277      -1.35487461       0.45735252
H       34.29653922       6.68094695       1.17050064      -0.13780107       0.15355720       0.00970300      -0.41149110       0.71578479      -0.31531927
H       35.77805410       5.68526934       1.07213454       0.26119211      -0.15305245       0.35320131      -0.43213630       0.52508688       0.14711307
H       34.75373937       5.58376874       2.44025908       0.00076840      -0.26906643      -0.15841667       0.11041528      -0.16831893       2.09396434
H       34.58245606       3.59607621       0.87817941       0.28042164       0.48385142       0.12865659      -0.07311270       1.35728526      -0.10231575
H       34.10940666       4.51417409      -1.40304780       0.51802797      -0.23977610      -0.55393581      -2.39244890       0.71305501       2.90452266
H       33.10471637       5.83021093      -0.54084626      -0.16396924      -0.38292345       0.40817988      -0.83770406       1.00799644      -0.17154503
C       11.80338134      14.50779359      19.90619621       0.00814027      -0.50576109      -0.16620173       0.87811697       0.03992995       0.20283751
C       13.14132108      14.78550159      20.53601770      -0.19216034      -0.05593808      -0.70680954       0.51843917       0.41814643       1.06962550
C       13.48251879      16.26856748      20.69175148      -0.06432782      -0.53293664      -0.41947272       0.71227360      -0.27280909      -0.31546670
O       14.94610544      16.27478420      20.51833706      -0.63090880      -0.54584976      -0.40572345      -0.92388958      -0.59634614       0.30875292
C       15.27267059      15.13546477      19.86780332      -0.05613985       0.16730922      -0.02196196       0.67887330       0.66194528      -0.27260357
O       16.35402573      14.95721453      19.37659721      -0.14250751       0.83346109      -0.63541199       0.03634477       0.00183639      -0.06577930
O       14.28644234      14.26031850      19.80098372       0.18742181      -0.75507247       0.37335297      -1.02675462       0.20990357      -0.14934248
H       11.62721737      13.44590713      19.88036384      -0.05194781       0.13603950       0.01547727      -0.26363829      -0.29757452      -0.11832010
H       11.69321982      14.97163318      18.94137402      -0.16481975       0.03463278       0.18522262       0.23271233      -0.00467060      -0.49861547
H       11.09084733      14.99996865      20.53367202       0.24836548       0.03912901      -0.15713014      -0.72859156       0.13607433       0.58988780
H       13.23765993      14.36612516      21.54453787       0.03695580       0.06404479      -0.12005735      -0.36579537      -0.37708053      -0.20558795
H       13.15697154      16.75083681      21.62191351       0.20716728      -0.02801951       0.21180820       0.48119205      -0.41594663      -0.16285782
H       13.11119897      16.83132797      19.86578076       0.11687377      -0.12896982      -0.13999667      -0.46518892       0.51837873      -0.62562776
C        7.18392500      16.72811034       3.42701185       0.86080400      -1.35964952      -0.58797002      -0.47571194       1.20364964      -2.07520008
C        5.73757825      16.98443419       2.94210605      -0.87942037       0.16934708      -0.15857334       1.12032974       2.04733205       1.53949630
C        4.73540577      16.35277682       3.90182208      -0.57213229      -0.16750959       0.82597280      -0.23533387      -1.90441942      -0.45735067
O        4.52140915      15.05780632       3.20256127       0.01305361       0.55978087       1.00102193       0.67302871      -0.37141138      -0.29007787
C        4.95988215      15.11767742       1.90644658       0.79721151      -0.12525705      -0.05000823      -0.82766140       2.15292931       2.15256214
O        4.76251349      14.25640691       1.12034574      -0.73247159       0.81296818       0.10506408       0.17705002      -0.68980587      -0.99150467
O        5.48060844      16.35114473       1.66999482      -0.26831409       0.38364665      -0.98103077       0.10691642      -0.81893122       0.28253472
H        7.28606159      15.70104158       3.57495610      -0.14904173      -0.18322052       0.02939690       0.18708666      -1.73842311       0.86232448
H        7.53088910      17.34827346       4.25191213       0.01122650      -0.04430132      -0.07966633      -0.45110941      -0.21141216       0.20475817
H        7.84242487      16.93536709       2.57388735      -0.05154721       0.29742707       0.14931584      -0.07330886       0.16731828       0.19264250
H        5.64597183      18.09960791       2.86102942       0.31156397       0.08665232      -0.14329205      -0.45441946      -1.17779195      -0.37675607
H        3.73075871      16.73188993       3.90426378      -0.32877844      -0.00541331       0.02203646      -0.25416756       0.96343994       0.14676359
H        5.05102798      16.11516919       4.95479325      -0.17520666       0.14099158      -0.00852815       0.04939690       0.52387428      -1.26234329
C       11.82894991      11.45073210       7.42150349       0.21246013       0.22413868      -0.45012504       0.22873230       0.40417153      -0.77535033
C       10.75919947      10.44058276       7.21736702       0.74269585      -0.37789380       0.06575001      -0.69049418       0.51578659      -1.28606677
C        9.39842575      10.87340736       7.74311378       0.56740471       0.54586680      -0.02163442      -0.45769516      -0.34882358       0.86535662
O        8.93443102       9.68786820       8.47816460       0.46035355      -0.61551052       0.24177352       0.94181663      -0.19559926       0.11750551
C        9.99063905       8.85113622       8.64303356       0.53537402      -0.43106617      -0.25058431      -0.11577804       0.33398041      -0.81944191
O        9.99918468       7.82776901       9.25718855      -0.07663486       0.45714284      -0.43387619      -0.55379486      -0.15122271       0.56499583
O       11.06204294       9.27068616       7.96083174      -0.13951692      -1.01438991      -0.20851741       0.01605308      -0.20239356       0.27416760
H       11.65935924      12.34607969       6.78943300       0.07781896       0.00924084      -0.21136470      -0.12994336      -0.45134199       0.68811363
H       12.74927446      11.02702341       7.04521215       0.00365570       0.06048248       0.00280177       0.53041136      -0.08421751       0.28282547
H       11.87913632      11.66565623       8.48659865      -0.13106680       0.07778398      -0.13656610       0.26107404       0.33411542      -0.02130448
H       10.66038612      10.18650452       6.14249584      -0.09089601       0.20354124      -0.08526222       0.20480640      -0.10886080       0.60073572
H        8.67199531      11.02785668       6.94832655      -0.10549594       0.03280792       0.05599522       0.02074842       0.38891426       0.15725663
H        9.46372861      11.70624464       8.48772438      -0.12231617       0.16395448      -0.05231811      -0.13973856      -0.50054586      -0.69629860
C       14.88032138      32.66533167      11.43775041      -1.39195207      -0.74274256       0.77058183      -4.15179873       2.35619473       3.13358855
C       15.21221961      31.66894506      10.43518920      -0.35936879       1.88456587      -0.97426745      -0.04231606      -1.74290264      -2.98969173
C       16.30125416      32.10390326       9.43704625      -0.16138330      -0.47841062       0.89590167      -1.42962265       1.32742035      -2.79585576
O       15.81833230      31.60949816       8.04107858      -0.21674542       0.41360160      -0.43809042       0.27945513       0.29844198       2.15589261
C       14.56225351      31.18387842       8.17278562      -0.10242593      -0.00259984      -0.33092963       1.76072741       1.02543104      -0.19420534
O       13.95656585      30.72455504       7.24266466      -0.53685502       0.08888044       0.74717638      -0.95213687      -0.31870180       0.06848991
O       14.11187568      31.38617559       9.38938861       0.92769158       0.40885428       0.30078792      -0.46791583      -0.04058957       2.14550209
H       14.07565011      32.29827753      12.20742077       0.36292324      -0.32433590      -0.21452724       1.71014345      -0.33630720      -1.08207381
H       14.27250697      33.67920670      11.31600233       0.25925762      -0.03654162      -0.05306810       2.16210246      -2.03373122      -1.19114172
H       15.79643429      32.85228831      11.98970591       0.07189928       0.11300379       0.05321482       0.10826728       0.21372300       0.15506922
H       15.40541926      30.70508450      10.93646170      -0.18261859       0.07591092       0.17462257       0.01833264       0.41991654      -0.62017316
H       17.29630647      31.69463446       9.37814994       0.04486266      -0.60405808      -0.29356739       0.27538472       0.25086218       1.06381619
H       16.18519908      33.23809353       9.31788728      -0.30152808       0.05883056      -0.10948573       0.84693342      -1.50250602       0.35311335
C       12.45932679      23.55850579      11.39522283      -0.16576677      -0.51604990       0.32580456       0.16164266      -0.85131425      -0.08564039
C       13.57874206      24.51993679      11.15443472       0.63841969       0.31857219      -0.69361731       0.00892719      -0.47497672      -0.72029734
C       13.48121542      25.77826434      11.93264755      -0.60083101      -0.21339368      -0.06464999       0.58488244       0.71193695      -0.37713352
O       12.94592148      26.73936037      10.97503083      -0.37798062       0.17956677       0.73228431      -0.02571466      -0.34660298      -0.05294606
C       13.07589749      26.24158618       9.70548402      -0.54210533      -0.87687714       0.62353784       0.48769170      -0.22200906       2.38463616
O       12.85401311      26.88024744       8.72422084       0.00322671      -0.31149015       0.28220995      -0.28986716       0.60207993      -0.83325434
O       13.52003044      25.00333241       9.74422928       0.07077582      -0.29081018       0.43186719       0.25299102      -0.80550766       0.41729438
H       12.63349790      22.68532358      10.74569178      -0.11383205       0.13776556      -0.24627309      -0.24361326       0.08844260       0.41252673
H       11.54297643      24.04009485      11.10321198      -0.02851944      -0.08304795      -0.05250113      -0.69704163       0.12418842       0.00854709
H       12.39111343      23.22646967      12.46233499      -0.02418255       0.06260078      -0.03745713       0.20728245       0.30596662      -0.86055553
H       14.52556242      24.03898131      11.32923991       0.14398975      -0.17527923      -0.12426132       0.40538642      -0.15241656      -0.36896747
H       14.48421751      26.06844091      12.26882239       0.00020023      -0.07151298       0.15676647      -0.37630999       0.40187234      -0.07388777
H       12.83741946      25.61096669      12.77641405      -0.17529820       0.11513474      -0.13434349      -0.59605563       0.58072209       0.28719074
C       31.50828548      16.91074333       5.90582864      -0.08511602      -0.23622824      -0.00286863      -0.09250113      -1.36770535      -0.58979809
C       30.84127683      18.23066033       5.75497385       0.27646441       0.06251329      -0.38999544      -1.35196269      -0.73644829      -0.30802852
C       29.32648883      18.31842885       6.02032142       0.14471700      -0.45539890       0.21540132      -0.77217573      -0.41678342      -0.59318584
O       28.77177517      18.19267612       4.60756362      -0.37212255       0.38916069      -0.34137729       1.00836122       1.22538328       0.93874234
C       29.74351562      18.65361593       3.79754311       0.69671258      -0.41828716      -0.44346302       0.08512081      -0.15677726      -1.26043844
O       29.57897034      18.99516660       2.63101711      -0.55126504      -0.13374508      -0.56630917       0.23483096      -0.33859670       1.90558708
O       30.94342106      18.62631760       4.40369109      -0.60009891      -0.14417019       1.10916873      -0.78426087       0.65174592      -2.06403375
H       32.53516120      16.98057526       5.51152474      -0.13362539      -0.36213869      -0.07846700      -0.44829309      -0.22999330      -0.23458591
H       30.91114179      16.06599059       5.45720314       0.00206230       0.01525768      -0.18388159       0.69308174       0.92335069      -0.04033277
H       31.61954922      16.61866075       6.92224745       0.21365766       0.13452503      -0.16504289      -0.09830742       0.12088914       1.10033464
H       31.34890841      18.98985627       6.23247744       0.33579197      -0.05500703       0.17444400       1.02766240       1.29589450       1.61586893
H       28.98623981      19.30700765       6.49038876       0.22469444       0.16508582      -0.40546805       0.32323557      -1.54967976      -0.74013841
H       28.92941330      17.39756777       6.48553455      -0.11777268       0.02779533       0.15615024       0.30453497       0.80064189       0.30389619
C       32.07300475       7.81632676       5.49613567      -0.19622988       0.03688347       0.46322551      -3.07326269       1.97960138       2.14146399
C       32.81520339       7.79261771       4.24223929       0.20957781      -0.44881169      -1.42090366      -1.85695910      -0.93461943      -1.32869625
C       34.25651980       7.83300551       4.29168596       0.44719799       0.99011580       0.00946777       2.39016938       0.34691766      -1.67359674
O       34.56444410       8.67284146       3.13306420       0.92828633      -0.58714318      -1.02866207       0.86128688       0.25086433      -0.90270811
C       33.49847420       9.33521057       2.69792039      -0.99626681       1.32034357       0.24280429      -0.29927436       1.35418582       1.06961668
O       33.46026556      10.21115819       1.85351562       0.44018641      -0.49174764      -0.30184914       0.26255360      -1.37407684       0.61478090
O       32.46487578       9.03181219       3.50680927      -1.46600602       0.40461004      -0.85762293      -0.22235101      -0.29828218      -0.13882867
H       32.29644383       8.78086807       5.94908329       0.38403302      -0.23262716       0.22316571       0.40216157       0.27392367       0.25009951
H       31.98578608       7.15234499       6.39407666      -0.03812656       0.15711491       0.22710084       0.92365408      -0.37166554      -1.52467346
H       31.00456081       8.00563332       5.22066821      -0.05773699       0.08939224       0.33648375       0.60560852      -0.49413309       0.15393107
H       32.44668825       7.01984327       3.55615128      -0.23178129       0.08978630      -0.06082378       0.22853804      -0.23823640       0.19837388
H       34.78199336       6.92384515       4.00203159       0.04174615       0.18656466       0.21537255      -0.33027291      -0.25850648       0.69133592
H       34.71155536       8.28066900       5.16230558       0.26776454      -0.12772186      -0.03068786      -0.07660450       0.22398953       0.31770545
C       28.39956541      11.74501627      10.67539828      -0.60997588      -0.45353930       0.52049755       0.86011690      -0.61671865      -0.92398840
C       29.25695897      12.58354501       9.71782373       0.56223998       0.13447536       0.26820214      -0.23645385      -0.52925104       1.17068732
C       29.60008194      13.91360297      10.37448261       0.26543026      -1.04496577      -1.17125317       0.79713500      -0.50618392       1.13079321
O       29.65219623      14.82627318       9.29859612       0.24685514       0.36640861      -0.92357793      -0.35007465       0.04359984      -0.89046800
C       28.95258369      14.28509049       8.26574434       1.01280248       0.07132979      -0.23526065      -0.88874692       1.52832878      -0.37809768
O       28.56112483      14.92892082       7.31961481      -0.38173217      -0.27234409       0.66150120       0.67941171      -0.56640565       0.50941682
O       28.64674353      13.01229453       8.48022627      -0.00597550       1.08717857      -0.50856121      -0.16960815      -0.55097562       0.29539019
H       27.42434416      12.10635190      10.83622888      -0.02024731       0.04895038       0.34565486      -1.17735445       1.04069579       0.13830070
H       28.92645691      11.72282098      11.63826642      -0.19366891      -0.15122345       0.04497731      -0.10518134      -0.20771399      -0.33641890
H       28.24032379      10.73043438      10.29655306       0.09655339      -0.04186515       0.03557974       0.38709804      -0.07374434       0.13978548
H       30.11406123      11.95651816       9.47190869       0.35884625      -0.06065668      -0.25161481       0.22342014       0.45470908      -0.18952793
H       30.59108409      13.88526641      10.86244127       0.12915245       0.48780777       0.24124770      -0.41302580      -0.00582008      -0.18538444
H       28.85426035      14.20021308      11.14725436      -0.08124351      -0.01106112      -0.19928176       0.28006601       0.06609971      -0.57464492
C       22.67156601      16.12515289       8.91196852       0.66830702      -0.54826429      -0.26037636      -0.69633085       1.32531381       0.88913924
C       21.35998185      16.75899740       9.32254260      -0.10926935      -0.81556720       0.85220564      -0.03574559      -0.58263391      -1.75921082
C       20.99063121      17.89127634       8.34097724      -0.22991103       0.52822431       0.23461290      -0.33178329       0.26349974       1.69408906
O       20.39566547      18.83807849       9.27611239      -0.01062441       0.61074127       0.21585599       0.22057667       0.30499312      -0.20905238
C       20.72702638      18.52016391      10.55547352      -0.36334080       0.24204775      -0.05109047      -0.05172680      -0.16063631      -1.28169477
O       20.42426575      19.15315296      11.50999387      -1.03620023       0.27265592      -0.55563494      -0.27603731       0.61392075       0.51353651
O       21.41678933      17.38797038      10.57935057      -0.41821438       0.05588009      -0.06067653       0.65211600      -0.12014693       0.77923054
H       22.91429729      15.26205877       9.50520090       0.08307857      -0.25617456      -0.16000036       0.22101785      -0.49549294      -0.08868994
H       23.32829245      16.95413680       9.14314867       0.03405482      -0.12680524       0.01333993       0.96950573      -0.12283863      -0.17673752
H       22.62167368      15.98619348       7.84294792       0.06562002      -0.05889492      -0.15264465       0.24292472      -0.52995241      -0.33816147
H       20.57037930      16.03774161       9.38783285      -0.20545044      -0.12656922      -0.17151754      -0.58027780      -0.47084498      -0.08012848
H       20.22161513      17.63614222       7.62528910      -0.01691254       0.19507666       0.14163099      -0.08639760      -0.18020600      -0.19667239
H       21.86746056      18.32336077       7.84673045       0.04771238       0.01270456       0.13135991      -0.12663218       0.14535928       0.17022407
C        8.52724758      14.62051012      18.67757229       0.38586384      -0.04741859       0.09285545      -0.22151111      -0.86150891       0.39034569
C        7.16669832      14.16392497      18.13683544      -0.52415528       0.00210623       0.80201059       0.71544206      -0.81881118       1.61897111
C        6.82366872      14.60547152      16.73616359       1.18671339      -0.19851027       0.06709909      -1.51672578       1.16900718       0.22047253
O        5.51280461      15.32414672      16.93201011       1.47300257      -0.93959698       0.07306402       1.45296967      -0.90541440      -0.99050140
C        5.23902036      15.35401786      18.20547588       0.57137991      -0.54470272       0.14942071       0.56829143       0.96699017       1.37585747
O        4.31914015      15.97303947      18.66420964       0.97005058      -0.20962863       0.50555855      -0.59047121      -0.20000775       0.43184960
O        6.19881058      14.81661743      18.98866669      -0.47294406      -0.38892290      -0.26313466      -0.99047238      -0.10458521      -1.02384055
H        9.24877295      13.88732296      18.32948212       0.01933448       0.02557824      -0.02929920       0.43756697       0.40538910      -0.39651909
H        8.59305076      14.52913863      19.78403116      -0.25897404      -0.10721917      -0.12461957      -0.49259847       0.12237005      -0.61202633
H        8.73642699      15.66095387      18.40428327      -0.11926631      -0.19471663       0.15877283       0.15750043      -0.28848201      -0.13238870
H        7.02238704      13.06716764      18.26338735      -0.08940486       0.27608720       0.10354646       0.21671742       0.65373266      -0.05934070
H        6.56405720      13.84978811      16.02026870      -0.02980400       0.11711031       0.04215706       0.42192009      -0.51624882      -0.20060806
H        7.54608532      15.32404820      16.36904658       0.23109639       0.07937965      -0.16957589      -0.00617967       0.14122231      -0.38408551
C        4.89897157      28.64584563      19.41820210       0.13881921       0.10457113       0.61685399      -1.53818977      -2.22396374      -1.91211784
C        4.07206648      28.33809582      18.10452483      -0.11927286      -0.09935894      -0.68630153       2.81198144       1.55756342       0.18362728
C        4.96196536      27.93433894      16.90636779       0.66665108       0.13211956      -0.52805563      -0.52723545      -1.41269684       0.14246950
O        5.36684971      29.19394896      16.31326174      -1.03132534      -0.34440359       0.10382742       0.84586024      -2.42196631       0.46472722
C        4.52357352      30.08433800      16.72845510      -0.13722825       0.63561148      -0.52511123       0.07966922       0.48101693      -1.00403666
O        4.58329856      31.19496037      16.27190657       0.05342010       0.13084880       0.68846296      -0.38741770       1.10112381       0.38564187
O        3.64967152      29.60353391      17.56204559       0.52561071       0.20212347      -1.04922383      -1.72140598       0.56603545       0.75027531
H        4.30381877      28.94990494      20.26750686       0.13838747      -0.08357063      -0.00285034      -0.02395653       0.26254681      -0.05969705
H        5.80078741      29.17056177      19.21428137      -0.26015564      -0.01124245      -0.06850009       0.52194154       0.96658880      -0.09789946
H        5.18061842      27.62530310      19.56662377      -0.05127929       0.10553614      -0.03099466       0.58489323      -0.80901051       0.89973921
H        3.28779268      27.62874527      18.26013946       0.27352919      -0.17141567       0.26613287      -0.80032319       0.04742423       0.12999420
H        4.33746508      27.36477729      16.18474683      -0.12832675      -0.18756105      -0.10474188       0.41121030       0.45958489       0.18678300
H        5.81644408      27.30820155      17.17218547      -0.08426500      -0.20924028       0.04715504      -0.03178304       0.40990886       0.04255869
C       12.81697750      26.36802605      20.53650606      -0.17210065       0.29210899       0.54506378       0.07545999       0.04306652       0.66385490
C       13.27753799      27.22772615      19.41051707      -0.48577916       0.01189223       0.34121213      -0.46995756       0.24621755      -0.63404036
C       12.32947443      28.37851767      19.08761594       0.09609596       0.18519742       0.66391652       1.74412298       1.17895985      -2.67722392
O       11.92282388      28.14153037      17.70693286       0.73401808       0.61159621       0.04237539      -0.18769644      -0.19540420       0.57976490
C       12.40506734      26.96951448      17.29393410       0.00236741      -0.34202799       0.49393072       0.07352552       0.79855609      -0.73885417
O       12.15634214      26.50738252      16.21489575      -0.40393899      -0.51120245      -0.99909331      -0.05705874      -0.39830220      -0.00372154
O       13.27041922      26.45399873      18.15394919       0.27783789       0.54620056       0.51746358       0.33063340      -0.10370509       1.21222782
H       11.80832214      26.03977885      20.44000513      -0.01119622      -0.06330952      -0.19866836      -1.00873029      -0.02671133      -0.38692352
H       12.89224475      26.82665863      21.51547663      -0.00602813      -0.09212980      -0.07136139       0.06301129       0.62777019       0.12669727
H       13.38195847      25.48045326      20.64937923      -0.05269270       0.12606876      -0.06424542       0.97536141      -1.00279510      -0.17954877
H       14.26446383      27.63397604      19.56346806       0.00754801      -0.05390554      -0.11617969       0.43083706      -0.29248893      -0.02859852
H       12.75037897      29.40848982      19.03713566      -0.21549012      -0.11622601      -0.13087600       0.21926920      -0.85323948       0.53020030
H       11.46751850      28.39093572      19.63724817      -0.01300422       0.02673592       0.01875512      -2.19232917      -0.17602257       1.61606801
C        8.20143406      10.74742583      28.23662640       1.27084743      -0.70076745      -1.19049357       2.15328145       0.54414457       1.41034210
C        6.90148171      10.13126999      28.04693100       0.98765565      -0.34227211       0.65956104       0.88213158      -0.04175081      -2.70963812
C        6.70187247       9.70884102      26.51661971       1.23389715      -1.23661709       1.46102286       0.38320956       1.89778244       0.60522538
O        5.41618161      10.31598557      26.19967699      -0.18374252      -0.31862003      -0.50496720       0.07375092       0.22537452       0.53746420
C        5.02598172      11.13167401      27.20189548      -0.34002088      -0.37076530      -0.24614614       0.60103428       0.11873519       0.09128907
O        4.05098710      11.83124538      27.19581568       1.98691546      -0.17107016       0.09922705       0.05710942      -0.33863118      -0.15296729
O        5.91266178      11.12316451      28.22941150      -0.88512247       1.06513351       0.35172275      -1.47567809      -0.17022885       0.07593474
H        8.95878755      10.02904256      27.96812979      -0.39441141       0.23180053       0.10283006       0.29770118      -0.53321004       0.17032419
H        8.37387088      11.01687726      29.30427856       0.06479999       0.23870377       0.44060983      -0.09085519      -0.02558724      -0.83628404
H        8.41931245      11.56617054      27.58367858      -0.08805189       0.29497552       0.17398658      -0.27794096       0.94502622      -0.30407283
H        6.91702821       9.27290417      28.70164326       0.11754810       0.22383957       0.45904054      -1.30407012      -0.14762007       0.26097935
H        6.57963643       8.68356792      26.55527961      -0.17264462       0.20597440      -0.00785215      -0.33564755      -2.17605019      -0.56797445
H        7.47601254      10.00828293      25.72038760       0.12097719       0.03152320       0.06864023      -1.09505880      -0.08128747       1.51458776
C        6.36669209       7.75278512      10.69960759      -0.31801939      -0.27948622      -0.67322360      -0.22908886       0.92900276       0.69171458
C        5.48609886       8.91071829      10.19499263       0.97036428      -0.16398395       0.58239762      -0.70687652      -1.69381750       1.06616890
C        6.21606884      10.23334924      10.08675720       0.37341808      -0.17479815       0.85880225      -1.24245822       0.13041395       0.39973161
O        6.12164514      10.76422737      11.45798564      -0.22320896       0.78495059      -0.26564921       1.01496577       0.19643918      -1.41954672
C        5.05811424      10.26390176      12.00131740      -0.07630118       0.32970865      -0.06892878      -2.53484702      -0.62059277       0.50452775
O        4.49460732      10.70022684      12.96505511       0.07006991       1.11713742       0.34965928       0.20825894       0.19934869       0.85112947
O        4.52965735       9.20639776      11.32845853       0.49397314      -0.21634365       0.18082448       1.14391983       0.27746314      -1.40560544
H        6.73325156       8.01532677      11.70430438      -0.27843070      -0.01142291       0.12784398      -0.17258582      -0.04526996      -0.06649856
H        7.25957193       7.73704361      10.10799131       0.00011281       0.00736639      -0.00450381       0.52266127      -0.51600426      -0.68303037
H        5.86927786       6.78160601      10.79107120       0.12873879      -0.05222255      -0.10471342       0.04269970       0.26992124      -0.31839183
H        4.89887530       8.56824556       9.29927172      -0.20497232       0.01859065       0.00931863       0.50872022       0.78999370       0.89911002
H        5.67465869      10.88060977       9.38004143       0.05237064       0.05542478      -0.00988383       0.56386608       0.05946393       0.52755833
H        7.25293715      10.12730644       9.91759514      -0.10943002       0.03982626      -0.04622121       0.92961872      -0.02570656      -0.63315654
C       11.69401141       9.04052617      24.39274746      -0.27469527      -0.71032326      -0.73730954      -0.01409966       0.94276500      -2.10932064
C       10.63352539       8.32736086      25.14243985       0.78078156       0.63816176      -0.24866409       1.59086275      -1.16702938       0.71595043
C       10.96141433       6.83504709      25.47857755       0.24007122       0.08897170       0.63696921       1.05841494       0.49698871       0.24160479
O        9.75821807       6.14305874      25.16247974      -1.07653788       0.41230664       0.40583615       0.81491256      -0.16030675      -0.21424630
C        9.04354445       6.94569477      24.41684920       0.27532981      -0.94007357      -0.18190650      -3.62751651      -0.66962594       0.34458932
O        7.96219789       6.58672695      23.97387598       0.22738000       0.25685673       0.61138426       0.93836886       0.15836987      -0.47613338
O        9.45189833       8.19462951      24.36146763      -0.44539538       0.03117996      -0.48172558       0.13888083       0.34153807      -0.15620415
H       12.12178584       8.39928229      23.54749803      -0.12437172      -0.22376699       0.00203544      -0.60762638       1.11921430       0.93614686
H       12.50328974       9.29605400      25.05198966      -0.39858242       0.06781287      -0.06815160       0.53342152      -0.15661627       0.34799674
H       11.29332064      10.06334946      24.04180028       0.16318178       0.05179283      -0.01785400       0.61433482      -1.66617501       0.14238313
H       10.50970275       8.85302033      26.08098032       0.08169871      -0.18277227      -0.06805859      -1.06246305       0.14867190       0.03194963
H       11.16719920       6.70731599      26.53555887       0.09201931      -0.29856810       0.05386502      -0.10284641       0.02301374       0.23639400
H       11.79949214       6.40671788      24.90242739       0.22858345       0.06680328       0.08941175      -0.50393915       0.38758039       0.08163017
C       12.06632378      19.38639751      11.51739920       0.51388783      -0.17609470       0.03056581      -0.58181983       0.34174174       0.93506628
C       11.88707859      18.20762199      12.41868847      -0.17687543      -0.62849568       0.14501561      -0.78042656      -1.12625587       0.39198250
C       11.40086001      16.86474050      11.79026084      -0.50832802      -0.61883695       0.20870862      -0.44305977       0.45234671       0.88221747
O       10.33212452      16.41467465      12.68038196       0.27706879       0.37071310      -0.42610510       0.01686183       0.94884598       0.90417635
C       10.06957887      17.36139895      13.63084367      -0.10889455       0.30600103      -0.01934563       0.84600765       0.09610000      -0.54517275
O        9.25948867      17.22092269      14.52222093      -0.41729200      -0.43915206      -0.23045755       0.55557656       0.10815382      -0.85799623
O       10.83736342      18.46994117      13.45288410      -0.85126374      -0.05961601      -0.65303442      -0.08675255      -1.08470261      -0.38024676
H       12.45587255      20.21527411      12.12412831      -0.12170686      -0.12492558       0.31510820       0.09145103      -0.09557706      -0.40179798
H       11.15681454      19.68661583      11.00002213      -0.07090415      -0.06354042       0.18910846       0.01632464      -0.10366191       0.09040511
H       12.78151422      19.06887430      10.79644387       0.07537691      -0.05668541      -0.08223303       0.84583348       0.10359922      -0.75173163
H       12.81191336      17.96600079      12.94471055       0.02916211       0.09095280      -0.02205891      -0.11200718       0.40456486       0.20003431
H       12.16951718      16.10457213      11.78810968      -0.05892102      -0.11918381      -0.06203356       0.17690057      -0.11786487       0.07843450
H       10.97020912      16.93487136      10.81246438      -0.09010708      -0.03084866       0.31446402      -0.18470681       0.27180362      -0.55936253
C        3.26278580      24.89727064      10.45431703      -0.12231088      -0.17171144      -0.19646873      -0.38457733       0.28745580      -0.67039025
C        3.79677866      26.19132733       9.87781018       0.39967078       0.16503353      -0.38174922      -1.06696403      -0.82071000      -0.77877331
C        4.51578004      26.02352404       8.50941849       0.08507848      -0.22105058       0.31110103      -0.58134013       0.41103286       0.08853589
O        5.66218019      26.92559838       8.60288911       0.63665330      -0.07973030      -0.07409544      -1.05685687      -0.00683358       1.90874076
C        5.77168530      27.25968317       9.93230958      -0.44808652      -0.27771527      -0.08119656      -0.28387609       0.09642853      -0.03621222
O        6.62204708      27.95118708      10.40953349      -1.34445903      -0.81437388      -0.84212073       0.75331551       0.16190304      -0.48692915
O        4.76704267      26.79996765      10.72278375      -0.28502953       0.26388592       0.65720761       0.60874248       0.00390746      -1.27712822
H        4.09012138      24.31052295      10.77673838       0.01852125       0.21457820       0.03617984       0.61815161      -0.78970623       0.25420454
H        2.68116453      24.34742694       9.69906786      -0.02688988      -0.04728225      -0.38592127       0.32708156       0.11693502       0.09616245
H        2.58156149      25.07521699      11.27558698       0.02247517       0.21201949       0.11803310      -0.07137799       0.16828375       0.33920169
H        2.92781329      26.85452383       9.78812578      -0.02093686       0.06240998       0.16770176       0.33572537       0.36716092      -0.13564135
H        3.82118352      26.30275295       7.68692578       0.30534637       0.05105354      -0.21145166       0.78767884       0.09767473       0.45259047
H        4.90137062      25.02760224       8.33241233      -0.24673536       0.03401790       0.08600012       0.01843569      -0.22891012       0.13223659
C       27.04775380       8.75625617      27.84274640       0.89480335       0.77654936       0.39476358      -1.69603050      -2.48163962       0.32423583
C       25.64505376       8.12718571      28.09977552       0.06452992      -1.32375301       1.37438802       1.21011031      -1.48591661       3.43321109
C       25.61347437       6.54489231      27.99426997      -0.20245365       1.59728284       0.26221457       0.61250502       1.31343806       0.34301206
O       24.34751292       6.30078623      27.33977483      -0.52526863      -0.46489415       0.09375937      -0.03041939      -0.41431713       0.09394813
C       23.87497970       7.42404074      26.82605785       0.75902443      -0.10644091      -0.35057917       1.48054183       1.93563795       0.74439430
O       22.96253261       7.58622185      26.08080454      -0.86437030       0.27937042       0.72107181      -0.67387319      -0.45010138       0.05898592
O       24.63420644       8.51517281      27.26331384      -1.75656203      -0.02380847      -0.49836501      -1.99842334      -0.31394339      -2.38779283
H       27.23328928       8.80915433      26.82278559      -0.36940100       0.11990079      -0.21301002      -0.10959413       0.63422406      -2.32300758
H       27.84590262       8.06657463      28.10974003      -0.27316745      -0.14555742       0.10064702      -0.02373477       0.17232199       1.07752132
H       27.05479614       9.69427736      28.29428097       0.14199640      -0.06329149      -0.41598412       0.58074826       1.51386607       0.81245250
H       25.28464460       8.39690026      29.12105895       0.14458813       0.06280772      -0.05976259       0.66233855      -0.04163386      -0.53571481
H       25.68373480       5.97443288      28.98494525      -0.11730435      -0.07415068       0.22169161      -0.05816356       0.81495494      -1.75421631
H       26.41542236       6.39174880      27.25620531      -0.32520977      -0.05886964       0.03392543      -0.16310307      -1.10251737       0.37801525
C       22.39063120      10.72688492      20.73738139      -0.01376130       0.34546956       0.12257440       0.57822412       0.01277884      -0.64400548
C       21.11744924      11.47133476      20.86234451      -0.40387393       0.04177778      -0.48972419      -1.71458805      -0.05299804       1.20370233
C       20.78656346      11.97020793      22.26911692       0.92168716      -0.08024263       0.08251296      -0.17491196      -1.95551610       1.04906988
O       19.71515464      11.10481332      22.76821577       0.67995439      -0.51926734       0.26083817      -0.39875561       0.04289087      -0.90544146
C       19.28932097      10.32501995      21.77872138       0.11394756       0.21495589       0.12541916      -0.73768073      -1.80554926       0.81931156
O       18.40805478       9.47109833      21.89959501       0.36018751       0.58794630      -0.12094055       1.20450890       1.66738045      -0.47365418
O       20.02936390      10.46481765      20.67952155       0.27948532      -0.49197291       0.43927471      -0.01143678       0.38139567      -0.46008250
H       22.47954327       9.86051767      21.41562937      -0.15154817       0.08670849       0.08679390      -0.34665078       0.36465278      -0.48906967
H       23.23257766      11.37966283      20.92465175      -0.06013992       0.15692879      -0.00568555       0.21091703       0.31887069       0.13344246
H       22.43634264      10.46486335      19.68465967       0.00803739      -0.08974967      -0.00183523       0.35802034      -0.61598635      -0.11971924
H       20.89045235      12.27490967      20.14893944       0.05365297       0.10522125       0.10280865       0.63426250      -0.40622672      -0.10929860
H       20.43290530      12.93623841      22.38418494      -0.12713661      -0.03831057      -0.01241779      -0.61053282       1.95843673      -0.24803603
H       21.53530311      11.80875909      23.02164304      -0.00153141       0.09690317       0.17138973       0.91075355       0.09064687      -0.10035637
C        4.84354749       2.13412880       8.86802786       0.01956918       0.72347916      -0.32410846      -1.45659113       0.26168931      -2.04097223
C        4.37748355       3.49168963       8.30903993      -0.15666457       0.08209656       1.36489898       0.42654091      -1.76374185      -2.89837193
C        5.46436121       4.49818048       8.03994869      -0.20829323      -0.63589138      -0.72473170       0.27218044       0.01636097       1.26159346
O        4.75652136       5.68989479       8.24658228      -0.04562751       0.54883650       0.40328971      -0.61515498       2.21278477       1.00086296
C        3.78805373       5.51840481       9.13962746      -0.25899412       0.03317444      -0.48023611      -2.01996589       0.81505585      -0.41298226
O        3.10786481       6.45454750       9.58642095       0.51380246       0.40052620      -0.88162787       1.78950810      -3.19163990      -0.41123155
O        3.57089719       4.15026908       9.26997399      -0.53508027      -0.02044574       0.22306507      -0.30975094       2.13865328       0.73499644
H        3.90400821       1.51401647       8.91103023      -0.08144980       0.10939990       0.18330635       1.02661335       0.43103617       0.95749784
H        5.45858273       2.32852790       9.72705512      -0.02419629      -0.01663576      -0.10081681      -0.24279128      -0.45074207       0.72083580
H        5.42660652       1.59708761       8.10711716       0.05776302      -0.26784121      -0.07306495       0.10786711       0.37933487       0.09851976
H        3.85115588       3.38178464       7.26876807       0.05478030      -0.09554000      -0.15029712       0.21107210      -0.00790778       2.03231692
H        5.88655677       4.64950484       7.06688930      -0.10475224       0.03323230       0.06646395       0.34405950      -0.94514632      -0.41288835
H        6.17939335       4.45043481       8.86133745       0.11359433       0.08004791       0.17643684       0.67013550      -0.17039385      -0.21701828
C       24.93087950      33.92157314      -4.13929193      -0.36373685       0.47432510      -0.69956467       1.28548014      -1.22952974       0.58941412
C       23.61754203      33.28998149      -3.56012434      -0.49731435       0.25628604      -0.41295627       1.44268930       1.79578424       0.13957199
C       23.77956534      31.87720987      -3.08077222       1.02506441      -0.82302995      -0.18246172      -1.33140385      -1.41280627       2.01808000
O       23.02031002      31.05706002      -4.02365407      -0.79755064       0.10474644      -0.04291811       0.46288621       0.27479792       0.65479392
C       22.22329981      31.84230429      -4.74561036      -1.72351082       0.27824087       0.32837288       0.36269298       0.04799004       1.28954947
O       21.33425130      31.37322181      -5.40955661       0.56641478      -0.32299006       0.82080169       0.24417229       1.10403371      -0.32121792
O       22.53175565      33.14403680      -4.48851243      -0.05767422      -0.52506124       0.45881988      -1.06651878      -0.11369886      -1.24011636
H       25.25156291      33.27888112      -4.95076551       0.15307644      -0.66264797      -0.18385478       0.11348065      -0.17001858      -0.56269753
H       25.80141653      33.69798151      -3.34631450       0.08086811      -0.04040556      -0.14175960      -2.06163406       1.08207023      -1.47355187
H       24.92489849      34.96603399      -4.56802455       0.11749010      -0.13373683       0.47783460      -0.37371603      -1.12405789       1.07893491
H       23.35679636      34.01524763      -2.77279347       0.02193967       0.41242792       0.16621467      -0.71803051      -0.71202421      -0.15082756
H       23.35438934      31.71536080      -2.00725326      -0.16255771      -0.08778719      -0.01068454       0.48964787       0.29228729      -1.90394258
H       24.75194476      31.45046764      -3.09079362       0.02003293      -0.03584133      -0.01048155       1.07959604       0.15049040       0.00957781
C       12.58591388      -1.42146692      22.51419259      -0.30197261       0.54670688       0.69921593       0.49469507       0.57193315       0.50439847
C       12.81826315      -2.65567130      21.68192410      -0.50625100       0.04385306       0.24632915       0.78466982      -0.24939929      -0.33944032
C       13.96603001      -2.39462128      20.69795255       0.38063292       0.18179545       0.13261548      -0.03615020      -2.11320448      -0.89353371
O       13.32529793      -1.94311248      19.50849078      -0.70708992       0.62816384       0.17915611      -1.80778253       0.43857914      -0.02183786
C       11.97883809      -2.24006321      19.59877724      -0.45440684       0.50606969       0.00669861       1.81613839      -0.97258532       0.24540737
O       11.24746157      -2.10653295      18.66103247      -0.09559281       0.11700653       0.35414378      -0.39240822       0.46772552      -0.56391501
O       11.65921097      -2.80640558      20.74422909      -0.88081516      -0.94100509      -0.63058129       0.99976337       0.35404509       0.81294644
H       12.57393873      -0.57734003      21.78245831       0.00981421       0.18232925       0.09312104      -0.17213935      -0.23829296       0.72482651
H       13.39701446      -1.23882179      23.27749299       0.00945560       0.04506394      -0.00952488      -0.60087883      -0.38712165      -0.94713652
H       11.65342290      -1.46037080      23.07204391       0.17686196      -0.24460452      -0.00070903      -0.01456411       0.01208349      -0.20902258
H       13.04935454      -3.60569350      22.21201863       0.16212022       0.03480966       0.08812631      -0.88649768       0.70598131      -0.21615210
H       14.54335925      -3.29791268      20.41511926       0.19178752      -0.04182121       0.04682386      -0.47000602       0.27982110       0.32237867
H       14.69337153      -1.69413922      20.99168884       0.23144827      -0.21478809       0.13072384       0.63477719       1.22720838       0.67074686
C       16.86337105      26.92242736      19.04938590      -0.08194593      -0.26905751       0.19624933      -2.94086027       1.00776601       0.32180107
C       16.99579936      28.10729897      18.11846107       0.66563933      -0.55791554       0.48400046       1.68373239       0.28045881       0.68325377
C       15.91923077      29.18544300      18.05449019       0.05984261       0.43037097      -0.18114774      -0.07185824      -1.20735621      -0.31706491
O       15.08952585      28.72410813      16.88611382       0.10365100      -0.17720433       0.02099153       0.69884783       0.19223222       1.71684849
C       15.82553025      27.81437023      16.21821682      -0.99827932       0.36682240       0.13639648      -0.89968240       0.22732596      -0.37944931
O       15.39966417      27.26061088      15.23519886      -0.01855720       0.19905307       1.47634933       0.53603297       0.08349380       0.10537240
O       17.02360767      27.64535790      16.76929617       0.58502101       0.42275866       0.26363788      -0.12505700      -0.76940453      -0.83875394
H       16.76396302      27.23504811      20.11520285       0.10591028       0.06153201      -0.07086463       0.31045935      -0.19731131      -0.83638865
H       17.64044339      26.23481611      18.91716458       0.08219916       0.07568577      -0.05700855       1.29083419      -0.72000933      -0.10397822
H       15.92538845      26.40924867      18.75594603       0.06595748      -0.11394401       0.11555943       0.33062446      -0.07616993       0.32746965
H       18.00953049      28.51005490      18.27965804      -0.05271219      -0.28769936       0.12374387      -0.52787399       0.35231754      -0.04333315
H       16.37003592      30.09959211      17.77367165       0.02560759      -0.07413604      -0.05480385       0.30429119       0.98877358      -0.32787248
H       15.39636780      29.31701802      19.00819643       0.09442325      -0.13998274       0.12598659      -0.44731200      -0.19546315      -0.64463413
C        2.13374388      25.53971033      31.16178321      -0.02358291       0.17938609       0.71257014      -0.30129749       0.95280164       1.48024440
C        2.51120472      26.44702575      30.03932450      -0.12771405      -0.26565096      -0.88343071      -2.68138742       1.87072933      -0.28396565
C        1.86553445      27.94702586      30.05421379      -0.41250552      -0.55244511       0.70527790      -0.69222665      -2.20339632       0.94018221
O        1.27311113      28.06597862      28.74112478       0.41221651      -0.35758542       0.44363607       0.22821663      -0.33826995      -0.05251113
C        1.21259870      26.84194536      28.17936380      -0.67301481       0.07079625      -0.79336108      -1.27019811      -0.21357211      -1.98374665
O        0.62466970      26.53899010      27.13993566       0.24935477      -0.42377181       0.09906130       0.84571385       1.26424706       1.70697749
O        1.79159699      25.92421869      28.89657978       0.49554868       0.49356448       0.77760595       1.17992210      -0.82874078       0.20236653
H        2.71731285      25.85588137      32.04090474      -0.10926418      -0.20550289      -0.30909506      -0.36336163      -0.20925158      -0.08172879
H        2.41739466      24.51679488      30.94927871       0.00298099      -0.01426907      -0.06180815      -0.14365380      -0.23836513      -0.13803107
H        1.03712278      25.65362573      31.43362401      -0.20539095      -0.23670132       0.13766380       1.27147543      -0.34064901      -0.44973543
H        3.56014280      26.56132337      29.84035283      -0.05427889      -0.00667141       0.11317661       0.49358857      -0.39438090      -0.29410818
H        2.64657795      28.63507287      30.23993401       0.14756994       0.18038964      -0.08133327       0.55922174       1.04250467      -0.28408089
H        1.04337467      28.10468212      30.81708263       0.04919845      -0.05716319       0.08735552       0.90004295      -0.42058235      -0.71884745
C       18.47882757      13.95807769       8.94994232       0.55486935       0.27180455      -0.20023364      -0.68245363       0.38469499       0.07794809
C       17.05166646      13.48002410       9.02457105       0.43932940      -0.48105450      -0.55184080       0.17439638      -0.62098354       1.22638500
C       16.84178976      12.11380512       8.39085858      -0.31502855       0.39373293      -0.42114755       0.07077079      -0.50055057      -1.06088340
O       15.51881271      12.21728458       7.79897322       1.04341253      -0.07253600       0.16818714       0.94708592      -0.23418556       0.09113891
C       15.23179404      13.49451345       7.73835631      -0.53012018       0.44478721       0.52974918      -2.70445657       1.16387510      -0.55056769
O       14.19992220      13.90575285       7.22780418       0.06285692      -0.51528575       0.15584945       0.54585290      -0.18876222       0.03170788
O       16.08399872      14.30812375       8.33186337      -0.06469323      -0.64249979       0.56096229       0.76028228      -0.44459194       0.28242856
H       18.56637533      14.96190399       9.38868878      -0.04076840       0.03090085      -0.02469823       0.10993818      -0.34797734      -0.07515076
H       18.94646408      13.91486501       7.96515124       0.00646035      -0.14845989       0.02410091      -0.28023109      -0.08375068       0.02253962
H       18.95012238      13.24458264       9.60226297      -0.02048690      -0.11668830      -0.22641311       0.85359621      -0.06324612       0.33569455
H       16.76772288      13.35758048      10.11425367      -0.04914278      -0.01853017       0.11417350      -0.05769702       0.68471569      -1.06275547
H       16.79166105      11.29270339       9.10959430      -0.03042582       0.08575961       0.10211921       0.23827465       0.19668244      -0.12786113
H       17.53405456      11.91967303       7.53281282      -0.00085536      -0.01921082      -0.03124968      -0.25919110       0.02708189       0.79167819
C       25.62510419      32.25757003      22.47551927      -0.49771572      -0.31800410      -0.86842631       1.93283522      -1.69367886       0.93826091
C       25.04267586      32.23144022      21.08759797       0.56977981       2.03384919       0.08932011      -1.88413107       0.02919004       0.19326970
C       25.72073555      33.22460859      20.18611720      -0.78239285      -0.14759960       0.21904531       0.30301109       0.88047910      -2.71951389
O       24.57496695      33.66005176      19.26985326      -0.76779975       0.49288789      -0.41863428      -0.13347116      -0.15995876       3.57195210
C       23.48348397      33.74995417      20.18000563       0.58679156      -0.36595334      -0.87653096       2.33393478      -2.10628819      -0.94685054
O       22.49689582      34.31868992      19.88887160       0.72788022      -0.60562889       0.69313162      -1.07666636       0.66516721       0.42006102
O       23.71180931      32.97303526      21.29827034       0.20024467      -0.29595622       1.03920326       0.34573916       0.11767105      -2.31862354
H       25.34879083      31.60882924      23.36696639       0.25740979       0.34622079       0.01958211      -0.18272822      -0.13778231      -1.84674811
H       25.45244456      33.20888906      22.93563016       0.17685585      -0.52083383       0.11478864       0.20181976       0.91924846      -0.33060291
H       26.72870007      32.07784653      22.31920424      -0.12030031      -0.11301962      -0.19886864      -0.87826824       0.32139045       0.54807758
H       24.92251768      31.21051514      20.46572305       0.18840535       0.33451063       0.02120376      -0.10804683       2.22090507       1.86812639
H       26.38250742      32.65267677      19.45894519       0.23708188      -0.13045725       0.04033201      -0.22676781       1.14429986       1.23197365
H       26.16363041      34.22026799      20.62367288       0.46178201      -0.32318976       0.18969982      -0.66716433      -2.23997068      -0.54342943
C       18.71088038       5.68731081      15.76845165      -0.55039800      -0.57772869      -0.05169443       0.57985073      -2.07707667      -0.17716515
C       17.45061107       4.84428122      15.94579230      -0.02880008       0.69027085      -0.35202265       0.20102577      -0.55257851      -0.35694966
C       16.20327407       5.33622410      15.26898055       0.18820534       1.04402025      -0.57131930       1.34369206       0.87643915      -1.77531946
O       15.16406028       4.78658499      16.05621220      -0.65007960      -0.46084217      -1.01471003      -0.85136002      -0.62232393      -0.73392969
C       15.64171509       4.48356161      17.25012722      -0.16070860       0.40102967      -0.66072515      -0.06950103       0.40716910       1.49617457
O       14.92648776       4.17438054      18.18452246      -0.61995031      -0.51168512       0.14109356       0.90355241       0.19963455      -0.74686038
O       16.97802882       4.66000817      17.31082516       0.40367136       0.27036749       0.62872083      -0.34770876       0.03545993       0.48879138
H       18.70178678       6.51301791      16.44088593      -0.03247474      -0.25052085      -0.34760445       0.03997489       0.82935762       0.46557477
H       18.74087669       6.05519355      14.72186852       0.18667872       0.30236466      -0.12535266       0.14375274      -0.23286597       0.66449052
H       19.61267001       5.00105378      15.98931376       0.03739434       0.14640293      -0.02395391      -1.22503507       1.24684262      -0.42323911
H       17.64599169       3.82831862      15.61250241       0.24133711       0.21728653      -0.11479249       0.20953082      -0.12937322      -0.29063061
H       16.27270613       5.07602870      14.16963681       0.09395494      -0.03031855      -0.12826200      -0.87665415      -0.07977056       1.51806498
H       16.10261687       6.41626898      15.32344363       0.06935754       0.12164255      -0.10290003       0.03509739       0.34948000       0.03905803
C        8.96358807      19.34771501       6.50315329       0.53621361      -0.59197798      -0.56255886      -1.16561043      -1.78204095       1.96605468
C        9.28929471      17.88820933       7.02590287      -0.65305723       0.31593731       0.30636761       0.33327916       1.76636863      -0.46926507
C       10.67951003      17.87842691       7.66931409       0.74258481      -0.72276739      -0.04156772      -0.53163469       0.95101857      -0.77743566
O       11.48957361      17.54631292       6.53828014       0.62419449      -0.24892138      -1.12609348       1.28706622      -0.46688688      -1.01279140
C       10.78786349      17.02044768       5.52474157       0.26759768      -0.67369216       0.50503029       0.58197480      -0.86018372      -0.40554094
O       11.26047864      16.55666986       4.48222102       0.08568081      -0.10547395      -0.27022737      -1.23616230       1.21986306       2.22873116
O        9.49541505      17.01025238       5.86642895      -0.87903683       0.25827433      -0.17196189      -0.61414683       0.00029950      -0.19816965
H        8.03100276      19.28715146       5.92707357      -0.01657055      -0.00855873       0.11110913       0.32373625       0.22442628       0.15619829
H        9.76434060      19.73888321       5.91523966      -0.17178186       0.06581193       0.02296191       0.58080167       0.34929612      -0.37678325
H        8.81623781      19.94772516       7.44636280      -0.11778091      -0.11404644       0.09941341       0.19655563      -0.26812199      -1.10681629
H        8.48983644      17.49390821       7.66358743       0.25934322      -0.18423207       0.15807121       0.29867122      -0.07862144      -0.37326369
H       10.79682546      17.18385903       8.46118648      -0.25174594       0.24947378       0.10778631       0.20500720      -0.90616125       0.48971307
H       11.02864083      18.85815659       8.00453499      -0.04449957       0.04558536       0.10195349      -0.38556665      -0.19203264       0.02028067
C       34.26710533      18.33863742      19.05551713       1.16671498       1.00015360      -1.07902611       1.39596164       1.16537488      -0.71200705
C       34.48078147      19.21663838      17.77980106       0.43727800      -0.78311641       0.23529067       0.66895449       0.21077999       0.92290968
C       33.11388037      19.64385007      17.17425933      -1.23600726      -0.32558820       1.43866742       0.93969768      -1.81488800       2.16836786
O       33.34525170      19.46499696      15.80514958      -0.78536846       0.39192489       0.06888702      -0.29372638       0.63281155      -1.39074314
C       34.54306760      18.92990875      15.54156597      -0.37649017      -0.43058670       0.39603276      -1.33637238      -1.09202313       1.38437271
O       34.93583627      18.68735695      14.43861241       0.66821577      -2.06463154      -0.04421447       0.53464794       0.19440833      -0.59164101
O       35.12505340      18.53656463      16.67021030       1.05234081      -0.45498245       0.44072321       0.28495318       0.04534661      -0.02321909
H       33.87842946      19.10539650      19.73193727      -0.52740081       0.49897895       0.36056873       0.12224221      -0.34202969       0.45153990
H       35.19220960      17.83871900      19.50115055       0.19025495      -0.39656414       0.18489391      -1.26924002       0.72719806      -0.72362155
H       33.45876347      17.66415730      18.83553211      -0.11005333      -0.25581189       0.08939918      -0.02821789      -0.66707468       0.05929952
H       35.16326240      20.10189314      17.93590367      -0.40176192      -0.32520900       0.01734207      -0.82092977      -0.77419603       0.34127307
H       32.94009053      20.66688950      17.44232226       0.08198530      -0.01420236      -0.07887667      -0.63060087       0.26746085      -0.18518931
H       32.36096576      18.91454526      17.63740328       0.35182727       0.33180860      -0.02357698       0.47859830       1.28661919      -1.27550399
C       15.95877344      28.66868455       5.71632925      -0.15326557       0.19776757      -0.59491378       0.66262966      -0.57497174       0.57172841
C       14.64250458      28.01964050       5.97986569       0.25726004       0.90690613       0.15739535      -1.10849273      -0.97976422      -0.24139149
C       14.34983900      26.63522347       5.34294399       0.10598889       0.45707680      -0.22305198       0.13162161       0.17468247       0.61962634
O       13.00961479      26.77800874       4.81834270       0.33729820       0.23222401       0.06720864       0.16028287      -1.14751434      -0.06901649
C       12.68040209      28.03191706       4.80644002       0.55905117       0.95353721      -0.17864922      -0.38056859      -0.07657463      -0.42097026
O       11.64657736      28.46176299       4.32641223      -0.04848077      -0.09812087       0.41515686       0.19176134      -0.03114948       0.04703814
O       13.58334560      28.79627511       5.34112672      -1.50707973      -0.04957668       0.84193739       0.41904521       1.26716959       0.34811974
H       16.00259624      29.51986520       6.38557702       0.00690002      -0.41415311      -0.21397797      -0.07538363       0.73088712      -0.59500796
H       16.15771760      28.84124418       4.64473288       0.13320173      -0.14052799      -0.00951698      -0.17567706       0.24319777       0.55618232
H       16.76768890      28.06331852       6.15191983      -0.02741273       0.06278154       0.28759840      -0.26691696      -0.36034057      -0.35195121
H       14.38291426      27.99803008       7.03462522      -0.14739746       0.10338364      -0.26383294       0.18576780       0.09354819       0.05309359
H       14.32674645      25.78031834       6.04749728      -0.18013881       0.04344954       0.00365105       0.24659333       0.59451699      -0.46416950
H       15.02694447      26.49747298       4.51558874       0.14510957      -0.18640590      -0.01697991       0.16509500      -0.54368120      -0.34955040
C       13.90568607      23.21486471      28.20733149       0.06935051      -0.02955520       0.04264714       0.39207253      -0.21992792      -0.85201246
C       13.24447241      23.60645237      26.88009278       0.45921145      -0.60749197      -0.40780333      -0.52681530      -0.42295274       0.21107848
C       13.00190147      22.43949347      25.89261759      -0.68084399      -0.28507538      -0.14423763       0.29517514       2.18776846      -1.00386941
O       13.09793553      23.16604486      24.57320137       0.49990838       0.72983919       0.47957087       0.68837023       0.29083601       1.64790559
C       13.77173485      24.33755469      24.77208131      -0.46374070      -0.06848909      -0.85421171       0.31689835       0.09042737      -0.85354149
O       14.06925800      25.09619909      23.86250102      -0.28945690       0.15569982      -0.67851934      -0.65942156      -1.19484210       1.99154675
O       14.07283086      24.53162539      26.09530340      -0.21993156       0.57456410       0.49345825      -0.67302293      -0.54513192      -0.99629176
H       14.79045257      22.59061279      28.02515648       0.03441677       0.03309521       0.07986030       0.02353341       0.29691052      -0.07757204
H       13.27744338      22.61978031      28.86405404      -0.11576407      -0.00428984       0.16112686      -0.49521568       0.03558148      -0.20612040
H       14.19496952      24.09857941      28.75423469      -0.02366285       0.10601847      -0.00639014       0.17112327       0.24827470       0.11751810
H       12.26890895      24.11801086      27.04076448      -0.07651889      -0.13245015       0.12490325       0.60670447      -0.21617222       0.04626814
H       11.98080297      22.10479755      25.93477299      -0.03245241      -0.27875760       0.12014588      -0.13772088      -0.53079486       0.14264952
H       13.77998722      21.68044220      25.92513347       0.14107907       0.06357010      -0.08131641      -0.18546736      -0.07293718      -0.02663847
C       16.12194485      32.26190480      15.55117487       0.16855064      -0.06607008       0.55819309       0.14102776       0.58909172      -2.77440166
C       14.89352581      32.72292260      16.24194931      -0.27142070      -0.42487651       0.07124437      -1.25599396      -0.67026913      -1.62109041
C       14.90863801      34.00648437      16.98933923      -0.16003347       0.83368946       0.76649856       0.10980562       1.39086068       1.78712356
O       14.20027486      33.66069143      18.26403002       0.14341025       0.02995413       0.15036150       0.59328634       1.45617342      -1.28806162
C       14.09107263      32.37340409      18.33487327      -0.13601760       0.29714934      -0.83458882       0.48881382      -0.08063449      -1.28443074
O       13.59148401      31.83282676      19.26829866       0.26670234       0.81039748       0.25324328      -0.32276478      -1.40913177       1.28989911
O       14.60474669      31.76290708      17.25009381       0.30432132       0.26117086      -0.14208598      -0.88675278      -0.54555678       0.98112953
H       16.90074776      32.34764333      16.24976352      -0.07139134      -0.15638752      -0.06627556       1.48707783      -0.09409298       0.56100178
H       16.30380277      32.87775547      14.62565574      -0.07031210       0.09209299      -0.10215771       0.08882279       0.16498025       1.13403392
H       16.12467530      31.28220022      15.02796286      -0.10107754       0.29586545       0.01651228      -0.52868909       0.07336549       1.11673391
H       14.05935162      32.77868348      15.51537220       0.06608596      -0.12020228       0.04319863      -0.00467023      -0.44034454       0.39850989
H       14.31821091      34.82228561      16.56218501       0.16885152       0.17442778      -0.08700574       0.26379061      -0.23651838      -0.19228989
H       15.89249903      34.36408536      17.30470475       0.17938575       0.01920748      -0.13304025      -0.11254631      -0.12259898      -0.28062370
C       28.53155977      26.81655456      20.78008711      -0.66075751      -0.29606342      -0.20688690       1.48057854       1.09013402       0.32805780
C       28.87963951      28.26828799      21.12721194       0.17858676      -0.89329798       0.02590951      -0.09935650       1.72459900      -0.62809139
C       28.02412266      28.89463784      22.21721674      -0.21217917      -0.14057336       0.36900156      -0.43919662      -0.67371619      -0.44940272
O       26.82088555      29.24780665      21.50140152      -0.56263509      -1.23372882       1.39111080      -0.84617811      -0.32873225      -1.29623878
C       27.10960849      29.35788492      20.18767424      -0.01453728      -0.11639402      -0.20266469       0.15573764       0.90155917      -0.00619933
O       26.37979949      29.75129897      19.29988014      -0.05156518      -0.03213595       0.22683702      -0.16347414      -0.17843252       0.90821183
O       28.38551767      29.08354494      19.93274441       0.50675026      -0.23080615      -0.55247249       0.47703895      -1.16714537       1.26171196
H       29.15545095      26.58881004      19.90440104       0.25022233       0.07873618       0.23435119      -0.35630146      -0.32104051       0.18894599
H       27.46269602      26.73357038      20.52949057       0.11899918       0.26446810      -0.09055146       0.41163793      -0.21116783       0.32796764
H       28.87106083      26.23175750      21.65314208       0.13339244      -0.12587232       0.07134454      -0.48816743      -0.18713008      -0.49915498
H       29.92954502      28.60907705      21.32000950       0.05203472       0.12789408      -0.19518022      -0.77380985      -1.01879501      -0.65492994
H       28.37369701      29.85556355      22.56283839       0.06974979       0.00294724      -0.12029554       0.60571778      -0.17873481       0.52948034
H       27.81094570      28.13107572      22.97817991      -0.11445795       0.13376720       0.03318457      -0.10920729       0.62566501      -0.01754657
C        9.38933862      21.77854225      12.02822138      -0.33264731      -0.50127829       0.73039277      -1.85757506      -0.26731446      -1.51782036
C        8.14415763      22.55789060      12.44329405       0.64650042       0.43742898       0.18391666      -0.06060338       0.06160955       1.90795565
C        6.78343528      21.87980910      12.14376415       0.71148548      -0.10740692       0.38303078       0.75556874       0.45904642       0.31400055
O        6.32962576      22.57970076      10.95993907      -0.11475049      -1.36640493       0.15441345      -0.15429503       0.22902343      -0.43715841
C        7.05674828      23.69531298      10.74761546      -0.27448945       0.19896475      -0.37541657      -0.08660946       0.86618078      -1.34633577
O        6.87169418      24.49004766       9.80767601       0.71702981      -0.23816068      -0.57645492       0.19780590      -2.08827639       2.73410034
O        7.99790259      23.80072014      11.68889110       0.32543989       0.06689387      -0.25485913       0.40836316       0.32548606      -0.43695074
H        9.45721664      20.82543211      12.53707558       0.04529290       0.05591701       0.14487824      -0.06670947       0.00583293       0.55688733
H       10.24282249      22.37701614      12.23036682       0.01189611      -0.07423676      -0.07239353       0.79286754       0.24847277      -0.14044952
H        9.25694451      21.47954695      10.95980044       0.03336921       0.07765558       0.09375882       0.47891685       0.54017913       0.45073900
H        8.24919186      22.86928039      13.55750555      -0.19810877      -0.05590075      -0.02629095      -0.39261001      -0.55688363      -1.89474058
H        6.07955660      22.06226757      12.96066598       0.20786960      -0.10707527      -0.08732348      -0.03613855      -0.21329533      -0.25703758
H        6.90764396      20.81694622      11.91254936       0.08142906       0.14699626      -0.01148713      -0.24139650       0.44752586       0.08560904
C        6.14512040       9.19487342      22.98209177       1.00443375       0.07432359       0.00887830       1.94343138       0.17890874      -0.35295981
C        5.33830485       8.55244278      21.92891256      -0.32786754       0.06474323       0.21754526      -1.10808098      -0.29587048      -1.13279319
C        4.90113551       7.07057408      22.16698822       0.19114096      -1.08190270      -0.63575504       1.03126574       1.36543620      -1.88092005
O        5.25327030       6.49917731      20.87576438      -0.99738519       0.52615287       0.07723030      -0.34878984      -0.98652631      -0.53880918
C        5.90871545       7.33230862      20.05562337      -0.14765670      -1.08563864      -0.47817586       0.20841081      -0.10490911       0.93661624
O        6.37407035       7.05073664      18.98491573      -0.68926619      -0.06262420      -0.14133704      -0.30828571      -0.29297557      -0.03751683
O        6.05917735       8.51361613      20.63132505       0.10897849       0.00356125      -0.47144008      -0.03538272       0.44311827       1.11625195
H        5.52675016       9.40181282      23.80427343      -0.18824275       0.00719249       0.20535325      -0.91994894       0.42358428       1.18134284
H        6.55812404      10.13568508      22.61152535       0.09634436       0.12308154       0.02927922      -0.18370880       0.09546002       0.15112682
H        7.00050068       8.62349598      23.38733750       0.03583950       0.18761671      -0.09273881      -0.49215639      -0.13060132      -0.52160013
H        4.45514401       9.17448581      21.68661631      -0.02791152      -0.06967327      -0.17124130       0.30034807      -0.35540754       0.27483800
H        3.82921736       6.94949326      22.32340706      -0.07746676       0.09638883      -0.10902663       0.45154145      -0.18983330       0.16105385
H        5.58654585       6.60307343      22.84993922      -0.06538342      -0.06437048       0.16975247      -0.19664608      -0.29426914       0.81876612
C       22.55732175       9.10964216       4.72426470       0.64332436      -0.30113069      -0.27400199       0.83862990      -0.15619639       0.07461579
C       22.08380042      10.35918209       4.07861571       0.25715845       0.10462369       0.45541095      -2.04347873      -1.13678324      -0.95847702
C       20.51263396      10.44215086       4.07159697      -0.11756829      -0.21830979       0.27603269       0.73286664       1.92412341       0.49304256
O       20.16869013      10.34687634       2.66332596       0.96877657      -0.11591897       0.14437927       0.37832081      -0.30213162      -0.20061859
C       21.28247903      10.31881101       1.88159639       0.50352725       0.12533255      -0.13625470       0.18043372      -0.16653663       1.80737197
O       21.27562824      10.18328867       0.68660631       0.56199960      -0.21721009       0.03351244       0.16013399       0.31845832       0.63098133
O       22.39222026      10.38036836       2.67731588      -0.37324448      -0.29943365      -0.64338217      -0.66716594      -0.17452101      -1.82644641
H       22.46311373       9.23087284       5.79480625      -0.13143653       0.06405574      -0.05036053      -0.58970118      -0.35970908       0.33764303
H       23.61296530       8.94583929       4.59270946      -0.06132352      -0.02891591      -0.18429249       0.69527984       0.17071821      -0.30625686
H       22.09179106       8.22014693       4.31527228       0.01944012      -0.01745821      -0.04211025      -0.50123537      -0.17307256       0.27514997
H       22.53582412      11.22649518       4.43975567       0.14236664       0.27394391       0.11892298       0.45572299       1.10210621       1.01146889
H       20.23486371      11.46766652       4.45593444       0.09608303       0.14073137      -0.03587716      -0.10289257      -1.22617221      -0.52453053
H       20.02377486       9.66373069       4.68224339       0.12039877       0.00033581       0.25055367       0.20366524       0.18994883      -0.60135961
C       28.02184210      16.57940421      -7.49502366      -0.67782388       1.45591703       1.57364631       1.30580342       1.59151363      -1.27624512
C       27.76909552      17.82239785      -6.75866964       0.48350349      -0.07196378      -0.28458066      -1.10924637       1.03424799       4.55742645
C       27.14095193      18.98455687      -7.49525249       0.10334273      -0.00430750       1.22793231      -0.11131540       3.63116026       2.91948986
O       28.01271172      20.14682004      -6.98231852       0.93910470       0.45049489      -0.53058602       0.21809727      -1.01220334      -0.54997385
C       29.16381756      19.70345253      -6.33155811      -0.73185905       0.75047073      -0.85424123      -8.97854042      -5.61337137      -3.69299078
O       29.93643734      20.41015847      -5.95407068       1.12864873       0.31282588       0.47454695       7.55963278       6.79413557       3.48651791
O       29.13748284      18.41874337      -6.11402354      -1.46139665       0.46901939      -1.68312202      -2.10112453      -2.16867566      -1.91330659
H       27.13945774      16.18492618      -7.90716781      -0.21332383      -0.41483761       0.14534802      -1.37801445      -0.71222746      -0.02278830
H       28.46666593      16.00799983      -6.76870132       0.03585683      -0.04952938      -0.00890088       0.90364134      -2.27751136       1.09019029
H       28.68510735      16.69500795      -8.36766355       0.39952819      -0.29340101      -0.48864635      -0.08654266       0.25161266       0.41192225
H       27.18425690      17.61216372      -5.69755027      -0.15113718      -0.28713449      -0.21174412       1.28443742       0.48021841      -2.91693282
H       26.04890388      19.42739358      -7.22375048      -0.02942532      -0.32400304      -0.34133137       2.49056554      -1.89060867      -0.54839098
H       27.33434763      18.95820444      -8.52359616       0.03567966      -0.19402673       0.29269157       0.04216568      -0.21971354      -1.40757322
C       11.90674571      10.21498610      -3.69058311      -0.36907407      -0.07704092       0.22914163      -2.08736062      -1.29033971      -3.28409076
C       13.21680331      10.87199701      -3.57704825      -1.23806436      -0.22677497       0.43491208       0.38683605       1.00709474      -0.84824520
C       13.90504497      11.34223174      -4.87158253       1.22912310      -0.53544929       0.34987688      -0.15414558      -3.23831630      -2.90391898
O       15.28967391      11.23276142      -4.48473766      -0.16097603       0.32388937       0.60557056      -0.13835269       1.09238458      -0.91571409
C       15.41858966      10.32124605      -3.53442125      -0.97945027       0.71516257       0.91521058      -0.14257258       0.19214657       1.70097649
O       16.46270468       9.93453834      -3.07891229       0.69694682      -0.39810242      -0.05778692      -0.28141722      -0.04051213      -0.59123546
O       14.21468306       9.99921629      -3.00267422      -0.09311700      -1.25930066       0.85990581       0.03957149       0.09438944      -0.76370758
H       11.44057116       9.83298142      -2.78395275       0.07082681      -0.28644056      -0.04179657       0.33017337       0.36872974       0.08354698
H       12.06269027       9.26777724      -4.37650163      -0.05410602       0.25182092       0.29580112      -0.52642924       1.75762200       1.20897150
H       11.11314406      10.93905911      -4.22882574      -0.38792064       0.37111563      -0.14712069       1.87615120      -1.62152326       1.22243989
H       13.12293314      11.77139533      -2.98767879      -0.18952295       0.18949159       0.40236859       0.24123698       0.11052606       0.67724574
H       13.59060732      12.19999221      -5.42683444      -0.44119681       0.17451498      -0.50489508       0.35801977       1.72319901       1.20923579
H       13.80951528      10.71471379      -5.93479919       0.00211642      -0.03983201      -0.35490994       0.05539619       0.12828043       2.98141885
C       21.93203323       7.80251855      29.55018736       0.03239711       0.88473558       0.38828971       0.62575865      -0.28533199       0.41004118
C       20.86993300       8.60756743      28.93046283      -0.29769721      -0.06909538       0.57670962      -2.77094436      -1.18677032      -2.14621687
C       19.83822420       9.36686216      29.75638662      -0.28333554      -0.45890272       0.65423480       0.85396081       0.70469719       0.83681089
O       18.75403229       8.47389115      29.97379748       0.74779312      -0.31681797      -0.94952989      -0.88857347      -1.04966462       0.27338466
C       18.73850507       7.48954624      29.02963116       0.24378530       0.25453446       0.50241931       1.54244673       2.09287763      -0.23983586
O       17.82117926       6.78827981      28.73732322      -0.85618974       0.37717549      -0.08458727      -0.17733970      -0.44062531       0.36219078
O       19.90708999       7.55377130      28.39344642       0.18506485       0.09930363      -0.42285397       0.23628691      -0.77847385      -0.60421902
H       21.47748503       7.28265630      30.41217230       0.20726962      -0.14581504      -0.06127131       0.47140330      -0.10064798      -0.28518718
H       22.77739951       8.40908596      29.87927357      -0.09410288      -0.11921816       0.00058902       0.00271553       0.04556972       0.06344803
H       22.26817165       7.10229745      28.75947891      -0.18380756       0.06650120       0.03483297      -0.09612650       0.08179126       0.78412151
H       21.11188499       9.02965334      27.94242296       0.16391894      -0.42742274      -0.03174475       0.40844351       0.56263399       0.84506691
H       19.42870274      10.24376360      29.24779430      -0.24996605       0.18713055       0.14528763       0.23718533       0.00494083      -0.01572264
H       20.25744036       9.63676263      30.73823350       0.07050806      -0.08461139      -0.23416824      -0.30677626       0.12836295      -0.41871366
C       16.04159476      19.51755210      -3.45514789      -0.44727048       0.00415464      -0.13332017       0.02654786      -0.87400955       0.06664935
C       15.87831749      19.58194545      -1.95742760      -0.27574335       0.34260043      -0.76588135      -0.42593175       0.08094518       0.32278541
C       15.31531149      18.33787533      -1.24785309      -0.11544798       0.41892934       0.06578823      -0.25267622       0.43232107      -0.41719410
O       13.90518755      18.66826407      -1.02906838       0.59444490       0.15394751      -1.04969430       1.10507524       0.93632323      -0.76900512
C       13.73994083      20.02515050      -1.32932397       0.57572368      -0.45078413      -0.12857093       1.06075335      -2.45929766       1.38434398
O       12.68688751      20.53098607      -1.16931249       0.13896488       0.11091418       0.28464052      -1.23691320       1.17410898      -0.24062619
O       14.88296588      20.60378180      -1.63371469      -0.30493774       0.30471676       0.44814229       0.05587475      -0.03257891      -0.37144959
H       15.13703718      19.18615630      -3.97853239       0.00913669      -0.06131025       0.10224705       0.02283430      -0.39420581       0.27812505
H       16.88741556      18.85838622      -3.65925717      -0.00360358      -0.08025339      -0.08459944      -0.16048452      -0.23261985      -0.13803351
H       16.28652016      20.44680722      -3.91295606      -0.33782642      -0.16261474       0.31848702       0.38696799       1.10452867       0.05570294
H       16.77379418      19.84872087      -1.42433072      -0.22133572       0.05674332       0.16491837       0.49656710       0.41425028      -0.26058015
H       15.85753321      18.11591124      -0.33225059       0.07304205      -0.12945325       0.10095904      -0.42472744       0.21343595       0.35391301
H       15.39997717      17.46295684      -1.86893871      -0.12990449      -0.07027585       0.12221326      -0.21392663      -0.35036537      -0.35246879
C        7.28348667      20.65188073       3.82053811       0.12541985       0.34818903      -0.16186343       0.96168715       0.08632258       0.30761355
C        6.35846685      21.26605667       2.81363615      -0.17463397       0.29877727       0.67471492      -1.43552768      -0.23746285       0.43784574
C        5.61305588      22.49455344       3.40928211      -0.22081538       0.56276401      -0.61856467      -0.97339493      -0.61785793      -0.23612370
O        4.35008787      21.86703245       3.92710545       0.31807528      -0.01405236       0.51101541       1.21543908       0.91571969      -0.85398924
C        4.12917082      20.72307448       3.25442203       0.17520801      -0.04634056       0.69499367       0.66605008       0.44026446       1.59662962
O        3.11069417      20.11131753       3.40397287       0.38380548      -0.51452651      -0.51106742      -0.21211201      -0.57264709      -0.64514077
O        5.21642653      20.33855473       2.58180048      -0.04225099      -0.94494313      -0.41612988      -0.07191197       0.09919271      -0.31135163
H        6.77653958      20.51687407       4.77654504       0.12074182       0.07312036       0.02274021      -0.30354482      -0.20245466      -0.10835153
H        8.05875597      21.40066944       4.04529634       0.07819387      -0.16322634       0.06160132       0.04649679      -0.27167162      -0.24356699
H        7.79134112      19.70436858       3.53156667      -0.15215349       0.12055733       0.09090904      -0.49578097       0.64187694      -0.07674581
H        6.75537447      21.40210863       1.81625823       0.20467926       0.10143419       0.06716892       0.29141945       0.22371480       0.18417801
H        5.32043619      23.23780475       2.64903060       0.16004246       0.13014001      -0.03738582       0.18944259      -0.32537782       0.29602051
H        6.12396990      22.98996106       4.24190447       0.02541405       0.11609274       0.06642032      -0.18891419      -0.33334640      -0.24553396
C       27.24157708       4.30968219       8.88444362      -1.07575875      -0.08951030       1.04753141       0.39811242      -1.44762969       2.18483090
C       28.15903866       5.51849834       9.08753870      -0.08214263      -0.83400326       0.39577763      -3.23717618      -0.57569402      -1.51656806
C       27.47756501       6.56180495       9.92798110      -0.88335015       0.60726742      -0.08372844      -1.29154277       2.25424480      -1.18472135
O       27.81578816       7.82143140       9.16808104      -0.18523839       0.05140273       0.82270524       0.60936648      -0.45602474      -0.28278202
C       28.27200763       7.49783949       7.95745030       0.13820391       1.00935317      -0.30690240      -0.70065582      -1.56503427      -0.71573353
O       28.52998352       8.24475367       7.04348031       0.01331833      -0.28282961       0.35353769      -0.14346023       0.17162257       0.88288462
O       28.31524707       6.13551638       7.77021648       0.29521893      -0.18608905      -0.08068554       0.31747296       1.27541840       1.36883724
H       27.61785522       3.58271146       8.14700990       0.02992645      -0.02128826       0.10930934       0.14691378       0.25650212       0.29957274
H       26.24540250       4.60043191       8.56201125      -0.06193603       0.08010516      -0.01525169       0.01641811       0.36945993       0.03041571
H       27.12294146       3.75442410       9.92791102       0.12645205       0.25204395      -0.20731002       0.22491984       1.13662958      -2.14778376
H       29.07558745       5.32446677       9.51188114       0.20582604      -0.26268130      -0.12630877       2.29871202      -0.76733387       0.50760108
H       27.86887811       6.74710787      10.91461071       0.04262427      -0.00126405      -0.24187460       0.03449736      -0.25880212       0.32798579
H       26.34972869       6.55731924       9.89460973      -0.04597184      -0.23327753      -0.12903145       1.22121334      -0.39538658       0.26129919
C       20.56615185      30.56918484      -1.89118604      -0.66123046      -0.83170471      -0.03110264      -0.90515912      -0.02240187      -0.46138760
C       19.21928997      30.11420018      -1.35433501       0.08830792       0.38309824      -0.63408490       1.04653668      -0.26415882       1.19035852
C       18.75420988      28.74553102      -1.86732375       0.20620237       0.25341957       0.16909068       0.89894152      -0.11747064       0.59533668
O       17.43514331      29.01711146      -2.33029445      -0.40555634       0.09319075       0.25359666      -0.33902901      -1.43441737      -0.36699289
C       17.17289746      30.29325667      -2.31452118       0.14903187      -0.12913753       0.08586648      -0.90555066       2.31108069      -0.45633948
O       16.18680711      30.81133565      -2.80007654      -1.06575887       0.34668060      -0.73212692       0.92047209      -0.66093165       0.46367067
O       18.16489311      31.01451861      -1.73276142       0.49135061      -0.48705383       0.14191035      -0.21526212      -0.61552447      -0.57226658
H       21.36001982      29.86401874      -1.70006246      -0.05300043       0.00568951       0.07390095       0.04500369      -0.45701250       0.17018577
H       20.78729342      31.46417698      -1.36791816       0.04134964      -0.20033804      -0.01506038       0.53788543       1.11290312       0.27773589
H       20.53388199      30.74848004      -2.96785548       0.11582691       0.24655921       0.06366176      -0.09999391      -0.07146713       0.02562197
H       19.27525083      30.13615583      -0.22602022      -0.10853462       0.00990188       0.01521005      -0.28598058      -0.13706779      -1.02640831
H       18.71758248      28.06288171      -1.00536875       0.02914149       0.22699659       0.06630571      -0.13503374      -0.13491450      -0.62395632
H       19.38739427      28.35403309      -2.70299047      -0.05731541       0.02334354       0.02089514      -0.68948865       0.37619346       0.77859777
C       21.80277647       5.28492872      23.99665456       0.08303818      -0.52047682      -0.94253514      -0.03733028       1.70755982       2.30496788
C       20.55164873       5.72627055      24.78873058       0.78837233      -0.21661059      -0.64171405      -0.06822410      -0.73631907       0.33950868
C       20.37006933       4.97410627      26.14072394      -0.60639198       0.85197007       0.12530802       0.47279000       0.57062519      -1.70468318
O       19.00528874       4.54804057      26.09103390      -0.87441353      -0.79860229       0.47249156      -0.39048913       0.09064750       2.33707452
C       18.43958734       4.83245883      24.97011700       0.48961752      -0.83167487      -0.19602340      -1.17430210      -1.13988924      -3.71799326
O       17.29916601       4.50627063      24.62068129       0.25942540      -0.28150409      -0.16368701       1.65571249       0.99356437       1.27974844
O       19.33301098       5.31037509      24.08039424      -0.21555322      -0.02684935       0.30775007      -0.24740677       0.52563703       0.32574096
H       22.02961307       5.97649891      23.19095517       0.10006640      -0.02858935      -0.14709205      -0.06766466      -0.24407335      -0.24516445
H       21.55965634       4.29261555      23.70822681      -0.10932103       0.14752293       0.03696608       0.36765215      -0.96415043      -0.62445003
H       22.67931839       5.32072576      24.72829442      -0.18934354       0.12321769       0.00642773      -1.09479928      -0.25973427      -1.05247498
H       20.41997332       6.78257556      25.01441899       0.03986819      -0.06296008       0.06934934       0.40670684       0.19502576      -0.48745543
H       20.52615022       5.69291435      26.91349702       0.08930485      -0.15402897       0.00070759      -0.03927645       0.02255589       0.93424147
H       20.98786441       4.09926037      26.20494167      -0.24611253      -0.21557951      -0.07392043       0.29204914      -0.39043075       0.28750351
C       38.67668644      16.08781292      15.74220618      -0.39693258       0.30855046      -0.40829019      -0.35346386       0.32160640      -1.27841842
C       37.41786892      16.54271002      15.06422132       1.23826945      -0.89019430       0.45663144      -1.58585846      -0.95292103      -0.38617697
C       36.28370141      15.46034425      15.15658320       0.46863152      -0.15470527      -0.17024926       0.23392758       0.87949246      -0.13778235
O       35.66763030      15.57116660      13.85963129      -0.56958393      -0.83491579       0.02667068       0.04412153      -0.11211872      -1.30790806
C       36.43347444      16.28756080      12.96178722       0.31405534       0.22778059       0.01566359       0.17139201      -1.03351402       2.48696351
O       36.18749584      16.42957545      11.80827207      -0.32307320       0.49302625      -0.90763388      -0.31394869       0.16698578      -0.42477101
O       37.53087788      16.72717979      13.59315142       0.08743183       0.13561687       0.23650571       0.33305711       0.29786873       0.69663078
H       38.38473746      15.90946654      16.77053862       0.02252986       0.29269738      -0.00346460       0.40216058      -0.07420193       0.34129593
H       39.40600857      16.87591717      15.62674961       0.00922426      -0.05963345       0.22607315       0.45497608       0.09575187       0.43816617
H       39.02935239      15.18961652      15.24194265      -0.10108056       0.11498990      -0.20410542       0.14435524      -0.27201492       0.20312056
H       37.03707754      17.47124047      15.47721376      -0.11236260       0.04129103       0.04218143       0.14804819       0.26954710      -0.19054095
H       35.46362926      15.69176877      15.85880479       0.19514263       0.06541458       0.09521787       0.78648293       0.00118361      -0.02337945
H       36.69021190      14.44073239      15.35872005      -0.08143295       0.08349800      -0.12516197      -0.42854941       0.72850221      -0.52712667
C       25.58645109      32.57458467       1.77963842      -0.10571655       0.63216928       0.68977695      -0.35273418       1.07749021      -0.30074796
C       24.64291417      33.55511926       1.17870519      -0.21686229      -0.27867937      -0.05912287       1.18528259       1.58563805       0.23842525
C       23.83149396      34.44874055       2.20609689       0.98830806      -1.24935496      -0.69747567       1.77047241       1.79004908       1.80727506
O       22.50620204      34.44529230       1.63668660       0.39340324       0.58845084       0.73792502       0.49405345      -0.60560292       0.69029444
C       22.49370661      33.62153147       0.62687832       0.66619202       0.48644976       0.84386240       0.44559425      -2.32564688      -2.89701915
O       21.55882260      33.30649854      -0.06220215       1.07339454       0.10160737       0.04859268      -0.33237216       0.64050972       0.56256318
O       23.71878387      32.98471402       0.29795010      -0.29883983       0.50343236       0.50002403      -2.88344359       1.11115634       1.84179366
H       25.99202135      31.84708745       1.08750334      -0.15267438       0.03067617       0.04794360       0.37688556       0.33028847      -0.11279403
H       24.92369905      32.12425317       2.42955753      -0.35800300       0.01973213       0.30305924      -0.62731010      -1.79160070       2.02811027
H       26.26138243      33.19961990       2.35592295      -0.20710655      -0.31047502      -0.20508457       0.59330273      -0.57955796       0.05507933
H       25.17623300      34.22112866       0.55904522       0.04322102       0.35599819      -0.24896268       0.79544592       1.07429230      -0.62506348
H       24.20803312      35.58093523       2.23485645      -0.14212949      -0.33240553       0.04309182      -0.73655635      -2.44822860      -0.44416669
H       23.89721907      34.19099099       3.37385736       0.44900812       0.26899375       0.24578660      -0.70396435      -0.17714493      -2.90071917
C       24.84916532      12.82936219       7.79579955      -0.34173528       0.40236095       0.23490479      -1.24908137      -0.89408398      -0.78795689
C       25.10960268      11.71155102       6.78946291       0.28496724      -0.24069726      -0.29167810      -0.51749730       0.31982362      -0.58278602
C       26.20667652      10.68504518       7.08177124       0.99597279       0.46949871      -0.13901547       0.76775151       0.91724718       0.71342838
O       27.24962912      10.90649823       6.10010505      -0.63273011      -0.07828784       0.12925800      -1.01254725       0.03076747      -0.54994816
C       26.79902586      11.86380479       5.23251669      -0.31180064       0.70909057      -0.44801123       0.57300836      -0.50047672       1.45259893
O       27.45192531      12.29273870       4.34186784       0.53512726      -0.30659212      -0.31810216       0.82344586       0.14419048      -1.28894472
O       25.63164022      12.31228817       5.58834673      -0.25192087      -0.85469063       0.10744503      -1.05630004       0.73929507      -0.49347556
H       24.11642201      13.52192190       7.35179526       0.05690310      -0.02843524      -0.16125482       0.12373321      -0.27507418       0.18049923
H       25.70391173      13.39608842       8.06892216      -0.16232686      -0.16718358       0.00649380       1.06194639       0.26808101       0.20582473
H       24.41023231      12.37484110       8.67559789      -0.07767797       0.03331293      -0.08504489      -0.09502516       0.11398026       0.29113376
H       24.13856280      11.23157513       6.47267211      -0.18160432      -0.15016946       0.19181579       0.98316741       0.36873567       0.55573660
H       25.80730964       9.70564855       7.04466241      -0.09902047      -0.17536150       0.04034212      -0.02736104      -1.14298165      -0.30077329
H       26.72571515      10.84533173       8.01974036      -0.03453628       0.07386662      -0.03766427      -0.31805003      -0.02273324       0.41729909
C       28.67416736      30.05217493       1.16489450       0.27129437       0.16305128      -0.46264368      -0.11061645       0.30918086       0.19075003
C       27.87575138      29.67982995      -0.08843181       0.27568136      -0.86253193      -0.21785210       1.18027651      -0.27896953       1.46166360
C       28.79607586      29.33607558      -1.24365551      -0.33032298      -0.14666957      -0.07060059      -0.49714041      -0.67828584      -0.72305536
O       28.76108152      30.54988457      -2.01540970       0.38436842      -0.25213810      -0.39974238       1.20063961      -0.08185852      -1.07740569
C       27.74211054      31.32004944      -1.67861243       0.72687489      -0.41132959      -0.22116953      -1.13432515       0.13512978      -0.65618968
O       27.30843295      32.25850744      -2.32370452      -0.68494057      -0.19651490       0.29064283       0.89301437      -1.06309128       1.13620913
O       27.17002480      30.79216395      -0.59448778      -0.32546700       0.60798884      -0.62256282      -1.21353257       1.37797749       0.15723604
H       27.98011516      30.26734597       1.97230477      -0.01344503      -0.00442142       0.00985666       0.03237584       0.45702368       0.15446159
H       29.43383952      30.84692947       1.04515975       0.22380947       0.20375620       0.06713555      -0.71261865      -0.09646577      -0.30950686
H       29.24594030      29.21105458       1.52240653       0.06340501       0.10340237       0.15532264       0.12751198      -0.78982049      -0.08495273
H       27.10457738      28.95328757       0.20700465       0.05364226      -0.02131156       0.01511674       0.47615919      -0.14471276      -0.55892569
H       28.39052005      28.52669927      -1.85366919       0.10546957       0.14066187       0.12458742      -0.13331522       0.13099423      -0.21327117
H       29.82933268      29.06468051      -1.03544529       0.02605478       0.11625079       0.18924179      -0.00655302       0.37309048       0.42396405
C       41.04542307       7.84682445      16.80714122      -0.12295135       0.45061723       0.65255690       0.64218473       0.82207108      -0.63381743
C       39.83429211       7.05626882      16.33308493      -0.38977874      -1.24949314      -0.12606614      -1.17969203       0.22177131       1.74030447
C       39.45515686       7.37443377      14.90973553       0.04353255       0.61778774      -0.02351643       0.78759658       0.37741771      -1.49682021
O       38.08819432       7.83872075      14.92092325      -0.26933662      -0.15216338       0.42197398       0.11185648       0.12659237       1.83008230
C       37.71965672       8.01488069      16.22900582      -0.87908120      -0.00384078       0.37486942      -2.35399008       0.56746697       0.13076408
O       36.61431485       8.47445404      16.59146903       0.23473155      -0.88719397      -0.79115275       2.91085935      -1.15427876      -1.29636192
O       38.64548729       7.61053074      17.09138329      -0.58655802      -0.83235002      -0.91974846       0.39986184      -0.18186876      -0.96889335
H       41.80277074       7.79067543      15.99988000       0.01773385       0.17220691       0.10215151      -0.05513708      -0.31392425       0.59696311
H       41.50409478       7.61513448      17.78076938      -0.01019156       0.11296692       0.06797771      -0.36418730      -0.37717882      -0.37158883
H       40.82517558       8.94193543      16.84189076      -0.08010335      -0.17984075      -0.08033084      -0.29742950      -0.80095822      -0.00590166
H       39.78821236       5.96459110      16.55780815       0.18054630      -0.23783001      -0.18294501       0.45015830       0.84057462      -0.15842588
H       39.54403705       6.53190314      14.21897071      -0.28553128       0.08324594       0.10812564      -0.34527075      -0.06812723       0.29846761
H       40.15633121       8.13973815      14.48871392      -0.25543082       0.23031994       0.12554098      -0.96115273      -0.06830736       0.42372349
C       18.68268585      18.20233501      14.31656556       0.36790734       0.62952455       0.01259593       0.76849163       1.24635923      -1.36424196
C       18.11850795      19.32268578      13.40319415      -0.40495728      -0.60653450      -0.07238680      -0.47618556      -1.50036633       0.65447354
C       18.62242182      20.66959107      13.79246154      -0.24443138       0.49001368      -0.53142368      -0.07820247       0.67499113       1.38153040
O       17.75952759      20.90607969      14.99164251       0.26299362      -0.52721683      -0.46397688       0.92549038       0.85726464      -0.33895478
C       16.60069942      20.31359895      14.80920234       0.12693716       0.43640230      -0.73919552      -1.32662070      -1.05726969      -0.11611423
O       15.60744782      20.49077750      15.51334081      -0.13270598      -0.09466402       0.30805060       1.51606107      -0.31144530      -1.24887419
O       16.69331121      19.43564804      13.76261129       0.33013142       0.10367257       0.21863865      -0.39893985       0.90839612       0.61214352
H       19.67433076      17.94352321      13.95864927      -0.06049903       0.03676816      -0.02544315       0.16261159      -0.14556371      -0.12950470
H       18.05217259      17.35609405      14.22490547       0.05752580       0.23186622      -0.00684012      -0.63356286      -0.86914235       0.08247663
H       18.81743759      18.53858068      15.33307175       0.09247238       0.06320231       0.05780794      -0.28924772       0.13396358       0.41869104
H       18.16595323      19.04989459      12.33836200      -0.12702515       0.00977494      -0.15424591       0.02572726       0.31909549       0.58102995
H       18.44834551      21.49401023      13.10833614       0.08482380      -0.10590853      -0.11834702      -0.21507365      -0.01241309      -0.19799994
H       19.64463561      20.71658048      14.17204833      -0.01480411       0.02104170      -0.18177568      -0.11818790      -0.30136022      -0.22020522
C       19.06976009      27.72211445      14.12237164      -0.06889001       0.02836800      -0.54347745       0.83314347      -0.21173608       1.15297699
C       18.65672372      26.27595813      14.09986117      -0.14952099       0.05048834      -0.34793060      -1.39327765       0.15901549      -0.95181078
C       19.59968800      25.30730737      14.79179241       0.44079396       0.01458298      -1.33913526      -0.54476649      -1.35819387      -0.01282712
O       20.00328236      24.41210851      13.71719943       0.52675530      -0.56754537      -0.28169208       0.30392331      -0.06798670       0.70613790
C       19.41882974      24.75157628      12.57887669      -0.19863650      -0.16588748      -0.42940364       0.80035663      -0.34116855      -1.82030058
O       19.60575246      24.16864381      11.52237560       0.07727796       0.27505523       0.24717248      -0.24608690       0.25935709       1.20435166
O       18.72276422      25.86514142      12.66566052      -0.07573888       0.00578683       0.14441988      -0.34750709       0.13894342       1.32154417
H       20.08163299      27.76769422      13.69796928       0.08969034      -0.29387165       0.18940904      -0.04846101       0.10885833       0.18950172
H       19.11871586      28.06155405      15.18835687       0.09533149      -0.11520551       0.10307905      -0.16866979      -0.07190455      -0.98186743
H       18.46665270      28.37351796      13.50803004       0.06720489       0.07305351       0.05599615      -0.46502134       0.08470166       0.08320961
H       17.59873449      26.06904904      14.40120986       0.10927725       0.05880358       0.28750778       0.94502425       0.52805644      -0.15503322
H       19.07969040      24.65750621      15.54400646      -0.05679349      -0.04763388       0.03624214       0.47410184       0.77590406      -0.55922914
H       20.48999728      25.76731276      15.21153095       0.17147062      -0.05950818       0.00817842       0.06951029       0.16200428      -0.04445229
C       21.28216783      12.12192026      11.92241639      -0.60811112       0.05545808       0.10941643      -0.24398185       0.07010438       0.24926102
C       21.37204373      13.58277999      12.24237756       0.19402084       0.63454344      -0.30367194      -0.34674782       0.92150509       0.44050053
C       20.81020882      13.97866651      13.63975474       0.23607879       0.06695063      -0.39436231       0.43989253       0.59520811      -0.74330860
O       20.12539831      15.26207247      13.42078121      -0.11276288       0.17392896      -0.39682849       0.77287567      -1.14420497      -1.56995165
C       19.79932518      15.26399889      12.08077918      -0.09225206      -0.57227864      -0.28870302       0.13537446       0.43873668       1.28405464
O       18.96027306      15.97911947      11.62739920       0.06417331       0.95165068      -1.00929974      -0.28784758       0.45397016      -0.35616887
O       20.51223520      14.40463143      11.34895850       0.00174337       0.11326919      -0.19067773       0.79072160      -0.70391887       0.81331491
H       21.86559994      11.90265546      11.03564635      -0.09993855       0.14136512      -0.09777997       0.11183457      -0.23141526      -0.09901844
H       20.24903274      11.79548437      11.76289548       0.04378796       0.14782582       0.18726760       0.09455898       0.07289552       0.11594383
H       21.68146411      11.61252017      12.80856167       0.09325456      -0.07602656      -0.11455218      -0.05558409      -0.27686736      -0.25729817
H       22.43518371      13.88587745      12.13055480      -0.15768368      -0.02953020      -0.14210726      -0.82039899       0.32183281      -0.04376193
H       21.62574387      14.05941540      14.37313724       0.05917066      -0.03423879      -0.01197871      -0.55307096       0.17793950      -0.16824095
H       20.03115368      13.31982714      13.98104821       0.06176202      -0.05155198       0.02268536      -0.03261337      -0.69888842       0.22869031
C       29.46561319      23.96098566      12.63058347      -0.12489007       0.58169268      -0.23134744      -1.00362444      -1.19594157       0.08652168
C       27.91625448      23.89161385      12.50105675      -0.09236597      -0.18802125      -0.14955457       1.32889557      -0.02376984       1.20732760
C       27.41277090      22.66607096      11.72315908       0.04498382       0.25298783      -0.30119105      -0.45764849       0.95282590      -0.08551744
O       26.65242288      23.31481110      10.65630307       0.89730084      -0.20190288      -0.59235732       0.21299987      -2.64352226      -0.30476546
C       26.93967466      24.57399430      10.58305853       0.79972378      -0.09781033      -0.59406400      -0.73961246       2.03464413      -0.36659783
O       26.62233886      25.28087913       9.65032418      -0.19729866      -0.17409172       0.16160186       0.21240576      -0.12870243       0.59293115
O       27.48758737      25.00828999      11.72007139      -0.76397903       0.50431299       0.09689612       0.39478794       0.56179148      -0.68740112
H       29.89097279      23.07069521      13.11331729      -0.22618908      -0.19800906      -0.18231233      -0.47050649       0.16612978       0.42656928
H       29.77190213      24.83163635      13.18791047       0.05227797      -0.13369693       0.04780358       0.17197736       0.20236510      -0.03568053
H       29.92119559      23.88376818      11.65262101      -0.09121162      -0.32748005      -0.04679475       0.00499300       0.62289649      -0.48310032
H       27.41293539      24.02517016      13.47116940      -0.01019791      -0.02887917       0.02128880       0.29550129      -0.40409023      -0.24926671
H       26.69434302      22.07610261      12.30300537       0.00341173      -0.02598618       0.01577977       0.49182123      -0.12340267      -0.28565192
H       28.25605930      22.12798056      11.26068551      -0.05356202      -0.14689051       0.13640638      -0.49215543      -0.12203339       0.18889116
C       11.23383265      19.12112881      17.97009470      -0.11051063       0.26290288      -0.32082817       0.77701491      -1.72183335      -0.23093426
C       11.28469899      19.22842787      16.46995796       0.36546645       0.34644162      -0.65933902       0.00971597      -0.90889013      -0.25249419
C       12.71076210      19.61627050      16.00696566      -0.48185760       0.02587710      -0.99596074      -0.03392166      -0.95332366      -1.35341167
O       12.51634721      20.83743050      15.25705145      -0.56414179       0.03067787       0.95170843      -0.12888189      -1.06361425       0.47621521
C       11.21100295      21.07642054      15.16917845       0.17039527      -1.05258797      -0.56429605      -0.02719739      -0.27721503       0.52300137
O       10.79214624      21.94935624      14.48657616      -0.86057293       0.08272307       1.32206061      -0.85190296       1.05920029      -0.40718141
O       10.45336348      20.26648519      15.94653746      -0.13668429      -0.87340016      -0.28775568       0.47904554       1.22773433      -0.26775867
H       10.31926940      18.64742072      18.30628255      -0.00087710       0.03819548      -0.06410174      -0.22190239       0.11803325       0.24445337
H       11.38918558      20.06870143      18.39768979       0.22947413      -0.14128559      -0.00772476      -0.02913713       1.41100895       0.76377165
H       12.10604159      18.49863434      18.32208272      -0.09132068       0.07034992       0.33607098      -0.90262938       0.39300147      -0.41789824
H       10.80281258      18.35847969      16.00127605       0.08436129       0.04000599       0.10469941       0.98882812      -0.21158092       0.17259476
H       13.19639601      18.87594607      15.30770699       0.13572384      -0.22297099       0.22411014      -0.43974513       0.68592829       0.92427611
H       13.34101943      19.83178234      16.85328917      -0.07258886      -0.13777046       0.24479646       0.37337935       0.06020666       0.16866276
C       30.72519195      12.76736388       5.87494093       0.07935052      -0.52569697       0.00457331       0.23790391      -1.10090005      -2.43243670
C       31.11590720      11.76684552       4.74914716       0.62263391       0.29748171       0.06248175       0.83802891       0.44612744       0.50891358
C       31.06504966      12.22722954       3.27036957      -0.50222310      -0.55087706       0.05318273       1.15935922       0.66331685       0.36886847
O       30.15085177      11.35635402       2.62779788       1.45690939      -0.45034987       0.19224182       0.01036225      -0.81671244       0.22827134
C       29.72053373      10.47486714       3.53236724      -0.20613522       0.54493823       0.23834642       0.31267169       0.41137379       0.72733355
O       28.98800670       9.55962349       3.31741101       0.18414749       0.20397191      -0.48612336      -0.44621924      -0.60938364      -0.80383003
O       30.17598388      10.72206181       4.76650880       0.75744838       0.71894647      -0.03847208      -0.75499862      -0.88384455      -0.57616305
H       31.33262574      13.64495397       5.67676317      -0.24303818      -0.01630132      -0.16472515      -0.47642612       0.60379755       0.22919402
H       30.99020402      12.35324859       6.81736783      -0.12001787      -0.18209367       0.10000029       0.23837394      -0.39924079       0.83021414
H       29.63857309      12.80657320       5.75555946       0.29825551      -0.00793757       0.00900918       0.16221860       0.94857067       0.28795600
H       32.07457197      11.28648925       4.94242393       0.14740872       0.06277123      -0.05649977       0.12784699       0.29306540       0.12806146
H       32.06071594      12.19927149       2.78458809      -0.17790800       0.07552170       0.01052272      -0.58691919      -0.36197287       0.21976870
H       30.69203030      13.21514694       3.13981712       0.31913375       0.06285733       0.03720674      -0.36702350       0.96647096       0.09651181
C       24.94020543      27.26249273      11.79910602       0.75540460      -0.28527241      -0.13168926       0.06584356      -0.52264935      -0.94366324
C       23.74775309      27.78026162      12.50152583       0.10753090      -0.53910905      -0.35168509      -0.57310987      -0.75352561       0.57536066
C       22.80780796      26.68643014      13.01545978      -0.00826179       0.09031563       0.23655209       0.23730277       0.25359637      -1.47177529
O       21.79225317      26.64509761      11.96589308      -0.31475977      -0.01308698       0.42314741       0.00403926       0.16033298       0.77409291
C       21.84800752      27.79034029      11.24070659      -0.24893151       0.50672256      -0.54186160       0.11887768      -1.42044115       0.49853572
O       21.13121377      28.01683293      10.32255006       0.17857473       0.21225093      -0.35732781      -0.51024473       0.27206725      -0.41451570
O       22.84508057      28.54384066      11.65768015       0.59231635      -0.05972716       0.22488850       1.23722756       0.85749936       0.16236977
H       25.52522347      28.05333943      11.33691875       0.08031010       0.05086245       0.08727931       0.08846378       0.08423487       0.01470683
H       24.58619559      26.59026544      11.01963472      -0.12369538      -0.11543631       0.06680273       0.36436814      -0.21528934      -0.23261184
H       25.55410021      26.68902504      12.50103450       0.12840367       0.08134305      -0.12528827      -0.02296025       0.11746823      -0.11515459
H       24.09825381      28.35440229      13.32511465      -0.06987634      -0.01135570      -0.11444269      -0.24807930       1.07514060       0.67853028
H       22.45924982      26.97949241      13.97197259       0.02247312       0.13315858       0.05591158      -1.14201796       0.23670001       0.85054457
H       23.22236644      25.69672012      13.09150518      -0.16007739      -0.03879909       0.09914994       0.40197149      -0.26038152      -0.11957840
C       26.94671584      27.89135975       6.49807597      -0.06104208       0.65674697      -0.62528075       0.73191506      -0.31460670      -0.11818789
C       27.45097900      27.02296873       5.31988911       0.28753659      -0.12612106       0.10697532      -0.98343563      -0.39572203      -0.28666118
C       27.51450698      27.71325585       3.91014838       0.01940865      -0.23048927      -0.04896306      -1.43115699      -1.18768823       1.65014935
O       26.88362414      26.76207495       2.99159278      -1.10007686      -0.55424144      -0.03314934       0.58655858       0.56374556       1.35376453
C       26.32737876      25.75425634       3.71978931      -0.18131295       0.04186002       0.69165469       1.03716946       1.42538869      -0.14628376
O       25.81932336      24.84238714       3.15889035      -0.62007895       0.47758388       0.01688701      -1.01962996      -1.51098692      -0.37363443
O       26.48894747      25.88684106       5.02869338      -0.42639711      -0.13448057      -0.02069544       0.27683386       0.95491487       0.20128620
H       26.80398644      27.27426329       7.39738663       0.03285016      -0.17304960      -0.09098870       0.13170078       0.06480643      -0.29175508
H       26.01411739      28.37765484       6.27645577      -0.04855154       0.01683135       0.17064849      -0.65288520       0.03501263      -0.39507386
H       27.65653982      28.71673541       6.74673649      -0.00192623       0.02415315       0.20982420      -0.27564579      -0.84818077      -0.36598474
H       28.36277986      26.47440952       5.57769372      -0.00243358       0.02147618       0.14157494      -0.05551399       0.48726174       0.00336960
H       28.54191093      27.83236048       3.72772457       0.08191567       0.14248545       0.01355296       1.16849494       0.40254977      -0.98469996
H       26.94744754      28.63576821       3.93632498      -0.16163006      -0.22448550       0.38799904       0.02815374       0.19609344      -0.34026611
C       19.92133577       6.36981849      20.93542936       0.32545111       0.49978200      -0.29721205       1.24972761       1.25080752      -0.45921478
C       19.37906519       6.44358547      19.55432405      -0.24950863      -0.09932683      -0.76851123       0.25396630      -1.45412827      -1.97695351
C       19.96266719       7.62876157      18.67011097      -0.48533632       0.08214181       0.16872450       0.20850180      -1.40572000       1.57348812
O       18.85347269       8.48916662      18.46762581      -0.38389994      -1.41207944       0.69551519      -0.68739665      -1.08841705       0.45595539
C       17.74492562       7.88015773      18.99049440       0.69801960       0.47735958      -0.61949776      -0.67178524       1.07219267       0.17750472
O       16.66714837       8.39709041      18.94246417       0.70229293       0.56482806       0.38454553      -0.28960490       0.10943970      -0.16007119
O       17.97289759       6.72839807      19.58998878      -0.07293120       0.28164361       0.36517252       0.20254028       0.52618074      -0.42091423
H       19.51123927       5.60131578      21.55247844      -0.09277829      -0.10260170      -0.06765664      -0.50412691      -0.40892515       0.35707578
H       19.81175928       7.38039656      21.35079237      -0.01963886      -0.00604237       0.18045859      -0.14893773      -0.31542569       0.45763293
H       21.00463308       6.22357899      20.85459214      -0.01467530      -0.05254180       0.03079344      -0.11305545      -0.14324147       0.11021695
H       19.42616482       5.44986937      19.01677646       0.18636276      -0.14907903       0.13113925       0.25545710       0.98314017       0.45067504
H       20.41522145       7.37764911      17.73227076       0.10204443       0.30003604       0.01898715      -0.04947324      -0.38973722      -0.56852245
H       20.72703001       8.06007446      19.28455799       0.29250685      -0.37863419       0.03702931       0.34875998       0.90912151       0.17651187
C        1.87793360      24.24876187      21.09043977      -0.18087999      -0.37544014       0.27605742       0.71027148      -0.86755836       0.04548987
C        2.22947210      24.32835651      19.62296336       0.42373750       0.11671236       0.76362123       1.12129390       0.36140946       0.32855126
C        2.54545873      22.96723159      19.03612832      -0.55791597       0.14870534       0.12412465       0.75261617       0.64642888       0.15727982
O        3.73124705      23.19376653      18.23076987      -0.05763757       0.21159340       0.48100910      -0.80520183      -1.08389330      -0.49221507
C        4.28714430      24.32216524      18.56728252      -0.38212141       0.30786205       0.44790965      -3.07347870       1.00477767       2.60450149
O        5.34594191      24.68093854      18.23489228      -0.17842905      -0.64105702       0.15867690       2.83519554       1.25648594      -1.08843970
O        3.45656631      25.04544465      19.43964281      -0.24646054      -0.45603020       0.80176013       2.41563845      -0.54465830      -1.07986498
H        2.84693641      24.11279291      21.72901187       0.03395443       0.06733334      -0.01828957      -2.09678960       0.06427953      -1.23989594
H        1.15870605      23.41000432      21.15020625       0.12059102       0.00503293       0.14423825       0.51885653       0.03054224       0.48655158
H        1.29544850      25.09628669      21.36970755      -0.43497684      -0.15965874      -0.02817589      -0.13716197       0.81157064       0.49284247
H        1.61598453      24.92340068      18.96182326      -0.24115207      -0.03534338      -0.07540756      -1.28621411      -0.41038311       0.22231293
H        1.74115393      22.73333005      18.40092144      -0.10077919      -0.06779969      -0.08297667      -0.80635089      -1.03890944      -0.80122328
H        2.83503513      22.21537662      19.75716744      -0.11049754       0.07444268       0.10616929      -0.34736964      -0.16886853       0.26774782
C       35.00438473       4.77982175       6.28469708      -0.14452463      -0.86697007       0.09992465      -0.73477793       1.17888927       0.41441476
C       35.59414375       3.44877032       5.82371508       0.27324503       1.10311750      -0.69332321      -1.32428098       1.00064957       0.37910771
C       37.04231409       3.21829813       6.08574097      -0.47824499       0.85280145      -0.62876729       0.28095961       3.67938614      -1.45040321
O       37.61190030       2.82783759       4.86992767       0.02795968      -0.69476588      -1.76348468      -1.02375865      -1.11910081      -2.40398526
C       36.64708277       2.90141800       3.85202044       0.36902238      -0.28031146       0.61289397       0.90982842       0.85801810       2.82664490
O       36.91917941       2.73988258       2.71224425       0.27927863       0.80184614       0.47807087      -0.43084568      -0.17099318      -0.71770477
O       35.46612711       3.32065240       4.38814443       1.22237900      -0.64293090       1.26347120       0.73638213      -0.34553975      -0.71860963
H       35.35123409       5.67031811       5.72334278      -0.04613472       0.35033975       0.00054067       0.38449925      -0.53791159       0.27505437
H       35.01687135       5.03192506       7.39527469       0.16997938      -0.18600672       0.19611130       0.55808055      -0.80762964      -1.32747626
H       33.92565463       4.75055662       6.09620211       0.02982848       0.00604794       0.13842519       0.24307705      -0.05779709      -0.01880089
H       34.93346625       2.75442853       6.29239058       0.18625680       0.17606234      -0.19239243      -0.16036291      -1.21849668       0.06534377
H       37.23559826       2.56731318       6.84308763       0.15800859      -0.33264006      -0.05440226       0.69042099      -1.87552571       2.03608561
H       37.48306879       4.22694225       6.23744283      -0.49094955      -0.08242556       0.14830843       0.03806103      -0.56508791       0.73113030
C       36.34680319      14.48483418      18.98038562      -0.12773679       0.44623779       0.49724230      -1.36081457      -1.61862290      -1.51692343
C       35.38394070      13.30242320      19.28233273       1.25393341      -0.58931083       0.45968579       1.06098318       1.27691710       0.48062903
C       35.09071029      12.95218115      20.79932994      -1.52142016       0.50490633       0.98381436      -1.21160746      -0.53441972      -3.02594995
O       35.28304704      11.54985623      20.83154696      -0.24671033       0.19604006       0.75014810       0.73032558      -0.97718608      -1.19925225
C       35.73438784      11.12446923      19.63291901      -0.12089698       0.60705053      -0.29935747       1.39790642      -1.24270058      -0.56016314
O       36.02808269       9.97109620      19.39095232      -0.67174110      -1.14650554       0.09528391      -0.64245909       0.47160387       0.54797786
O       35.98103524      12.08205672      18.71105360      -0.00646790       0.26622746       0.45841952      -1.49379861       0.45108169       2.34794426
H       36.53071023      14.45329572      17.88596125      -0.19959898      -0.22446281       0.00834165      -0.39373761       0.15604445       0.40623707
H       37.30011954      14.30915452      19.39460543       0.03296056       0.13122031      -0.28037841       0.92187375       0.21379299       1.10130620
H       35.87799552      15.42696284      19.20312231      -0.09322831      -0.07453388      -0.21412657       0.04858781       0.40524414       0.38118562
H       34.44400463      13.46769830      18.80352302       0.07587197       0.15240504      -0.07648532      -0.46103731      -0.01459392      -0.54470038
H       34.03841197      13.06369425      21.00838330       0.09024786      -0.56491009       0.07821002      -0.20504926       0.63039953       0.09146912
H       35.69532195      13.42702262      21.48878337       0.22383969       0.23479285       0.15489729       1.38935792       1.00640249       1.43590856
C        7.88542611      25.24497737       6.52981852      -0.07295196      -0.05545558       0.09984230       1.13804984       0.27338821      -0.04940140
C        9.24035563      25.60342284       7.19127024      -0.77253274      -0.21946588      -0.14658312      -1.04987490      -0.27787226       0.99292976
C        9.07773992      26.05164790       8.68663188      -0.57451161      -0.17420479      -0.18296710       0.10685381      -0.44492546      -0.48700339
O        9.84655261      27.29464690       8.74567460      -0.00378355      -0.56352027       0.32620742      -0.54698253      -0.13146460       0.03415453
C       10.19526100      27.63544761       7.51492812      -0.25211057       0.62104142      -0.45969661       1.07151985       0.90627921       0.07482404
O       10.80579271      28.64593792       7.23268955      -0.28992258      -1.32613387       0.54508883       0.09035468       0.48441464       0.42166248
O        9.88151706      26.75918920       6.61380886      -0.13119910       0.29849358      -0.19022863      -0.75830472      -0.62834340      -1.17170298
H        7.55803067      24.24962451       6.90361499      -0.21008946       0.02212925       0.01628297       0.10116447       0.81967372       0.06839740
H        8.01010474      25.13872337       5.42657762      -0.08558195       0.12114727       0.07433399      -0.20781870       0.32933486       0.74471414
H        7.22173666      26.07830395       6.81914397      -0.12393180      -0.03069569      -0.13492327      -0.21713819      -0.70276648      -0.50751603
H        9.95468281      24.81240863       7.11519584      -0.07818297       0.17448527       0.11999905       0.35783345      -0.52272952      -0.12448443
H        9.56840244      25.35486962       9.37662174      -0.03656406       0.00171347      -0.04145314      -0.44396505       0.17504944      -0.11724570
H        8.01814263      26.24153332       8.94312392      -0.17758707       0.32825189       0.07751972       0.89277148      -0.02151870      -0.00786484
C       17.19340844       0.71279724      12.92573086      -0.45840871      -0.36301709      -0.01132655       0.55452877      -1.92313802       1.03705668
C       16.11304058       1.45335455      12.22803936       0.17427094       0.01887499       0.89871830      -1.01562595       1.79190862       0.21107762
C       15.24354692       2.35356955      13.20060484       0.02309269       0.24274468       1.79649866       1.13785720      -1.29514790       2.60306787
O       13.89594626       1.85878600      13.00362617       0.14300827       0.49446773       0.81448638       0.22938572       1.17978489       0.85775125
C       13.89695145       0.84643008      12.20718231       0.11028119       0.31195098      -0.34176404       1.32819676      -1.37784815      -1.92814565
O       12.95402956       0.20561087      11.82871569      -0.97496677      -0.26428227      -0.03284987      -0.91658390      -0.13200857       0.43084782
O       15.13012815       0.54600176      11.70579863      -0.61130711       0.51144361      -0.03247917      -0.53544307       0.39598298       0.50558764
H       16.89479306       0.14497837      13.88552036       0.10010960      -0.02363524      -0.10687432      -0.05586647       1.08102369      -1.71102870
H       17.93374776       1.42833645      13.24877844      -0.00862250       0.35947624       0.07952022       0.55373323       0.20806108      -0.07223743
H       17.64564493      -0.06551239      12.25885187       0.04061604       0.03069478       0.24492864      -0.22165090       0.81932855       0.33711791
H       16.47455857       2.11066212      11.39074283      -0.04547707      -0.18789638       0.04621431      -0.25155255      -0.79929888       0.87691438
H       15.28788801       3.42741209      13.12683771      -0.14822003      -0.11040486      -0.01942836      -0.19511917       0.15112048      -0.88157988
H       15.54119981       2.17432351      14.34631199      -0.19273897      -0.09234961      -0.41130543      -0.67473400      -0.02854843      -2.42314553
C       -2.08329808      17.47467819      11.88187508      -0.35112396      -0.15875681      -0.23862843      -0.41431963      -0.42295110       1.16318703
C       -2.23658851      18.72738728      12.71455039      -0.53293931       0.01138970       0.20835203       1.59423041       0.44761649      -0.81053889
C       -2.90220523      18.67188051      14.02180881      -0.69132932       0.42747656      -0.48431304      -1.15661097      -0.22568105       1.64886832
O       -3.52562704      19.97269736      14.17572786      -0.71485849       0.14766837      -0.19861215       0.02569754      -0.33884186      -1.06274080
C       -3.68254182      20.46251870      12.91325404       0.10669378      -0.39495977      -0.25163173      -0.88472903       1.14111054       0.23490754
O       -4.37182547      21.42888925      12.66515580       0.29262805       0.80821744      -0.97024252       0.82104212      -0.92939925       0.12987594
O       -2.98044158      19.76806757      12.01783062      -0.59377322      -0.25877937       0.28851398      -0.23353624      -0.29081672       0.19116321
H       -1.47196357      16.74255265      12.42637080       0.07981330       0.11876746      -0.03068197       0.43081394       0.47050664      -0.11001479
H       -1.67497201      17.70188093      10.91875378       0.15284118       0.01629448       0.18923464       0.34627226       0.05484207      -0.49459523
H       -2.99449946      16.90235206      11.79280665      -0.30235123       0.17617712      -0.10268838      -0.77295434       0.32685357      -0.25123417
H       -1.25120793      19.13557963      12.90767966      -0.00281127      -0.06818072       0.08918965       0.34779125       0.25877029      -0.40174362
H       -2.32870321      18.49964962      14.92152311       0.00891967       0.04631165      -0.19932950       0.70145601       0.07211843      -0.23255670
H       -3.64229774      17.90240734      14.03195570       0.03000096       0.04316396      -0.00197017      -1.10421133      -0.44712496      -0.09423987
C       29.97419200       1.26836113      14.01244756      -1.10785789      -0.05443021      -0.49925803       0.68225706      -0.04713257       0.25615832
C       30.75815111       0.19299954      14.76147099       0.81638935       0.44945110       0.05857954      -0.27945074      -0.25034848      -1.04337108
C       32.00556801      -0.26067749      13.97732396      -0.03281337      -0.21595841      -0.32288486      -0.71400362      -0.29902595       0.15385590
O       31.59397132      -1.48924319      13.33514867       0.13865617       0.56169993       1.14844842      -0.78332800       0.09092145       0.33359396
C       30.41151738      -1.90405461      13.84873023       0.29608451       0.78106326      -1.04788671      -0.99754810       1.27856088       0.77088851
O       29.79813209      -2.87097179      13.50035322      -0.15645798      -1.18538546       0.05322578       0.80533993       0.46122879       0.18989393
O       29.92759720      -0.99661451      14.82047045      -0.40543344       0.07460530      -0.52969635       1.30461287      -1.48791993      -1.86638820
H       29.66297227       0.87392694      13.07065050      -0.08919914      -0.01406607      -0.05416866      -0.04995772      -0.50081694      -0.90698391
H       30.52878674       2.19394771      13.78423318       0.12770112       0.03573378       0.13605369      -0.02480034      -0.30987668       0.48275062
H       29.04316718       1.44509794      14.49983157       0.19364816       0.09272801      -0.27816353      -0.56633621       0.51913691       0.69425189
H       30.96243417       0.37185475      15.78833200      -0.18590557      -0.06377257       0.18241300       0.33484530       0.74646008       0.81267905
H       32.85732831      -0.48963184      14.56924776      -0.17183770       0.14807363      -0.34353009       0.67453897      -0.29065752       0.86960471
H       32.32439943       0.46759704      13.25008549       0.04122367       0.00630644       0.13236188      -0.16552784       0.15244077      -0.60318583
C       10.95742174      13.72889289      26.27644560       0.06716562      -0.70947958       0.41041274      -0.51795548       0.37524050      -2.69774723
C       10.61336561      13.18473267      24.84095385      -0.29894682       0.29883373      -0.11378987      -0.67431664      -0.01513024      -0.15891053
C       10.04622168      14.22227516      23.80721677      -0.45361817      -1.42526828       0.09073927       3.09399104       3.30948114       0.40136611
O        8.82617667      13.77392104      23.37022997       1.69080086      -0.00251304      -0.48330430      -1.82956994      -2.14674878       1.21908939
C        8.47431114      12.70077851      24.17674149      -0.27659345      -0.56019685       0.24700337      -1.17270613      -0.96031451      -0.08646885
O        7.40505565      12.13148632      24.15644813      -0.13693512      -0.45684577       0.56664393       0.55755097       1.00563145      -0.55060554
O        9.44194197      12.27825831      24.99697320      -0.02619909      -0.54586008      -0.48718052       0.66882390       1.37699044      -0.92319411
H       10.00989050      14.24076216      26.63286332       0.10642842      -0.50886668      -0.11090899       1.34902883      -0.86936188       0.19553113
H       11.72665041      14.48285670      26.05549090       0.39220814       0.13140851       0.01982931      -0.12632978       0.06642754       0.51718777
H       11.43237744      12.92044425      26.83872417      -0.48962470       0.11759511      -0.26031464      -0.57377225       0.33606169       0.39183858
H       11.37730303      12.63774827      24.25768434      -0.18783340      -0.17871626       0.07694894      -0.21345466       0.02816271       1.11645663
H       10.72296899      14.34501077      22.88322211      -0.02984880      -0.16382319      -0.20918362      -0.74380785      -0.37718248       1.49906826
H        9.96565647      15.30837609      24.27595602      -0.09870263      -0.08702220       0.08729242      -0.02897299      -2.18776536      -0.79531574
C       13.62895602      20.32303602       7.89355908      -0.43324603       0.16953848      -0.08832751       0.09374441      -0.32694089      -0.47089982
C       12.70033975      21.33408865       7.24929122       0.51750884      -0.57079387       0.33545789       0.29890457       0.38081467       1.23308504
C       13.03794138      22.79173318       7.65586069       0.60666107       0.18713485       0.53356329      -0.58312893       0.22445032      -0.41444799
O       11.72027980      23.36315946       8.00894803       0.39628457      -0.51907685       0.30631107       0.89435905      -0.44591933      -0.07611991
C       10.85137667      22.36768238       8.09799874       0.10530952      -0.62842567       0.40917455      -1.81265342      -0.70996308       0.65310436
O        9.68937591      22.46578213       8.45438933      -0.11921570      -0.27135984      -0.03798855       1.06538725       0.43184444      -0.36334381
O       11.37358607      21.17997199       7.78068768       0.57322202       0.43975145      -0.17089991      -0.17909421       0.11735870       0.34642175
H       14.65020116      20.52185307       7.56785638      -0.02708322       0.22880970      -0.16678819       0.16409051       0.09178641      -0.03473304
H       13.42986328      19.27840290       7.59863217      -0.03035432       0.05180536      -0.05572154      -0.18888822       0.43912908       0.12052418
H       13.61052361      20.40418422       8.98209324      -0.11739682      -0.11208057       0.12164358      -0.09048151       0.04360931      -0.03548530
H       12.54127168      21.21818908       6.20403782      -0.08323342      -0.16630970      -0.07899993       0.50331694      -0.02753601      -0.99608523
H       13.40117319      23.40903195       6.83237211       0.14207254      -0.12524844       0.03572625       0.14365992      -0.23155054       0.08963139
H       13.71233933      22.85567004       8.51951321      -0.18046155      -0.05139866       0.08267637      -0.31225643      -0.02492910      -0.16155027
C       26.07334831      16.65876786       6.12933387       0.35542416      -0.46394840      -0.26029054      -1.49983466       1.35332334      -0.96636599
C       25.46182455      17.98700349       5.52656326      -0.41935110       0.21021169       0.34633210       0.88558179      -2.03042436      -1.27334321
C       24.54977822      18.77506904       6.38901412      -0.08600555       0.64778779       0.28854728      -0.17101206       1.30395091       2.06484103
O       23.39583323      19.11957096       5.58221442      -0.05944798       0.25084076      -0.48983124       0.41474605      -0.49966812      -0.08596558
C       23.41972762      18.33266893       4.50425725       0.15146255       0.19608576       0.42463116      -0.58028710      -0.75231880      -1.29791093
O       22.53455699      18.30512193       3.66336584       0.02537399       0.44316785      -0.99581040       1.37245321       0.00110181       1.01824164
O       24.54386478      17.57127970       4.46363881      -0.20008598       0.24365546       0.17435207      -0.97096807       0.60939330      -0.26477560
H       25.34478008      16.23437986       6.85132722       0.15908068       0.21850068       0.15194162       0.45596069      -0.16521826      -0.65511119
H       26.92535798      16.98465585       6.66496544       0.23110812      -0.09207257       0.08729333       1.00495207      -0.06814360       0.71405923
H       26.39039600      15.98445369       5.29511404       0.17836452       0.09205667       0.06219421      -0.49819157       0.44780970       0.92567879
H       26.24436366      18.59279165       5.02537478       0.19985371       0.08070004      -0.04506732      -0.46851429      -0.28016874       0.47688717
H       24.99393661      19.73473934       6.69802277       0.18856395       0.13366899      -0.11397202      -0.16400716      -0.51188684       0.08364023
H       24.22134565      18.20996426       7.29202638       0.19783205       0.00163769      -0.02605596       0.06435418       0.43274522      -0.69216603
C       31.45513578      31.23757597      -4.17780401       0.31629413       0.06861258       0.45501037      -3.28364730      -0.02017064      -1.08685517
C       32.25956726      31.60737989      -3.04747907      -0.83085569      -0.65826507       0.45569923       1.65912473       1.03600419       2.97703528
C       32.52627241      30.55594699      -1.94511602       0.39052304       0.31918290      -0.38583163      -0.52916378      -1.86159420      -1.13910949
O       31.69084030      30.94626759      -0.88418304       0.21911497      -1.04022939       0.33879761      -0.71039230       0.65549004       0.33976126
C       31.12975576      32.13738648      -1.14064242      -0.01578949       0.31820477       0.13380781      -3.56752729       0.20576233       2.60878849
O       30.20187689      32.57457937      -0.40891511      -0.33745291      -0.04609314       0.72419259       2.86457586      -0.66733366      -1.87910044
O       31.53554102      32.70730652      -2.24019038      -0.21371992       0.69716709      -0.37339122       0.86925310      -1.31775737      -1.15848601
H       31.87840292      30.48235473      -4.83852290      -0.16729154       0.48381305       0.13823762       0.39658734       0.10594139       0.05135131
H       31.25533629      32.20483939      -4.75559572       0.02188659      -0.01574602       0.09649692      -0.16678919      -1.51480031       0.48327255
H       30.47781112      30.72764469      -3.77516031       0.16510858       0.04415966      -0.04907486       1.49224424       1.25250661      -0.98030519
H       33.20117552      32.05702667      -3.25528553      -0.23707327       0.01386505       0.11590947       0.71181405       0.55947691      -0.69381350
H       33.54517986      30.41066548      -1.55373639       0.01891277      -0.15631661      -0.27119446      -0.48943654       0.57394224      -0.45400620
H       32.17236924      29.53757859      -2.33958228       0.03695525      -0.41541555       0.02457590       0.42525780       1.23894346       0.71909225
C       23.88497801      16.39525259      12.89165803       0.37439592      -0.10207031       0.23140602       0.04144038       0.52839851       0.18102822
C       23.61798496      17.86043928      13.11515960       0.15521644       0.57820859      -0.69299276      -0.41928875      -0.39096135       0.82309258
C       24.60996915      18.53680671      14.05604343       0.26554460       0.21941953      -0.53354390      -1.24250317      -0.16727188       0.91654396
O       23.74741309      19.46248593      14.79550928      -0.09999289      -0.08292216       0.04052914       1.46471143      -0.37064666      -0.54061013
C       22.47282930      19.14548169      14.61407231      -0.57459499       0.17129423       0.64163961       0.87165451      -1.24672234      -1.71570122
O       21.59430315      19.79204315      15.05243067       0.25099906      -0.28625419       0.18110925      -1.82864952       0.97032356       1.10866797
O       22.31174720      18.07965256      13.78908754       0.14946346       0.40781161      -0.48754273       1.29116285       0.34970886       0.17566174
H       23.18932392      15.94266758      12.21019966      -0.02419529      -0.16870911       0.06728035      -0.54261875      -0.11075978      -0.17636830
H       23.94536148      15.84192012      13.82614004       0.05196131       0.12574791       0.09391628      -0.06739619      -0.08661874       0.11577079
H       24.84072516      16.32725365      12.40003362      -0.07207283      -0.11680386       0.02973320       0.51065058      -0.18226844      -0.03402499
H       23.58308209      18.39746789      12.18895466       0.12391775       0.16884747      -0.07688415      -0.25295541       0.26868415      -0.56308728
H       25.43003132      19.03907559      13.60338756       0.02954334      -0.05231228       0.04706208       0.23958302       0.89167786      -0.70070404
H       25.07771740      17.86028408      14.75468507      -0.15019904      -0.17180464      -0.08547957      -0.25646576      -0.47554103       0.50567877
C       18.79855968       9.39657449      25.85323847      -0.21845317       1.07470871      -0.18484621       1.16193664       1.30790758       0.09834789
C       17.70084295       8.81472985      25.04676759       0.03659535       1.06444327      -0.07709739      -0.56646460      -0.85694593      -0.85310644
C       16.35944996       9.52501526      25.15532752       0.56924044       0.38013301       0.24776117      -0.02821576      -0.53356427      -0.63016939
O       15.59462580       8.66123270      26.02150925      -0.39195817       1.05026786       0.28850807      -0.84730226       0.67546153       0.14509471
C       16.20559861       7.50985460      26.21388419      -0.22678545      -0.92309909       0.16592368       1.03466284      -1.00475931      -0.34094238
O       15.77089549       6.56162486      26.83581503      -0.00296567       0.48491466      -0.88619658       0.17859197       1.06234121      -0.61070341
O       17.41531826       7.50901411      25.60766063       0.26162585       0.75425047       1.38033177      -0.76774889      -0.56983995       0.28182501
H       18.92563279      10.40060535      25.45983742      -0.08619085       0.17798395       0.08788878       0.16436686       0.45043719      -0.13435988
H       19.77725328       8.94305782      25.61997719      -0.19354988      -0.09413391       0.23289927      -0.57909989      -0.15991195       0.53406739
H       18.61237792       9.55624494      26.95297515       0.16981334       0.05240831      -0.12616456      -0.13869874      -0.71569771      -1.03968680
H       17.88242613       8.69114750      23.93714422      -0.13332915       0.16283123       0.29066350       0.55140692       0.08481017       1.42092061
H       15.88714234       9.61723068      24.16895886      -0.10962958       0.11068859       0.03937325      -0.22902791      -0.29320329       0.37039092
H       16.43461172      10.50658027      25.56945783      -0.00183756       0.25041714      -0.44888129      -0.00946333       0.44984642       0.56141526
C        6.31970311      18.05774141      13.27875059       0.71527281       0.04510470      -1.19220521      -0.66555423       0.03044416      -0.09883858
C        6.69652471      17.86670307      11.87643636       0.17759292       0.16539314       0.08972503       0.17204189      -0.67471790      -2.10232782
C        7.42293518      16.55032982      11.48067697       0.02146463       0.23655172       0.08340236      -0.21986870       0.86638361       1.87078500
O        8.35831055      17.00130714      10.47953452      -0.36011725      -0.44950617      -0.38004563      -0.52649790      -0.48939562       0.57958448
C        8.52059906      18.33532349      10.60051776      -0.40928682      -0.24785225      -0.18291696       1.29501450      -0.82879394      -1.16105914
O        9.39428614      18.89728004       9.97873887      -0.30528073       0.95250439       0.46187826      -0.94006276       0.15881413       0.42745340
O        7.67055034      18.86686272      11.43935965      -0.21954714      -0.96656839       0.11154689      -0.16058217       0.46279120       0.72370577
H        5.93216148      19.06389742      13.40633505       0.03180992      -0.15820498      -0.10954727      -0.20443994       0.05251287       0.15306000
H        7.22504246      17.93751717      13.82761275      -0.10635249       0.25750877       0.07113077       0.33660480      -0.30970508       1.08123362
H        5.51396050      17.33388691      13.50322224      -0.00042858       0.15519414       0.00585081       0.53354013       0.30811566       0.28859016
H        5.85999551      17.99438733      11.19752609       0.12752362       0.01079015       0.25233070      -0.32639721       0.06114801      -0.04767330
H        6.67010455      15.85289461      11.13009599      -0.16243087      -0.04651357      -0.02371782       0.31455129      -0.16034868      -0.46388832
H        7.93382799      16.14585566      12.40815683      -0.00104666      -0.01085597      -0.00748516      -0.16519484       0.30034345      -1.33168125
C       38.35893762      29.27844931       8.64746329      -0.44040039       0.49727385      -0.28714927      -0.19406515       0.26204452       0.60289675
C       37.87976156      28.32942810       9.75827321      -0.78572911      -0.54421474       0.44643571      -1.84606910      -0.32700911       0.06037380
C       36.99675580      27.18541926       9.13041250      -0.16228509      -0.09197203       0.63195340       1.14475060       0.69797367      -0.73580903
O       35.90869807      27.07070974       9.99702139       0.73313776      -0.24012079      -0.94004087      -1.16819966      -0.26692277       0.96793538
C       35.77310119      28.12193212      10.83325155       0.26709171       0.46406993      -0.04615766       2.20956421       0.16661967      -1.91521358
O       34.85065074      28.27574554      11.56143174       0.27845307       0.33592040      -0.24247130      -0.30026433       0.30760530       0.52781439
O       36.84964291      28.97771468      10.65645812       0.54510004       0.11057582       0.70027364      -0.49870467      -0.85352826      -0.23670408
H       38.90852052      28.70552638       7.94192989       0.00839436      -0.16551724       0.24580174       0.69140440      -0.99246734      -0.65994227
H       39.06860040      30.07519055       8.89784056       0.23791870       0.00925485       0.02717538      -0.44615480      -0.11609012       0.47069407
H       37.54472284      29.69031151       8.02239309      -0.03463309      -0.10558476      -0.08707744       0.08956547      -0.07953940       0.88591790
H       38.56933226      27.87081660      10.48228043       0.01276179      -0.14291142      -0.07481752       0.24895459       0.67055386      -0.69366628
H       37.47221445      26.19877989       9.00502134       0.08289115      -0.16381488      -0.27295274       0.04564983       0.44175133       0.36656696
H       36.65478593      27.48444757       8.12557885      -0.15508756       0.01098067      -0.04068603      -0.08728255      -0.01849214       0.32655302
C        2.77379032      12.17142207       4.01047150       0.17593243       0.09221355       0.24191707       1.15630805      -0.82371920       1.34461176
C        4.14664881      11.62502738       4.39674468      -0.47102308       0.44365352      -0.84143435      -0.25581300      -1.41239023       0.87161082
C        4.11878821      10.07761847       4.41680336      -0.72736213       0.09030248      -0.28137469      -0.77683246       0.39213139       0.61710417
O        5.01176678       9.71126843       5.49424313       0.23672995       0.20083071      -0.39455511       0.32693911       0.26662838      -0.67671382
C        5.25915631      10.80291599       6.22035686       0.12356523       0.50724486      -0.80982643       0.80628836      -0.19228123       1.47880292
O        6.03624252      10.79114452       7.16367914       0.75783436      -0.34590219       0.41480534      -1.21633780       0.39116752      -1.29037583
O        4.52274206      11.84396213       5.81356174      -0.07395732       0.63480793       0.07725126       0.22547519       0.58854300      -0.57864726
H        2.14309474      11.71842414       4.79922549      -0.09646809       0.09690491      -0.45647175      -0.45904163       0.15923378      -1.04722428
H        2.65785711      11.83460332       2.98438998       0.26151892       0.04308556       0.09378246      -0.75379550      -0.27637380       0.00167716
H        2.65111502      13.23617799       4.04139157       0.29596899      -0.06652855       0.11407246       0.33364782       0.56560445       0.06340295
H        4.97803419      11.92284882       3.79105237      -0.37559043      -0.19631354       0.05308664       0.45513475       0.67240381      -0.25250500
H        4.38192846       9.58270802       3.49667442      -0.04613000       0.20967146      -0.33936034       0.28287372      -0.06048440      -0.10955354
H        3.14017698       9.73529576       4.76386451       0.06321465      -0.06922405      -0.17237683      -0.19982682       0.03191884      -0.32793477
C       31.70473792      15.49979740      13.28362414       0.36936536      -0.13477997      -0.10238215       0.72912616       1.37419748      -0.26781601
C       31.29906168      15.68287711      14.72509353       0.00952118      -0.15980068      -0.26079096      -0.54781163      -1.06732619       0.34905243
C       31.67470164      16.92872819      15.49731478       0.55621690      -0.57512073       0.14438829      -0.39136723       1.51485336      -2.60632157
O       32.77797738      16.59949104      16.25108141      -0.21364042      -0.04091868      -1.62383016       1.34910619      -0.96203560       1.28665030
C       32.86535890      15.25726174      16.32664437       0.00802304      -0.36586054       0.70382172       1.53041208       0.32551432       0.59415263
O       33.71664049      14.70267630      16.97549836       0.40451748       1.21898882      -0.04768685      -0.56724793      -0.04300272      -0.04510918
O       31.97516414      14.67762716      15.56675102      -0.31665657       0.84850821      -0.01778494      -0.40746865      -0.67157608      -0.54553956
H       32.74098461      15.83906435      13.13293873      -0.07791496      -0.16049067       0.11959612      -0.01060266      -0.19590314       0.08578201
H       31.10333372      16.13869423      12.62015518      -0.04152649      -0.09625276      -0.05475611      -0.10915378      -0.18021445       0.34995353
H       31.61272182      14.49225321      12.91676676      -0.06499370      -0.05605249       0.07298781      -0.19046275      -0.52279347       0.21687444
H       30.25172622      15.47073928      14.85154925      -0.12273428      -0.12118507      -0.22926791      -0.33163023       0.01201565      -0.15965065
H       30.87722727      17.27184291      16.11081624      -0.28824189       0.05487169       0.01358416      -0.74020433       0.33289701       0.53772080
H       32.01483876      17.73680694      14.83204245       0.01459059      -0.16165730       0.20545122      -0.58008933      -0.10293160       0.13436411
C       29.41471821      23.95636651       3.52986154      -0.03920973       0.36021660       0.04968813       0.17945534      -0.12868901       0.72125167
C       29.16263377      22.48526498       3.34217276      -0.71361193      -0.93222152       0.74414242       0.24408779      -1.06613541       0.04430938
C       28.19447077      22.07146462       2.23612500      -0.89154517       0.69181181      -0.72209532      -1.96040773       0.22550723      -0.17074007
O       27.22642761      21.14534970       2.89190192      -0.05386171      -0.51204670       0.40203294       1.09859383       0.61932200      -0.49658120
C       27.38805695      21.28595873       4.19614877       0.36895164      -0.32132113      -0.44099400      -0.96276343      -0.07544904       0.29989773
O       26.58232365      20.87313361       4.99855276       0.29161016       1.23830464       0.19775800       0.30942476      -0.15234889       0.21794853
O       28.46615548      21.98039231       4.51925577      -0.51056339      -0.38990782      -0.67684921       0.54181165       0.08048198       0.37211657
H       29.71126374      24.34959845       2.56244906      -0.01568301      -0.08313160       0.16150478       0.01672335       0.39513704       0.01564080
H       30.24082824      24.07346792       4.25998147       0.22170680       0.01426482       0.04158164      -0.39123216       0.11617262      -0.43632063
H       28.52072183      24.45127624       3.95550817       0.19086582       0.21890650       0.05106746       0.37826571      -0.16155164      -0.48358014
H       30.13025770      21.95066646       3.25373663       0.16431361       0.06847651       0.08681708      -0.54505837       0.13396801       0.07083724
H       28.58526464      21.55831113       1.35950662       0.04595509      -0.02162808       0.04349547       0.15517160       0.27289593       0.30897170
H       27.52046589      22.92074543       1.96786473       0.21139202       0.14299338      -0.13429677       0.76526898      -0.39435822      -0.09150207
C        7.23525695       3.31998394      26.37004456       0.08340290       0.30951918       0.26154167       1.09114087       0.64512104      -0.56248850
C        5.80065129       3.73117834      26.38904795      -1.42857108       0.05424879      -0.38917292      -0.51940113      -0.04020911       0.07041253
C        5.50050364       4.80253086      25.29056883      -0.10438270       0.14129309       1.24942786      -1.97295320      -2.12124515      -0.14880379
O        5.02694572       5.93352183      26.05237055       0.42269351       0.35597117      -1.01623358       0.00777850      -1.03906155      -0.60101604
C        5.02508119       5.64668681      27.36687283       0.43164842      -0.74864565      -0.12553779       0.68307793       1.17176604      -0.01170543
O        4.78921443       6.55368003      28.14118821      -0.08597154       0.08713835       1.15050449      -0.03963161      -1.69684207       0.08518240
O        5.42331498       4.37669889      27.63608471       0.61720472       0.48924431      -0.83748253      -0.36012107       1.40693510      -0.27408409
H        7.88898387       4.18995778      26.24624831      -0.18088064       0.07230252      -0.20996857      -0.10270838       0.24171622       0.33089486
H        7.31915838       2.85241927      25.39356516       0.11398169       0.23339354      -0.05114805       0.28276756      -0.68152446      -0.14363843
H        7.67313794       2.69039112      27.15117524      -0.11512034      -0.11762017      -0.13930249      -0.74265695      -0.06980813      -0.18818504
H        5.15303721       2.85782463      26.26170110      -0.01904248      -0.52037478       0.02959406       0.02812833       0.24534474       0.21556641
H        4.72891584       4.33950623      24.51349296       0.02642284       0.03143487      -0.04536589       1.35118735       1.59098256       1.71491539
H        6.41218623       5.04564928      24.80282546      -0.22510699       0.43133235      -0.06231094       0.62912065       0.60157210      -0.56949037
C        5.26779772      -7.07483287       3.79639812      -0.29819290       0.39603174       0.13714302      -0.90069926      -1.22036529       0.24073181
C        6.64647214      -6.63926806       3.54332243      -0.17660916       0.22519921       0.35251113       0.96756548       1.54048252      -0.03901089
C        6.84038816      -5.19736099       4.08281776      -0.09625382       0.38096254      -0.31226545       1.15003741       0.35130924       1.73964512
O        7.02916069      -4.35332848       2.91689777       0.17447941      -0.29040140       0.37156722       0.23471220       0.26346475      -0.11822368
C        7.21212743      -5.09487589       1.81056612      -0.89764060      -0.33493786       0.12358985      -2.02410746      -1.33394873       1.71708608
O        7.44388301      -4.71413602       0.69806108       0.68214212      -0.31102624      -0.08197232       0.38483346      -0.04961793       0.53381640
O        6.87573518      -6.38779423       2.14680210      -0.29999448      -0.19257581      -0.07551098       0.88629758      -0.16850929      -1.98035467
H        5.10176405      -7.06243016       4.87055091       0.28168849      -0.02622096      -0.01125015      -0.04455002      -0.11330233       0.25891688
H        5.13157070      -8.08115189       3.43627321       0.19763480      -0.18301502      -0.03264731      -0.09558398      -0.59103119      -0.01688664
H        4.48964291      -6.49125941       3.33691890       0.04535810       0.26197654      -0.21770725      -0.05721843       0.76311058      -0.25877544
H        7.40840883      -7.41017842       3.86180392       0.13139224       0.02274565      -0.30840527      -0.88582504       1.23025250      -0.11634151
H        7.77449176      -5.11892572       4.66723060       0.10105363       0.01668699      -0.23914506      -0.18409625      -0.04702577      -0.29416364
H        6.06341013      -4.79791521       4.81205055       0.13013275      -0.02942428      -0.16781698       0.50953346      -0.48621401      -1.57086241
C       21.62597244      33.78718357      24.38479033       0.26066859       0.30291782      -0.24758351      -1.91659737       0.45197684      -2.66286111
C       21.05127694      34.25788608      22.99487818      -0.90011163       0.36620747      -1.54228450       0.97658730      -1.82232666      -0.78117049
C       21.25022056      35.68618849      22.62932250       0.77700453      -0.30654420       0.43482800       1.96725059       1.23478627       3.09028625
O       20.11565503      36.00333045      21.87439058      -1.00297596      -0.34973373       0.48077061      -0.42586046       1.35393000      -0.49050564
C       19.12044748      35.26365810      22.30430864       0.41854141       0.90831717      -0.91491116      -0.27007127      -1.76722276      -0.30663398
O       17.95803766      35.40857585      21.97544134       0.49808171      -1.06758108      -0.08393919       0.63775122      -0.15596521       0.33281526
O       19.59921108      34.21934880      23.02504073      -0.13029207       0.05210823      -0.06412552      -0.98713654       0.44093543      -0.05057692
H       21.13234208      34.39618617      25.12270667       0.24307526       0.26230480       0.10463734       0.25835264       0.18554811       0.54477692
H       22.67712233      33.82115857      24.36033351      -0.05870791       0.01751986       0.23210523       1.40289736       0.58579195       0.18605255
H       21.37890254      32.75366691      24.50584283       0.01304124      -0.40496488      -0.10446670      -0.43466914      -0.59557194       0.25402167
H       21.39738743      33.64220336      22.06083173      -0.01197622       0.02750886       0.04673953      -0.66089243       0.64214474       1.91606557
H       22.17699508      35.85609204      22.09189941      -0.22881592      -0.16669657       0.05517068      -0.15187953       0.12375003      -0.29778820
H       21.29657697      36.28812759      23.64834949       0.14739146       0.09389465       0.28190869      -0.32781377      -0.70084655      -2.09568596
C       18.93651999      26.20405077       8.62277086      -0.62862292       0.09862265      -0.01323998      -0.43459362      -0.47237492       1.52488887
C       17.96982419      26.84504274       9.64650079       0.39934672      -0.19856551       0.47481868       0.37995043       0.40840089      -0.43428195
C       16.80770864      26.00128987      10.22898477      -0.30576390      -0.84884586      -0.25655467       0.67371339       0.14428262       0.67692602
O       15.71046573      26.93571710      10.28972835      -0.18951845       0.69870656       1.34044276       1.03767145       0.69515538      -1.05260897
C       15.99355759      27.90788889       9.37021880      -0.61198284       0.22967052       1.11341602       1.09326398      -1.12691855       1.26840961
O       15.20344189      28.72710220       9.08115430      -0.66361192      -0.64115163       0.13796661      -1.97976577       1.93404555      -0.75520790
O       17.23194786      27.87096991       8.88754787       0.22432558      -0.15295581      -0.70535599      -0.78603333      -0.72058153       0.44455335
H       18.36297789      25.80872254       7.77041551      -0.05399400      -0.06338808       0.01692765       0.24343541       0.29086283       0.11740714
H       19.45973511      25.35101728       9.10030732       0.22869344      -0.01617429      -0.10082959      -0.21896179       0.52562660      -0.26923391
H       19.68891149      26.95020388       8.35054303       0.13524845      -0.08178096      -0.05272710      -0.25489783      -0.15513644      -0.14798081
H       18.46235192      27.46749096      10.41822756       0.00673513      -0.02093907       0.12324953       0.10455947      -0.84036648      -0.15126050
H       16.98356237      25.63008602      11.26076224      -0.14572788       0.11562252       0.15737121       0.04513150       0.16295850      -0.89579129
H       16.50164098      25.21409735       9.55836883       0.01792777      -0.08093644      -0.01217295       0.03002900      -0.40282762      -0.17128183
C       24.80487183      19.24721246       1.49477047       0.62583468      -0.22627486       0.62133824      -2.37765837      -1.03563988      -1.65672636
C       24.08889665      20.56759250       1.42521590       0.15961840      -0.16775185       0.63745984       1.90646303       1.15242159       1.66039622
C       23.94882555      21.28228399       2.82582347       0.36588688       0.45748248      -0.60860971      -0.66248500       0.27407745       0.28591910
O       22.51567146      21.57352980       2.94231290      -0.28014873      -0.46236062      -0.85491549       0.87496585      -1.08894598      -1.12076354
C       21.94273229      21.05736226       1.84576599      -1.21755142      -0.22016947      -0.56116824      -2.09870815       2.22530413      -0.53768438
O       20.77777023      21.29740121       1.58255086       0.44419612      -0.28454187       0.47538791       0.64330465      -1.02465737       0.39633402
O       22.76392643      20.48968400       0.97396676      -0.53125942      -0.17505512       1.21328429      -0.67864978      -0.72427851       0.25073642
H       25.75283390      19.25372136       1.90998524       0.13666242      -0.06849681      -0.02536656       2.00486612       0.63264984       0.74720192
H       24.86651065      18.85344374       0.47057166       0.13289368      -0.07247331       0.06013513       0.11641209       0.05710502       0.29424906
H       24.23817025      18.51475647       2.05432626       0.02861421      -0.11007264      -0.02494942      -0.35920623      -0.05006496       0.20030881
H       24.60664936      21.22548607       0.72399065       0.10650218      -0.06821584       0.01463057       0.00197514       0.04848098       0.10302454
H       24.44594703      22.24777905       2.92664474       0.04140979       0.03616693       0.04694296       0.25172246      -0.13882841      -0.29926714
H       24.15673991      20.70655829       3.72468146      -0.07109941       0.08432691       0.01907764       0.51264405      -0.35469067      -0.33718425
C       29.34154579       3.37153691      17.49267040       0.01428102      -0.73012765      -0.67461204       0.89884377      -2.47849011       0.88945585
C       29.17271962       3.58960169      19.02561987       0.05977313       0.36055174       0.46666843       3.38425207      -0.43984115      -0.98464304
C       28.33478723       2.60274230      19.80212713      -1.12712459       0.30343572       0.26561283       0.13243216       2.00431252       0.62863821
O       27.18337933       3.42723558      20.14175250      -0.92551105       0.61310070      -1.33743731      -0.19881514      -1.46864700       0.05752937
C       27.46040890       4.69430834      19.92794489      -0.33522373      -1.12044338      -0.37695520      -0.47421139       1.68360114      -0.27124405
O       26.72882274       5.60745480      20.26189084      -0.43606819      -1.11349658      -0.97793205       1.14118624      -0.78924602      -0.22021896
O       28.61615028       4.83625084      19.23136482       0.25788953       0.71605618       0.12443474      -1.94045520       1.70525515       1.16642141
H       29.75319180       4.17049751      16.84409437       0.12686103      -0.00203629       0.16720594       0.16886757      -0.33252704       1.01381040
H       28.38456329       3.11864193      17.11478786       0.17570448      -0.20363191       0.10540881      -1.13736784       0.02814323      -0.48049533
H       29.86297589       2.33319821      17.40243696      -0.07857105       0.65188060      -0.08499169      -0.30497053       2.00189877      -0.14670268
H       30.15153574       3.61917116      19.53513638       0.39065829       0.37954702       0.13551547      -0.04347896      -0.02879860      -0.46428245
H       28.77142410       2.23032834      20.71091066       0.19987994      -0.33654005       0.12113196       0.30134043       0.22825249       0.40512568
H       28.16170331       1.80092569      19.18989718      -0.04226349      -0.12377406      -0.17268221      -1.50804329      -2.01741600      -1.55930066
C       24.49404918       7.45622928      14.05811623       0.12832151      -0.33033455      -0.28091639       1.93500578      -0.53462344       0.34467962
C       23.37273749       8.37851661      14.35809615       0.45047107      -0.40738427      -0.60926758       0.81572485       1.30472779       1.66455746
C       22.30109606       7.69872328      15.19235104      -0.19358659      -0.65710151      -0.12256627      -0.32305095       0.94678885       1.05288780
O       21.23757346       7.65713713      14.27943389      -0.07811571       0.72170206       0.34616392      -1.23662114      -0.42877114      -1.12794042
C       21.50567280       8.35800668      13.15421363      -0.92565782      -0.29632893       0.23432797      -0.12583637       0.28699201      -0.44435191
O       20.74233240       8.46667308      12.23009926       0.76547958      -0.84058841      -0.13634186       0.16985819       0.04628194       0.56199974
O       22.74119496       8.89366563      13.16830571       0.34116031       0.43948610       0.15355517      -0.61092061      -1.18075216       0.81177175
H       24.21218761       6.62571038      13.43260606       0.23508676       0.11547769       0.00182880      -0.58919537      -0.51542991      -0.10756530
H       24.94994570       7.03884834      15.01861884       0.03690190      -0.03999389       0.07881702      -0.59073514       0.69750565      -1.20191777
H       25.29165649       7.91945430      13.45613550       0.00176058       0.19136540      -0.15616144      -0.04356094       0.21094622       0.41498393
H       23.64648419       9.24588234      14.97937125      -0.03619488       0.09078977      -0.21021494       0.41611794      -0.08446097      -0.63004565
H       21.96246402       8.30771197      16.09187003      -0.02299760       0.01183949      -0.15730368       0.56614602      -0.62688845      -1.08491516
H       22.61640133       6.69813414      15.51180479       0.06906351       0.01168570       0.18994681      -0.28033641      -0.03033863      -0.23593098
C       13.58396739      30.03187053      -0.83986135       0.48945719      -0.36460346       0.15674114      -0.42781070       0.34698662      -0.78015101
C       14.57524421      29.30637084       0.06348812       0.63865404      -0.46765866       0.18199601      -0.35288045      -0.76508772      -0.54310834
C       14.13937707      29.16425816       1.52520277      -0.12627308      -0.67218615      -0.75532946       0.40666595       0.10420989       0.64433998
O       15.41252947      29.16418831       2.25940968      -0.42399170       0.05865433      -0.44099966       0.41332230      -0.37465879      -0.73921478
C       16.28231211      29.80900582       1.48177099       0.05451091      -0.85520688      -0.10947825       1.15191472       0.29814750       0.07564825
O       17.39758394      30.16457786       1.79087334      -0.94375926       0.24723250      -0.23786717      -0.51122820      -0.40548030       0.41905469
O       15.82426836      30.04772441       0.25563656      -0.01361711      -0.04293778       0.45982300      -0.93100405      -0.34321600      -0.64550245
H       12.55831506      29.55248501      -0.80440189      -0.00423328      -0.11072796      -0.04368475       1.20616317       0.41650221       0.18625115
H       13.91622620      30.00590364      -1.91981849       0.00216455       0.00445955      -0.01443811      -0.18504439       0.04131348       1.19785941
H       13.48195532      31.09570734      -0.54216016      -0.09160120       0.20051833      -0.10504541       0.03340103      -0.56850946      -0.14698224
H       14.82292915      28.32895056      -0.46455903      -0.24042203      -0.28391964      -0.10859843      -0.07419186       0.93725896       1.14863455
H       13.57827548      28.26376328       1.78446877      -0.01874101       0.26828833      -0.13718071       0.15402694       0.20290118      -0.20860311
H       13.72052164      30.07184859       1.96628829       0.09496542      -0.14490994      -0.00909792      -0.88665235      -0.04189004      -0.64552832
C       25.66677640      29.01907812      -4.98788172      -0.32548480       1.11017008      -0.11322882      -2.89283705       0.13604128       0.39316329
C       26.67910136      29.20001043      -6.02673856      -0.86980594      -0.50729933      -0.03991647       2.68977499      -0.44557786      -0.94220424
C       28.15384711      29.19563360      -5.45881493       0.27037129      -0.25629109       0.01972285      -0.02904922       1.88145840       0.48792690
O       28.78097850      30.38624264      -6.08573100      -0.16934736      -0.65125509      -0.03682523      -0.44284418      -1.20055223       0.36275399
C       27.87539789      31.02914057      -6.78641537       0.83569980      -0.55915469       0.26889654      -0.61037499      -0.19726941       0.67572361
O       28.11891893      32.02989380      -7.37390851       0.09901717       1.26406218      -0.34282182       0.01487739       1.33027399      -1.03652048
O       26.64058574      30.48472618      -6.71635590       0.05991176      -0.48149929       0.68270750      -0.00620833      -0.33922017       0.24598810
H       25.88224683      28.16183493      -4.37124723      -0.10688698       0.40420588       0.26437528       0.43837076      -0.26127771       0.18326871
H       24.65790519      28.79313268      -5.43261570       0.33887908      -0.21420570       0.07881710       0.83727723       0.27806622       0.17381574
H       25.48234012      29.87223055      -4.31475544      -0.03847075      -0.18683003       0.30340897       0.56371337      -0.07931370      -0.33774236
H       26.60898473      28.41327649      -6.81264686      -0.25198097      -0.20509475      -0.03968497      -0.07828396       0.53341991       0.58932382
H       28.80777027      28.40843464      -5.77585697       0.11656469       0.19775714      -0.05321061      -0.18762213      -0.83117622       0.29918531
H       28.21618591      29.45144838      -4.36082074      -0.10532941       0.13495208       0.01936168      -0.24136016      -0.81330955      -1.02547121
C        6.01145475      22.07775453       7.53195791      -0.13181784      -0.04889012      -0.78152790      -0.22958110      -0.66301399       0.20988359
C        5.44819739      20.73622089       7.96972419       0.10935314       0.78843224       0.34486142      -0.68472332       0.34784570       0.43719113
C        6.27412767      20.08741707       9.07087743       0.09542750       0.43711281       0.58079024      -0.09075816      -0.29672375       0.23185422
O        6.25586584      18.66172592       8.72680746      -0.15662381      -0.35642329       0.56385778      -0.40453872       0.52216321      -0.97408187
C        5.86092024      18.56872007       7.41313170       1.15639959       0.04639837      -0.55796993       1.19510639       1.27915800       1.03962326
O        5.91836845      17.57878651       6.75974222       0.26694558       0.37748571      -0.83887305      -0.28896955      -1.15945315      -0.27640796
O        5.57129526      19.77023366       6.91905346      -0.04630782      -1.50316931      -0.44964093      -0.21840768      -0.43997884      -0.63473916
H        6.11274978      22.71366079       8.41080293       0.11388237      -0.12867715       0.09775303       0.02887640       0.05465235      -0.03373152
H        5.39755808      22.60639150       6.79021728      -0.09601997       0.12014557       0.03201988       0.16951331      -0.39291239       0.07892618
H        7.00801947      21.80604991       7.18354520      -0.09726555      -0.06387432       0.02528762       0.20278935       0.56774127      -0.31252521
H        4.37213994      20.73360290       8.20554828       0.01751509      -0.00452413      -0.03773127       0.42144072       0.33817300       0.17452434
H        5.83269121      20.17468645      10.05625912      -0.08075091       0.02304540       0.09921949      -0.10738549       0.10722073       0.02346049
H        7.30633502      20.46719456       9.09189464       0.36722881      -0.15065185      -0.00847039      -0.13568157      -0.30451381      -0.08998012
C       17.32197806      22.87923210       8.17459789      -0.44426693      -0.27967783      -0.49116941       0.21425502      -0.31593937      -0.67523789
C       17.62289174      22.75692099       9.62761870       0.10524590      -0.29337540      -0.04116913       0.37013006       1.32250297       0.81106484
C       18.21591845      21.39353478      10.09816646      -0.42287415      -1.43952405       0.16156053      -0.00108994       0.80106306      -0.55810857
O       17.12785760      20.74079079      10.74278301       0.09127129       0.50226596      -0.12119065      -1.22114992       1.07541370       0.09092043
C       16.07239077      21.58503164      10.73483273       0.21409017       0.51513498      -0.38465421      -3.21734762      -0.91697627       1.00164664
O       14.93100378      21.26167792      11.06553854      -0.17858009      -0.12830396      -0.91847511       2.07706285       0.09354360      -0.29580081
O       16.31914679      22.81647218      10.30497983       0.13461283      -0.47627157      -1.05675021       1.18879437      -0.93305695       0.06242313
H       16.60931977      22.07914554       7.93196582       0.04294333      -0.11392168       0.10689202       0.35434824       0.04030977      -0.45600647
H       18.24698798      22.83383032       7.59581137       0.03618720      -0.12934325       0.15044213      -0.16857502      -0.48677671       0.02501877
H       16.87837852      23.81880939       7.84524453       0.17085337       0.01258586       0.14485543      -0.23127930       0.10302129       0.53253883
H       18.17055037      23.63400811      10.01907883      -0.07336168       0.08803499       0.10905765       0.00915830      -0.79117286      -0.22305714
H       19.04521639      21.43737134      10.78819469       0.00396143       0.23796681      -0.04871099       0.23488216       0.32736209       0.11817198
H       18.48264771      20.78732683       9.25439939       0.04345675       0.01469641       0.09653106       0.37160489      -0.21821636      -0.49400574
C        4.44944101      25.48460136       4.89291178       0.71485262       0.05536606      -0.76017497       2.60578108      -0.47200811       0.63371491
C        3.05994377      25.97216962       4.89267446      -0.26707826      -0.10046628       0.51965196       0.43088618      -1.11560559      -1.40537584
C        2.12491164      24.99048224       4.17068571      -0.62846720       0.09721477      -0.03180010      -1.12733388       1.79428542       0.02792741
O        2.02187878      25.58155107       2.84442400      -0.53523002       0.25232554       0.17313701      -0.65689319      -0.39648581       0.12756982
C        2.42822939      26.84367606       2.85631132      -1.36605537       0.74865288      -0.38580659       1.34594393      -0.90149963       1.48700571
O        2.36872774      27.55451912       1.91326015      -0.01339770      -0.74446526      -0.46704350      -0.31521630       1.40569830      -1.04313314
O        3.04929469      27.13946724       4.02213224      -0.00400951      -1.34069094       0.07596949      -0.94196081       0.15396534      -0.06445917
H        5.10522834      26.33562459       5.18328407      -0.11937297      -0.10873575       0.08293056      -0.24466710      -0.65196091      -0.01624995
H        4.82093748      25.15775860       3.89773700       0.11121676      -0.14291047      -0.07992458      -0.52393097       0.19866326       0.45082989
H        4.62529405      24.63213149       5.60803577      -0.10532225      -0.02088677      -0.13655109      -0.40028358       0.85137969      -0.60967255
H        2.72467860      26.18887899       5.88684665      -0.11537778      -0.01680743       0.10134144      -0.45877171       0.55199605       0.28324091
H        1.14356360      25.07623523       4.67995380      -0.12674300       0.01668721       0.11685955       0.25130969      -0.67185998      -0.52067029
H        2.46350490      24.00450932       3.94381105      -0.08384443       0.08159525      -0.05591903       0.37000030      -0.73939753       0.71404964
C       29.61362224       8.05799114      20.60788180      -0.18818418       0.13552174      -0.31547540      -0.37997457      -1.06593359       1.31050718
C       31.03530720       7.65592819      20.26167258       0.14207747      -0.00978939      -0.55438861      -0.95734197      -1.97814739      -0.78724217
C       31.23292223       7.08897960      18.81044189       0.03176035      -0.41426999       1.52748040      -0.15216628       0.45142594       1.39578521
O       31.93599902       5.87524139      19.05747590      -0.20061241      -0.92167380      -0.52241675       0.86533147      -1.47811067      -1.31934905
C       32.00125003       5.50451538      20.32384640      -0.54305687       0.60591709       0.07577409      -1.94638205       1.75605345       0.92244279
O       32.36047272       4.46887974      20.79222469       0.62063668       0.03500932      -0.85271222       0.61441678      -0.25196874      -0.35669363
O       31.42944747       6.48876285      21.07791695      -0.17595308      -0.17228154       0.97386595       0.34325880       0.40458158      -0.01612985
H       29.64119944       8.49794507      21.63995152      -0.04984425      -0.13521232      -0.00183389      -0.32826519      -0.51842457      -0.77240169
H       28.81273457       7.23513669      20.51857436       0.18858842       0.08218901       0.09013446       1.47039807       1.03434622       0.20681281
H       29.34488571       8.84076237      19.94488404      -0.10237302      -0.07347341       0.24859251      -0.27624255       0.85425192      -0.67855030
H       31.68959435       8.46024281      20.47058664       0.01268147      -0.03166798       0.08415906       0.82872957       0.76823485       0.25384176
H       31.87302811       7.66843191      18.15342560       0.05452217      -0.16527728       0.30425612      -0.20266098       0.32457545       0.07318963
H       30.26546116       6.87895260      18.36044103       0.07249611      -0.15536234       0.16789964       0.04632645      -0.16404901      -0.17944041
C       20.41394853      22.28593899       5.45769959      -0.60147978       0.75433876      -0.09053551      -0.01067246      -0.42749411       0.58043957
C       20.35510114      20.82231465       5.89140432       0.26789838       0.32834588       0.45168792       0.68435067      -0.00484546      -0.17434719
C       20.16034228      19.77643555       4.77044285      -0.05231622      -0.17554407      -0.03762357      -0.39282036      -0.21208523       1.28348827
O       18.76254119      19.44816109       4.88480363       0.08910009       0.03093601       0.11528115      -0.16202259       0.46760511       0.52677178
C       18.26105065      19.94574902       6.04324054       1.43018097       1.18125545       0.86489512       0.77623785       0.60052824      -0.51513278
O       17.11393211      19.82245963       6.34569131      -0.14354009       0.12673623       0.32397508      -0.25818306      -0.12547937       0.50774896
O       19.18243439      20.65796290       6.75623763       0.31127525      -0.61589917       0.00980022       0.11458805      -1.17331219      -1.24270284
H       19.46454654      22.55486820       4.99904800       0.06313578       0.02672377       0.02293607      -0.04468661       0.07830244      -0.34557325
H       21.25484227      22.41725425       4.77324076       0.14948013      -0.16493650       0.06329774      -0.17453706       0.12129283       0.00770370
H       20.53243484      22.90636028       6.36022284       0.01288309      -0.13618663       0.10677949       0.07895403      -0.23688751      -0.50700593
H       21.28528774      20.52524001       6.39576694      -0.02576861      -0.16708611       0.08213507      -0.47472295       0.30283493       0.49515218
H       20.70097579      18.83731225       4.90444605       0.00590278      -0.06142484       0.01454853       0.07503691       0.38305816       0.19953831
H       20.42058546      20.16697589       3.81117388       0.15987882      -0.17188377      -0.02616607      -0.28386125       0.29280671      -0.69062483
C        3.28419640       0.27724524      14.74559663       0.42264346       0.12320803       0.46004700       0.80653846       0.81564814       1.94904602
C        2.26472505      -0.79014135      15.05271290       0.66416662       0.26118921       0.74553429       1.03421426      -0.00381456      -0.31083769
C        2.74560583      -2.01373418      15.82105916       0.92646807       0.78927455       0.53043554      -1.22877669      -0.44091219      -0.03556624
O        1.92005262      -3.08283151      15.15834551       0.39849668       0.12450722      -0.02390316       1.35262120      -0.14664596       1.60575092
C        1.40041944      -2.64661907      14.04554262      -1.03118362      -0.38673521       0.84240702      -0.69099373       0.92992997      -2.05602074
O        0.69375493      -3.28749981      13.28295957       0.06075248       1.11325484      -0.23514452       1.10832977       0.76974189       1.08416355
O        1.77754813      -1.34678282      13.82507975      -0.01073127       0.41150257       0.51337478      -0.59924191      -1.13535702      -0.44909590
H        4.06880589       0.37843799      15.62312093      -0.15025300      -0.02641467       0.20276958      -1.96610641       0.21575256      -1.28243279
H        2.62162147       1.20003154      14.61763314      -0.10326471      -0.17226008      -0.05167126       1.85093212      -0.84203559      -0.20786376
H        3.95698400      -0.02658272      13.94963514       0.13618830       0.07361091       0.09660201      -0.35430831       0.29058459      -0.67700541
H        1.43260210      -0.28569856      15.49064785       0.04054884      -0.03393919      -0.12144205      -0.67170501      -0.17701912       0.81159294
H        2.37728281      -1.96788879      16.86361952      -0.11852942      -0.23306451       0.20161289       0.57881784      -0.12248213      -0.48175731
H        3.83150059      -2.23612681      15.72227337      -0.22563281      -0.07395165      -0.16314882      -0.78627026      -0.03045985      -0.07976802
C        3.03662749       4.43787372      17.01428441      -0.78827996      -0.50508379       0.25847759       1.37560403       2.57793546      -0.50298387
C        2.20205526       3.27914428      17.26681080      -0.07724147      -0.67698413       1.07632687      -1.26334655      -0.07070149      -1.40949655
C        1.36813956       3.28085517      18.51060934      -0.24767023       0.85343942      -0.39970893      -4.05234957      -0.57342696      -2.78259945
O        1.30328481       1.90163395      18.87610862       0.05165756       0.03746994      -0.75601729       0.01091199       0.93285143      -0.08623479
C        2.30200505       1.29340534      18.25240128       0.81180503       0.96483417       0.92571757      -0.44584021      -0.85124111       0.07812570
O        2.42015335       0.10644481      18.39671487       0.18057123       1.59861223      -0.23453565       1.08062148      -0.01374048      -0.55759239
O        3.02527672       2.13693676      17.47716813      -0.38178660      -0.65327216      -0.56713275      -0.13438535      -1.71315479       0.58457267
H        3.40021640       4.28753008      16.00067595       0.36176961       0.22972407      -0.01390785       1.01143336      -0.02762494       0.24369305
H        3.85119240       4.64055607      17.76026136       0.11241612       0.04232177       0.06626236      -0.88639748      -0.31815958      -0.69188768
H        2.47413213       5.38438879      16.82193947       0.06223289       0.11753753       0.04308557      -0.06732249      -0.67985857       0.68700111
H        1.66639752       3.12890642      16.26815074       0.19062469      -0.45389509       0.07771811      -0.09124053      -0.34010786       1.61721432
H        0.31982771       3.72748617      18.39423489       0.99336139      -0.44721031       0.20243781       1.32241845      -1.01036036      -0.13344470
H        1.77907438       3.83515693      19.22722117       0.20763688       0.42010883       0.18730594       2.14474773       1.98618901       3.26523066
C        9.28352874      10.03263174      21.13404920      -0.33959555      -0.71036771       0.10243073      -0.81513637       0.75440913       0.89883739
C        9.74428450       8.78987499      20.41868493       0.49787500      -0.12185997      -0.47306902      -0.37248155       0.92104530      -1.46063972
C        9.30981707       7.43630288      20.99232054      -0.58293362       0.83409817       0.04272497       0.07299587      -0.51299363      -1.65800166
O       10.54135563       6.76224760      21.33924854      -0.17467005       0.69451978       0.28085212       0.29311097       0.67658824       0.21096776
C       11.58171321       7.55375859      21.00391062       0.41767937      -0.20888374       0.87968412       0.64688540      -0.10709092      -0.79875106
O       12.74455593       7.24177849      21.07845683      -0.04866187      -0.22436305      -0.48998764      -0.59304214      -0.17280731       0.40190071
O       11.18624572       8.68963892      20.44284097      -0.55673270      -0.20986008      -0.47540193       0.04916754       0.11295274       0.36716512
H        9.44309812       9.91638304      22.22562505      -0.12688388      -0.18560999       0.09122449      -0.23982832       0.13290693      -0.41806453
H        8.17334493      10.22567132      20.93062309       0.04564950       0.23014453       0.04224327       1.54454088      -0.39315763       0.22568201
H        9.86141440      10.93765549      20.83518790       0.38309876      -0.17747642      -0.16722611      -0.39424604      -0.76269919      -0.04716073
H        9.47093956       8.96719393      19.34448975       0.01741991      -0.04036961      -0.13777881       0.19851959      -0.80083853       0.89834857
H        8.84643070       6.81971106      20.18968157      -0.13834045      -0.05664845       0.08351023      -0.02846748       0.37824327       0.68683916
H        8.70724120       7.50580060      21.86940210      -0.05816584      -0.20120242       0.06621259      -0.54193449       0.05494054       0.51164031
C        6.46153483      36.85280807      -5.83720317      -0.93604253      -0.36867898      -0.70445434       2.76402974      -1.02847350      -0.47043931
C        7.08011485      35.78999468      -4.92022040       0.83649780      -0.51494108      -0.40265037      -1.49267638       1.25677216       0.10933986
C        7.06222352      34.33074575      -5.32169344      -0.01223717       0.45467593      -0.53919512       0.57045382      -1.09060001      -1.04588556
O        6.37394357      33.66071876      -4.25661422      -0.40678842      -0.20382430      -0.47620539      -0.54282337       0.14659968       0.37275925
C        6.11012183      34.50790648      -3.24635617       0.06717690      -0.17648221       1.17144988      -0.05013123       0.40868229       0.12803885
O        5.69876642      34.14543548      -2.14965165       0.21103179       1.10673670      -0.36499723       0.70956928       1.18012774      -2.17222929
O        6.33974654      35.80452600      -3.69098647       0.01768069       0.68645251      -0.33220445      -0.71365875      -1.82351530       2.05559778
H        7.26053303      36.87714893      -6.63909843       0.06975757      -0.18739284      -0.08299888      -1.35776722       0.17011462       0.15541558
H        6.45885109      37.85182876      -5.42793638       0.10144924      -0.04014093       0.06861669       0.04607739      -0.01063887       0.33702374
H        5.48455917      36.60238453      -6.13950877       0.02373011       0.35420599       0.08309006      -1.02206707      -0.37677938      -0.80896825
H        8.03829123      36.13398462      -4.66790933       0.09814837       0.07224841      -0.15900779       1.58904147       0.12631173       0.30931285
H        8.02711276      33.80431745      -5.31405598       0.11343527       0.19027282      -0.26089952       0.09402307       0.78838450      -0.23838528
H        6.62372184      34.14399748      -6.34084713       0.00881126       0.14283410       0.00562932      -0.22099531       0.10797133       1.16687739
C       13.33661122      10.73831625      13.56061555      -0.02218308      -0.02205231      -0.13114339       0.70124578       0.23025113      -1.24250519
C       13.12895302      10.17148395      12.14141834       0.26221570       0.08784997      -0.79612574       0.94854409      -0.88989502       0.34644923
C       14.44977665       9.76558359      11.39299584      -0.29729919      -0.55590375      -0.18442525      -0.20742936      -0.77279985       1.28867626
O       14.75899876      10.95811222      10.65610906      -0.37692430      -0.91146903      -0.22004482       0.68310046      -0.62475997      -0.16760886
C       13.68450482      11.70492295      10.52894126       0.33066265      -0.37087192      -0.12639123       0.28796560       0.97309637       0.15470324
O       13.68771108      12.74657104       9.89632863      -0.11690481      -0.25081101       0.16275106      -0.80312240      -1.12676215       0.75159448
O       12.67143411      11.16613601      11.23754517      -0.21014172       0.03696965      -0.05549822      -1.00924790       1.62217724      -0.78681904
H       13.57994852       9.95206364      14.25489891      -0.05691896      -0.03521319      -0.07281016       0.09490510      -0.40385196       0.15611950
H       12.46761580      11.25523085      13.90658106       0.03139994      -0.10136511      -0.16088277      -0.62062675       0.16376975       0.12814339
H       14.15200517      11.46582877      13.54908156       0.03575873       0.10672309       0.13574123       0.13604586      -0.06603260      -0.04533368
H       12.36328760       9.37599414      12.16613362       0.04460517      -0.00681045       0.01864353       0.52904791       0.24950229      -0.21550502
H       14.29656641       8.91176444      10.70813704      -0.05665456      -0.08466531       0.00748988       0.13314274       0.49441180       0.22960022
H       15.28206211       9.54220212      12.10008907       0.14885332      -0.00148715      -0.07756768      -0.57753003       0.26523301      -0.65905082
C        1.24959467      17.48498000       2.13981236       0.77018295       0.79647018       0.38619052       0.23273067      -0.91171998       0.27179560
C        0.33595508      16.27681167       1.81642959      -1.04894984       0.54932472       0.69986537       0.39572570      -1.21648717       0.10981802
C        1.08038306      14.89568475       1.57561847       0.21141430       0.37234561      -0.84524084       0.55563754       3.48925161       0.44186980
O        1.14803779      14.89879960       0.15254567      -0.48619351       0.31925902      -1.10483269       1.96434748      -1.41025925      -0.50863320
C        0.27803627      15.69412954      -0.41059954      -0.87592256       0.02033615       0.38148596      -0.29691628       0.81222224      -0.48179254
O        0.13674908      15.79268530      -1.61406725       0.07117638      -0.16379810      -0.56828703      -0.37740600       0.02104972       1.08003628
O       -0.36276419      16.37666350       0.54571821       0.91141732      -0.72138743      -0.27690179      -0.43827316       1.04571307      -0.67770797
H        1.50592486      17.43073773       3.22880060      -0.09582561      -0.18020686      -0.07418145      -0.19170313      -0.03378397      -0.85841191
H        0.81720203      18.48528210       1.98095704      -0.07521970      -0.21002352      -0.10786924       0.12973696      -0.70618004      -0.18025601
H        2.18697769      17.36070643       1.57294238      -0.19193038      -0.14096797       0.07194631      -0.14807729       0.33957472       0.08808784
H       -0.44550206      16.08669120       2.53622052       0.44307695      -0.06927924      -0.36805470      -0.15228087       0.40420675       0.51047045
H        0.52999169      14.05299239       1.81962665      -0.20903349      -0.18838705      -0.15612431      -1.04882073      -1.40091705       0.93648547
H        2.05024730      14.95000559       2.10634479       0.36121121       0.21080919       0.28678395      -0.13514581      -0.37188774      -0.89594710
C       29.47777875      12.05322849      14.41592261       0.41031284      -0.07408684       0.84472485       2.04017305       2.67590165      -0.42666191
C       29.09571036      10.85392511      15.10089815      -1.23107795      -0.25398699       0.36937413       0.42223772      -2.64053416       2.50942755
C       30.26100935       9.79170162      15.37490230      -0.03365666       0.25766510       0.49373792       0.57009125       0.71347272      -1.33672333
O       30.12825767       8.94736839      14.18993688      -0.25178073      -0.86877396      -0.64047273      -0.39398548       0.07901305      -0.40759856
C       28.90654806       9.10503771      13.66330975       0.63998048       0.79159983      -0.43053775      -0.85489064      -0.49999321      -0.64893305
O       28.40008973       8.48384746      12.74624412       0.59417064      -0.41208799       0.08856837       1.15657783       0.31502539       0.84763193
O       28.20188294      10.05856517      14.29639068      -0.33439512       1.12936464       0.27864432       0.32494777       0.07643341       0.14764735
H       30.20629180      12.61506666      15.05168219       0.07230004       0.08390748       0.12653596      -0.09842820      -0.51350820      -0.33523756
H       28.68276284      12.76461300      14.41414843       0.14866357      -0.18231799      -0.03352468      -0.86129069       0.37812352      -0.58528036
H       29.94429465      11.97712294      13.41361809      -0.07820623      -0.01203564       0.13425808      -0.38354284      -0.29013067       0.55196965
H       28.57945924      11.11247772      16.06185648       0.02686463       0.04875748       0.03384180       0.27846479      -0.41341999      -0.95792520
H       30.07430082       9.10981316      16.19647764       0.01849756       0.09652904      -0.00053545       0.01257531       0.33060640       0.43668345
H       31.35592460      10.18163630      15.36607110      -0.05621617      -0.03484732       0.22001563      -2.06585932      -0.46836105       0.11641505
C       10.80091371      27.06586324      -4.68572279       0.22194673      -0.28832141       0.76587853      -0.91385686      -1.18852103       0.02984459
C       11.42132417      26.81616772      -6.03424795      -0.22951231       0.21503164       0.03210496       1.71468806      -0.26691756       0.93664825
C       11.20599119      27.86244120      -7.10199870       0.17520407      -0.49053180       0.21183338      -0.43465847      -0.21748187      -1.29747653
O       10.83073600      27.05611768      -8.29069355       0.39298850       0.03834344       0.17718638       0.12135123      -0.85599363       1.35783470
C       10.76711795      25.72413413      -7.91500894      -0.67327378       0.89303515      -0.06030616      -0.74918479       1.86583304       1.17054844
O       10.40461131      24.84424031      -8.61273920      -0.13035263      -1.22337714      -0.22999943       0.08774613      -0.71716720      -1.10105038
O       10.98320990      25.56075817      -6.58926341       0.22505473       0.61279364       0.29126379      -0.01846108       0.64134413      -0.96483260
H        9.70134739      27.17346997      -4.73541726       0.13989764      -0.17874735      -0.04172056       0.42864844       0.05549911      -0.07832638
H       11.20157245      27.95121066      -4.24488969       0.02854022       0.08438992      -0.20628306       0.32999915       0.77623355       0.23077339
H       11.01336714      26.22460829      -3.99439208      -0.46567258      -0.02028571       0.13928206      -0.08385025       0.42828041      -0.58741248
H       12.51233287      26.70891135      -5.90213733       0.24302876       0.11645982      -0.14099164      -0.28878567      -0.03650119       0.13130647
H       12.12017751      28.37645036      -7.42600717       0.01469397      -0.02658425      -0.05068697      -0.30327925       0.01363401       0.42462796
H       10.41979480      28.58404363      -6.80762457      -0.14625905       0.02152759      -0.40792967       0.16985169      -0.38155755      -0.63123173
C       23.66351245      31.96494041       5.89079693      -1.23914013      -0.35743496       0.92630515      -2.26663184      -0.81883389       0.51396620
C       24.69023853      30.94274547       6.14233676       0.18897645       0.26284058      -0.18492372       2.01899195       0.93837845      -1.67237473
C       25.77193688      31.48981446       7.10648630      -1.08169208      -0.61324766       0.02337670      -0.17497489      -0.90763801      -2.22665882
O       26.85671534      31.86890231       6.17234782       0.31765373       0.06201726      -0.12805350      -0.32840055       0.14764629       1.37670434
C       26.70409308      31.27666871       4.98283527       1.83274397       0.25768330      -0.71513712       0.38308653       0.21171275       0.54118222
O       27.59419794      31.22298860       4.16446084      -0.87252934       0.32215161       0.12755362      -0.70646608       0.01448560       0.13876295
O       25.48899636      30.77219112       4.87376103       0.36686412       0.03145435       0.18845665      -0.62092954      -0.79063231      -0.00662091
H       24.02976057      32.91641215       5.63663518      -0.00502737      -0.06169627      -0.24669394       0.87366623       1.24572134      -0.11991329
H       23.13607435      31.98402389       6.84333102       0.10677637       0.13223613      -0.19325427      -0.19723795       0.57581788       0.27654892
H       22.85321696      31.73612579       5.18898833      -0.03513716      -0.10351706      -0.15927104       0.40244481      -0.46759069      -0.16828322
H       24.29498843      29.98382052       6.37405513      -0.11849485      -0.15921169      -0.05338221      -0.18371314      -0.64458579       0.25561300
H       26.10966563      30.69644321       7.74269946       0.04405485      -0.24452335      -0.02379574       0.50987476      -0.02925319       0.61411482
H       25.35983354      32.33893417       7.60515756      -0.06647459       0.07307356       0.07657006       0.42341161       0.64069313       0.52764130
C       12.69359373      35.04931815      12.80862267       0.62257104      -0.01399729      -0.68440798       0.94747412      -0.84011465       1.49818730
C       11.38513557      35.24795728      13.50643204      -0.10740812      -0.29942534       0.93742120      -0.58619255       0.13351387       0.78418100
C       11.44676114      35.93531068      14.87178204      -0.10956688       0.68405656      -0.47315044       1.03828883      -1.04256320      -0.38060564
O       11.84531350      34.81318063      15.73673317      -0.04187827      -1.10151994       0.28088526       0.21451691       1.77463377       0.47089028
C       11.27971541      33.71394339      15.30541628      -0.00546044       0.31601268      -0.36626605      -0.04134915       2.39522290      -2.72082305
O       11.19348856      32.74797506      15.95782294      -0.15545649      -0.34966552       0.37418298      -0.52586156      -2.23073983       0.43742010
O       10.85158333      33.94421564      13.98610640       0.61024434       0.38248606      -0.08996652      -0.01170387      -0.75586653       0.48685655
H       13.19791909      35.97063291      12.63920625      -0.03052711       0.23008334       0.08820867       0.19813067       1.11077905      -0.01259503
H       12.55783102      34.63278789      11.83344236      -0.37471419      -0.14568902      -0.12121313      -0.03480843      -0.77976578      -0.35098800
H       13.41494027      34.47841827      13.49329655      -0.18374283      -0.01735820       0.05116879      -0.99257523       0.40136674      -1.14955127
H       10.65618931      35.76666701      12.82804539      -0.02663722      -0.07057137      -0.29234965       0.32442784      -0.89729416       0.79258329
H       10.44607875      36.22317299      15.13030816       0.01033834      -0.26139972      -0.05735075      -0.33660066       0.41217780       0.51288360
H       12.22086986      36.68066185      15.00439624       0.06298320       0.24482091      -0.23499695      -0.26659465       0.23258860      -0.11653660
C        3.60101870       6.41176044       5.57259421       0.28466633       0.60872966       0.66183704      -1.87599349      -0.63038933      -0.58617115
C        2.58209151       6.14523436       4.40581152      -0.25488300      -0.86805287       0.65925481       1.18496692       0.71301222       1.86867237
C        1.44949187       7.11953948       4.15698865       0.83213484       0.66421072       0.76073639       1.27369356       0.74565637       0.32524908
O        0.39722455       6.27337320       3.77266582       0.20854340       0.65788462       0.61430063      -1.32879055      -0.49578673      -0.64806086
C        0.60779853       5.05578157       4.25639577      -0.78761228      -1.34624673      -0.80008679      -2.42522454      -3.00504184      -0.20060113
O       -0.26241497       4.11952577       4.21788431      -0.58547000      -0.19345603      -0.81932764       3.80790591       3.65951085       0.22635238
O        1.86022037       4.96268900       4.72982407      -0.36123693       0.11074226       0.13896423      -1.12114060      -1.40350187      -0.28840998
H        3.12265760       6.43656430       6.58477537       0.12569567       0.01139204      -0.06589689       0.28122902       0.33459613      -1.07325792
H        4.10196132       7.30192286       5.27167284      -0.43022085       0.08939550       0.04707914       0.42398739       1.02481437       0.30208662
H        4.35915391       5.63717365       5.57548140      -0.01599583      -0.09431081      -0.20819367      -0.00872831      -0.34901917      -0.13917068
H        3.16353835       6.04883205       3.51386326       0.35557369       0.19538468       0.21292095       0.21996844      -0.55340999      -0.70350623
H        1.68318021       7.89006378       3.42470225      -0.30128535      -0.06636089       0.16043397      -0.17408472      -0.33279493      -0.38607356
H        1.16287136       7.61394902       5.05327926       0.37848577      -0.21974232       0.03279538      -0.35627621       0.44574228       0.94206566
C       24.59258684       8.52622182      17.83194118       0.49224258      -0.06721048       0.71856499      -0.00025253       0.92966795      -2.55590105
C       25.93988421       7.96587746      18.08779687      -0.20524838      -0.06346009       0.25570676      -0.43318719      -0.21925765       0.49083009
C       26.96476908       9.09310920      18.33691874       0.01836268       0.54384066       1.30638359      -1.26674414      -1.14896142       0.13266461
O       28.12529281       8.48325272      17.78426154       0.22959528       0.13642579      -1.36588229       1.00648201       0.35729682      -0.31754839
C       27.80600188       7.51228168      16.89586199      -0.02682868      -0.06457054      -0.14064688      -1.54712272       1.49126041       0.90333867
O       28.59321532       7.01830470      16.17426740      -0.31977853       0.68298675       0.10416326       1.43172181      -0.99097973      -1.06535316
O       26.49092029       7.27668685      16.89148709      -0.43307470       0.65699716      -0.73582278      -0.02784900       0.54067773       1.11523986
H       23.91395122       7.82783802      17.35483798      -0.07359693      -0.16127440       0.11459081      -0.10616647      -0.31834942       0.09745814
H       24.65465477       9.42932083      17.16372727       0.19021661       0.14327911       0.14747042       0.04715267      -1.06784892       0.40905675
H       24.14036016       8.89137254      18.70486714      -0.02172055       0.12799076       0.07019269      -0.55773276       0.27264094       1.46047342
H       25.86980699       7.21450519      18.91671422       0.07008006      -0.13411125      -0.23547363       0.57808858       0.56555605      -0.78020227
H       27.08355394       9.18651845      19.41656696      -0.19761271       0.17060949       0.24044250       0.25471276       0.35374931      -0.11861629
H       26.66474620      10.06729993      17.86464675      -0.01519475       0.06656262       0.08273414       0.65017480      -1.05640590       0.25132295
C       24.10976392      25.53574907      -3.87849668      -0.54209861      -0.14008578       0.17487661       0.15096246       1.71028316       1.13334882
C       22.84277489      26.39271600      -3.65919042       0.43181868       0.49594649       0.66819339       0.21738306      -1.06351483      -2.10800982
C       22.98469569      27.60730153      -2.78720071      -0.21629190       0.02800502      -0.68154517       0.89397287      -0.23125130       0.90966666
O       21.93904053      27.46794413      -1.78838882       1.19210478      -0.64836298       0.17655660      -0.07251479      -1.03178346      -0.38744110
C       21.31842808      26.26625420      -1.96118818       0.28593475      -0.42833550       0.30950150      -0.11261171       0.68133473       0.17225619
O       20.39591876      25.90923941      -1.27520925       0.26065221      -0.00699995      -0.19392678       0.37811542      -0.09798412      -0.07356161
O       21.83735390      25.56279477      -2.97410118      -0.54566850       0.08656086      -0.52422000       0.13554855       0.83294296      -0.05929320
H       24.95472929      26.21852271      -4.17123811       0.00085463      -0.17200305       0.18173968      -0.74258655      -0.70576704       0.39375949
H       24.02133673      24.80857301      -4.67185473       0.03381804       0.03880426      -0.07123279      -0.24941966      -0.32633823      -0.01303599
H       24.30320397      25.09066348      -2.88329957      -0.01951910      -0.05832285       0.26332150       0.34829569      -0.15732917      -0.68351644
H       22.47156295      26.70187455      -4.66342837       0.09394751       0.02103681      -0.03440370      -0.23167448      -0.30677837       0.76016366
H       22.81115757      28.54351724      -3.30194194       0.28518823      -0.03295866      -0.07569545       0.10145061       0.08774272      -0.15641782
H       23.99078460      27.54234330      -2.32055000       0.12231460       0.08457608      -0.14633889      -0.74568242       0.51417387       0.09190706
C        6.14927171      26.09156565      22.03777539      -0.87303577       0.00899260      -0.49130555      -0.55899531      -2.42960691      -3.26657438
C        7.60146852      26.32019175      21.80434826      -0.14456637      -0.79856244      -0.21141091       0.60412997      -1.20945501       1.45335186
C        8.00559728      27.75992803      21.72325528       0.05933120      -0.14185022       0.30818821       1.81637311      -0.49221516       0.43178883
O        9.00446509      27.76415217      20.65785728       0.11356547       0.46429964       0.35781836      -0.02342324       0.58727193       0.67412913
C        8.96773057      26.61531496      20.00537924      -1.28764727      -0.80954898       0.30471924      -0.37035781      -0.13420554      -1.81074274
O        9.55473882      26.44062770      18.94988011      -0.40204631       0.17458635      -0.57066597      -0.44237459      -0.29420790       1.46886504
O        8.08994666      25.75985776      20.56380637      -0.71785199       0.33506443       0.67637618       0.14470157       0.08896224      -0.67617100
H        5.61451074      26.43686045      21.11488698      -0.05895149       0.22440031      -0.04678863      -0.02321758      -0.10192688       1.16802514
H        5.76609951      26.43377876      22.93782427      -0.14965652       0.28295943      -0.04489854      -0.41259718       1.41882110       1.51385105
H        5.91783969      24.99117020      22.11592908       0.04381869      -0.09411840       0.36496971       0.39038524       0.75402451      -0.34528217
H        8.16070619      25.75638807      22.57174810      -0.22370352      -0.13805659       0.07744177       0.00063834       0.65045011      -0.14153068
H        8.50805744      28.04773369      22.64472504      -0.08542845      -0.20932801       0.30379813      -0.08689190       0.27656156      -0.03231502
H        7.23627454      28.43398495      21.46481141       0.07818352      -0.21814140      -0.01409324      -0.89254951       0.68053430      -0.38777855
C       35.19782343      26.23551577      -3.72589406       1.05461691      -0.69061304       0.93240161      -1.30831361      -0.50471961       2.81338000
C       33.91623686      26.94757033      -3.23116189       0.36619272      -1.20374386       0.75368688       0.08899850       0.24872467       0.06262593
C       32.80440419      25.98643405      -2.77219577       0.26255358       0.26409654      -0.40416403       0.98828095      -0.71639812       1.32376385
O       31.60405673      26.52825965      -3.27006428      -0.51783925      -0.05101984      -0.75594785       0.17807534       1.24201453      -1.40085554
C       31.92910451      27.46206899      -4.25156794      -0.41902090       0.36538653      -0.62446875      -1.81328440      -0.66074467      -0.04125339
O       31.11259481      28.00720308      -4.95911255      -0.74832203       1.24918660       0.75597612       0.84820813      -0.52613246       0.87183154
O       33.23485940      27.64534084      -4.34128075       0.35047166       0.29861425       0.14131591       0.77354223      -0.10365319       0.68454242
H       35.28965668      25.38104829      -2.96505390       0.07702320       0.26324056       0.02361167       0.52165478       1.22005749      -0.97354478
H       36.08265397      26.86694172      -3.76947901      -0.12690262       0.02211437      -0.14219954      -0.03019182      -0.00953932       0.03178532
H       34.98495046      25.75675259      -4.63857111      -0.05666570       0.04481973       0.42440954      -0.10922681      -0.48044631      -1.37521303
H       34.11271538      27.69551986      -2.44684913       0.19035489       0.02439166      -0.03096320      -0.01787804      -0.15297250      -0.46621612
H       32.68552658      25.80312193      -1.66108518       0.17937620       0.11343661      -0.20672945       0.33270222       0.75067085      -1.26687586
H       33.05085288      25.01140198      -3.19517947      -0.29546333       0.27900293      -0.08477680      -0.53976625      -0.17277165      -0.37515581
C       27.49230471      11.82265181       0.64199015       0.12695834      -0.12969210      -0.58391843      -2.15245724      -0.15319034      -0.85235322
C       26.31394388      10.79044597       0.58640842       0.21420483      -0.57336605      -0.33840021       0.90494937       2.32129526       1.24996316
C       25.08753395      11.47731013       1.15631457       0.22301664       0.20405444       0.80539717      -1.23481607      -0.57334483       0.56525666
O       25.26352736      11.19964179       2.58634295       0.27372296      -0.41661342       0.41075824      -0.92415965       0.42232552       0.23450054
C       25.98054189      10.12051710       2.73044740      -0.29928195      -0.53762259       0.12751314       0.29996738      -2.35692716       0.65665483
O       26.05314305       9.39682952       3.73797676       0.32932612      -0.05549992       0.18908048      -0.18033773       1.94418049      -1.57887864
O       26.55372553       9.77602971       1.57034906      -0.50132228      -0.30848824      -0.28250358       0.10510115      -0.69072837       0.31055108
H       27.72035025      12.21002363       1.63227090      -0.30552015      -0.13133077       0.03804897      -0.37404379      -0.13136612       0.20833071
H       27.18577842      12.64547711      -0.02507495      -0.10716822      -0.08942310      -0.04695983       0.37824860      -0.13883759       0.25084907
H       28.34289314      11.35534158       0.26670175      -0.04128154      -0.09321233      -0.05415156       1.69742775      -0.64919573      -0.70854539
H       26.11593489      10.32786077      -0.36055442       0.06464506      -0.30362007      -0.03461727       0.24017909      -0.16610911      -0.46527371
H       24.12917949      11.01771157       0.79729621       0.01475399       0.04233357      -0.05463124       0.69077164       0.27338403       0.60132557
H       24.99446634      12.56074929       1.12306270      -0.14741520      -0.11397093      -0.01563250       0.33106869      -0.07150653      -0.51996171
C       29.03388117      25.70111288       0.28812972      -0.00524678      -0.84852614       0.46909036       0.69374371      -0.30695924       0.09661669
C       27.64164260      25.20239498       0.04997067       0.73779633       0.82646229       0.32935430      -0.31799775      -1.07394230       0.53072774
C       27.47731296      24.39063184      -1.23833823      -0.33849926       0.23972348       0.50365506      -2.03703904       0.73426217      -0.38982391
O       27.04826335      25.42115876      -2.21260425       0.46164169       0.05787630       0.74821899       0.36117652      -0.67741126       0.93351936
C       26.58341927      26.44282270      -1.49878162      -0.72038895      -0.65926833      -0.16358246      -0.00722378       0.66655684      -0.84449679
O       26.09242830      27.42091088      -2.00127814       0.33297706      -0.86619355       0.36293776      -0.14364335       0.08466360       0.21016705
O       26.78068572      26.29891016      -0.19712883       0.50046251      -0.31129455      -0.12342602      -0.51000130       0.78836405       0.22645523
H       29.34618188      26.31118892      -0.56968355      -0.15324585      -0.08205207      -0.04741193       0.11023425      -0.00740204       0.19704846
H       29.68817408      24.82542560       0.31657680      -0.15138375      -0.17717235      -0.01612732       0.06735911       0.08206008      -0.05760105
H       29.20745795      26.24132265       1.23212025       0.03961136       0.10736260      -0.01024052      -0.45654085      -0.01196157      -0.41846764
H       27.19326962      24.65092614       0.90058296       0.03904343       0.08627552      -0.07152061       0.44533399       0.38264036      -0.33398449
H       26.64047657      23.67542036      -1.20654859       0.04602039       0.01652876      -0.01916194       0.29517904       0.12793392       0.24511282
H       28.31897979      23.92636893      -1.64747821       0.17536594      -0.17972454       0.24584275       1.54979920      -0.66395199      -0.29070568
C       18.60683137      14.93834077      16.04776989      -0.53854893       0.39454894       0.65917918       0.87539929      -0.78516644       0.21650185
C       17.26755791      14.57512708      15.53485932      -0.45848828       0.21841534       0.01123884      -0.25030860       0.15703996       0.00355231
C       16.74271632      13.29166508      16.13874231      -0.22947846       1.04925824      -0.27784274      -0.63986284      -0.27397251      -0.01360013
O       16.12836686      12.63077490      14.98084878       0.46945208       0.26866137       0.94621948      -0.53983957      -0.77953345       1.38280761
C       16.51279750      13.20740326      13.86259844       0.63360136      -0.21775653       0.25248439       0.93206728       0.34936041      -0.75695550
O       16.30812527      12.77968913      12.75414907      -0.38948316      -0.20852623       0.00322298      -0.38461542       0.10350348       0.23565859
O       17.27305784      14.26605977      14.12035925      -0.27291820      -0.59565302       0.24496474       0.37188566       0.54919803      -0.29634750
H       19.36380880      14.21432913      15.72964109      -0.14897403      -0.11885803       0.13714082      -0.23099232       0.00895503       0.22527225
H       18.60909633      14.92441601      17.13402278      -0.03863260       0.01022131      -0.12617321      -0.25878376      -0.10428142       0.03827184
H       18.89909173      15.90651240      15.74244225      -0.16676167      -0.14065885      -0.01468977       0.30037904       1.07932103      -0.48420352
H       16.61212537      15.42410238      15.66261062      -0.00526583       0.03242669      -0.11747785      -0.46547481       0.03578918       0.04679252
H       15.95078131      13.45194707      16.89454249       0.03879756       0.15454890      -0.12276955       0.50152230      -0.12540370      -0.31588376
H       17.57550743      12.67535049      16.52564772       0.11720507      -0.03628073       0.00757533      -0.40786660       0.09713022      -0.23714603
C       -0.88034785      27.15949777      19.62112270       0.65233758       0.01590540      -0.46947504       1.78504574      -1.13502181       0.57623672
C       -1.53771570      28.52214836      19.78771096       0.27265893       0.24662640       0.10891887       0.63267487       1.44806969      -2.66050220
C       -1.43354591      29.03272594      21.20673657      -0.82095241      -0.20151325       0.35637024      -1.30646110      -0.65549552      -0.63123667
O       -2.66713506      28.54921467      21.78002281      -0.31734123      -0.20065291      -0.20352228      -0.87348074       0.30464900      -1.51781070
C       -3.58001532      28.36140659      20.75582448       0.83566432      -0.22865359       0.16427848       0.45574734       0.35595807       0.66934305
O       -4.72930822      28.13584276      21.00803043       0.77703488       1.15395468       0.73029626      -0.18129790      -0.07153338      -0.05838277
O       -3.05741060      28.44987942      19.51724198       0.71430329      -0.11692321      -0.06560410       2.06898856      -0.15755606       2.06046534
H       -1.07954545      26.43395622      20.61287490      -0.36177391       0.17797595       0.03471369       0.25759819       1.72440839      -3.15786290
H        0.34031824      27.26794485      19.56371449      -0.06796418      -0.01500780      -0.24222006      -3.10816288       0.06166691       0.31304199
H       -1.18623098      26.80814366      18.57455114       0.34778348      -0.41731304      -0.32073386       0.24340333      -0.36059022       1.85159659
H       -1.12716059      29.28333310      18.96364154       0.13702614       0.07713897      -0.27583493      -1.06187308      -1.62844396       1.99129117
H       -1.31731835      30.09426408      21.28745405      -0.02262113       0.04153215       0.12843364      -0.35355675       0.59588963       0.19107363
H       -0.69319198      28.50799087      21.73527001      -0.09864791      -0.08823172      -0.35183318       1.37269962      -0.40833339       0.61692315
C        3.38681631       8.91144795      -2.28084868       0.69583478      -0.42562804      -0.04785320       0.09735796       2.71353126       1.19694793
C        4.09470014       8.08099406      -1.21854302      -0.13582612       0.76861926       0.10955281       1.11390150       0.01078031       0.29371053
C        3.59568769       6.67433700      -0.93814673      -1.28836303      -1.43582417      -0.51927936       1.94513035      -0.51256752       2.10963249
O        3.73463289       6.58022991       0.59310769       0.37933722      -0.94972335       0.27766169      -0.32659361      -0.35643199      -2.24736524
C        4.02886683       7.76391726       1.07334904       1.36179715       0.02363018       0.00398867      -0.54104394       0.74757618       1.04003096
O        4.14601767       7.98885077       2.27030974      -0.45620226       0.19837366       0.19018422      -0.05933956      -0.23235354      -1.44047070
O        4.10427720       8.71042876       0.11897915      -0.22859408       1.18002197      -0.08181682      -0.25628856      -0.08035254      -0.40166289
H        3.27371266       8.42863321      -3.22295818      -0.05045534       0.12088445       0.06243420       0.90100348      -0.22220543      -0.71594262
H        3.70248170      10.04663544      -2.29666187      -0.07745663       0.46106993      -0.07894694       0.53565472      -2.40368128      -0.48538274
H        2.37946479       9.16694681      -2.06200114      -0.19494117      -0.23085683      -0.00852326      -1.38216054      -0.59055775       1.00523412
H        5.14878378       7.97853866      -1.44550758      -0.00917646       0.14542456       0.15686406       0.30684465       0.31643337      -0.39947975
H        4.16466623       5.79910547      -1.30946405       0.01955119      -0.10803939       0.07796863      -0.10490559       1.02706742       0.05509499
H        2.60833371       6.58210125      -1.21934447       0.21028734       0.08616007      -0.08264910      -2.29763246      -0.41650212      -0.04287051
C       22.50511093      21.51653790      12.02892178       0.28606917       0.27383852       0.26399595      -0.35949913       0.51713914      -0.09744609
C       22.64063111      22.35542975      10.79600111       0.59955501      -0.46123780       0.15260588       1.44117057      -0.53552681       0.69123268
C       22.68621889      23.86237524      11.01480762       0.14443676       0.80834691       0.83443236       0.91837883      -0.04689475      -2.50263977
O       21.98629227      24.31238083       9.77821980      -0.22432917       0.29989841      -1.01971869       0.32079306       0.47852471       0.83278817
C       21.27694333      23.30317262       9.30321874       0.19270948      -0.34149718      -0.22190229      -0.51629627      -0.13464350      -0.20630011
O       20.51526984      23.38045146       8.36696306       0.27952865       0.32448609       0.26043142       0.37604779      -0.01664605       0.58636719
O       21.53002495      22.19350295       9.98802490      -0.16217067      -0.71091653      -0.47126096      -1.89935410      -0.62575078      -1.43837011
H       21.70569766      21.85808945      12.67150470      -0.08481507       0.02550220      -0.04752842      -0.34921822       0.27613863       0.17371953
H       23.43489098      21.65013768      12.52235706       0.11637886       0.09829743      -0.01606268       0.87862551      -0.39242253       0.75257337
H       22.31392237      20.48732401      11.79455227       0.11957817       0.09284255      -0.25496861       0.15289998      -0.44142520      -0.17659375
H       23.50379696      21.95851863      10.21613607       0.05828622       0.03764158      -0.12144319      -0.16178744       0.53265113       0.31265810
H       23.68964050      24.27319461      10.85366636      -0.08447410      -0.02488548      -0.02707711      -0.21104644      -0.09898778       0.73523712
H       22.17065964      24.20596084      11.88247348       0.04639409       0.09526721       0.06165625      -0.39074579       0.25081480       0.44808093
C        5.24672962      -2.73913657      21.03914014       0.17911425       1.11564366       0.30794700       1.32621646       0.12575148       2.18621397
C        4.51136387      -1.89498186      20.09095008      -0.16911040      -0.71017198      -0.10265112      -0.72842079      -1.20442235      -0.41125712
C        5.28650911      -0.92538201      19.23563872      -0.16024036      -0.65228119      -0.45138744      -0.73798412       0.38456467       0.17841427
O        4.90587509       0.33104535      19.79142527      -0.90147930       1.18540240       0.47092707       1.21419096       0.69241536      -0.78105557
C        3.96287027       0.18080421      20.66146275      -0.70840010      -0.80055080       0.67964386      -0.66162544       0.73563373       1.85519159
O        3.51907433       1.11972258      21.28939294       0.93872978       0.63474104      -1.23343353      -0.21298535       0.13072079      -0.15354547
O        3.62731166      -1.06876617      20.91176952       1.20540090      -0.77879067       0.28896086       0.37233022      -0.10752945      -1.21577704
H        6.01203957      -3.34425173      20.55706987       0.01053788      -0.04837628       0.04501866      -0.22993733      -0.21630064      -0.13213533
H        4.52112280      -3.35313096      21.63081254       0.05930475       0.03531347      -0.19566234       0.64765334       0.41617107      -0.59346223
H        5.80657794      -2.06660961      21.75618225       0.07648043       0.11572915       0.14203819      -0.66315788      -0.73289549      -0.64924347
H        3.96855268      -2.57548925      19.44386756       0.12899059       0.00320950       0.11114083      -0.82510942       0.25938603       0.03602846
H        4.99519228      -0.87946350      18.20848783       0.15387519       0.03402958       0.03244955      -0.30593914      -0.29937184      -0.70147097
H        6.33068823      -1.05766051      19.29057659      -0.26036366      -0.08898045       0.00053609       1.26986694      -0.03355803       0.27642262
C       19.84039297      33.97259446      11.86708854       0.00249060       0.18339549      -0.20083244      -0.36251247      -0.45482919       1.47961068
C       19.47884113      32.62324051      12.53060286       0.40089725       0.22724759      -0.65196487      -1.03800619       3.13718009      -0.06923057
C       20.55144154      31.63512619      12.25635741       0.36426586      -0.90933466       0.25944802      -0.71172398      -2.91414881       1.83993626
O       19.72685131      30.37118546      12.01515698       0.83068332      -0.46319579      -0.33847872      -0.74658281       2.26710796       0.20552129
C       18.43220022      30.79411493      11.77069333       0.02043853      -0.29729676      -0.33522879       1.03966928      -1.47011364      -0.42480868
O       17.58782661      29.99846140      11.42166277      -1.05140309      -0.57826231       0.35538670       0.26557633       0.85220802       0.37488139
O       18.26214523      32.12894786      11.89735681      -0.14179173       0.06759455      -0.47545713       0.69680715      -1.53653562      -0.06670950
H       19.97462937      33.84092468      10.81367698       0.19667557      -0.23200726      -0.05681848      -0.30022082      -0.03042406      -0.81607270
H       20.80389789      34.30781733      12.25606607       0.00029624       0.14796230       0.13676915      -0.08011714       0.10873831       0.30687279
H       19.06143737      34.69766747      12.13511551       0.34033849      -0.14478103       0.11549323       0.27825975       0.01171765      -0.39682046
H       19.10418813      32.81186128      13.58921407      -0.17851725       0.23781625       0.45895124       1.30688953      -0.60027421      -1.04287124
H       21.15740547      31.48867337      13.19661795      -0.07228299       0.06920558      -0.06940143      -0.42292917      -0.12046416      -1.13496912
H       21.16811660      31.70833548      11.37343888       0.54577688       0.22826516      -0.18631014      -0.13497609       0.65022379      -0.10073999
C       28.26764975      13.98927894      -3.06122361      -0.21331861      -0.58159900      -0.33793472      -0.28086004      -0.25262693      -1.36907673
C       27.54309652      15.19738190      -3.67569295      -0.03707013      -0.36392792      -0.33325565      -1.14888275      -1.26614869      -0.30996597
C       26.33454954      15.69724102      -2.87555931      -1.01444098       0.13030909       0.39555628      -0.02971760       0.83589536      -0.06837061
O       25.26575870      14.81794809      -3.34281644       0.21327194      -0.10136324       0.59532874       0.62637961      -0.07766655       0.06926961
C       25.56023356      14.45307665      -4.61180450       0.35216993      -0.25457643      -0.68881362      -0.51030242       0.76253939      -0.04919285
O       24.73474276      14.02355122      -5.38287757       0.35074925      -0.06220299       1.47990704       0.78489256      -0.20199752       0.52692324
O       26.83773058      14.75086894      -4.90768128      -0.48961750       0.45271452      -0.69585145      -0.29778782      -0.48634189       0.28138092
H       27.55665027      13.30847107      -2.58185391      -0.19228864      -0.15027151      -0.03475356      -0.06145737       0.05498676      -0.18145616
H       28.95641693      14.30118575      -2.30268327       0.05386857      -0.10263461      -0.11520239       0.49876279       0.32836428       0.34575740
H       28.79924233      13.42596204      -3.88103715       0.04780814      -0.19076755       0.03184568      -0.46554428       0.54867220       0.89024210
H       28.17850296      15.94705667      -4.08981050       0.00169686       0.12093170       0.16993857       0.68128502       0.75020915       0.43608350
H       26.02880284      16.71734394      -3.18184318       0.05233327       0.00521742      -0.01335088       0.39595386      -0.47483066       0.15891580
H       26.46469392      15.68691939      -1.77470144      -0.13380668       0.12395051       0.04597531      -0.23989926      -0.49200869      -0.77460700
C       11.19002355      15.22334789      16.32582784      -0.46947806      -0.61377568      -0.30723302      -0.96460146      -0.34398356      -1.97143805
C       12.08232904      14.94155378      15.12445371      -0.40507975      -0.68183483       0.55500507       0.42502379      -0.38679051      -0.10169843
C       13.36988710      14.20583351      15.48265501       0.29855581      -0.31121133       0.12288173      -0.30324683      -1.28456819       1.67906964
O       14.39135901      14.87269254      14.80503732      -0.63702134       0.81021896       0.07726891       0.31428230       0.00170241       0.24222571
C       13.92823947      16.06261271      14.47258827       0.13893319       0.52600553      -0.26215916       1.58513451       1.09092939      -1.50467408
O       14.60585998      16.91589940      13.98418788      -0.32600659       0.18733166       0.27379710       0.67123938       0.63172233      -0.04738210
O       12.63910271      16.19603635      14.58291697       0.73091954      -0.22746806      -0.80985660      -2.32371998      -1.00497591       0.95573586
H       10.84792378      14.27947628      16.75429320       0.05931257      -0.01688985      -0.00009552       0.24745804      -0.03015454       0.12086755
H       10.28381907      15.69781295      15.90187056      -0.01439507      -0.07685901       0.07358144       0.36497152       0.09588761       0.63834327
H       11.71383476      15.84233612      17.02607287       0.08105656      -0.18714378       0.02431462       0.17361142       0.33246085       0.39100856
H       11.60390093      14.37914328      14.28918247       0.01534651       0.10994193       0.16084461      -0.03488012       0.87576598       0.55588907
H       13.39991611      13.17662418      15.15153547       0.11170190       0.02870219      -0.05183761      -0.23709382      -0.28806457      -0.07074847
H       13.55566524      14.20423950      16.58816282      -0.29023600      -0.07374327       0.16280267      -0.03260084       0.23086983      -0.77949697
C        3.67682647      19.71564729      27.33264182       0.16438580      -0.14347104       0.03844305       1.51755095      -0.45993564      -0.48247275
C        2.50871995      19.80646997      26.36457480       0.57179762      -0.51362131       0.63058479       1.59714711      -2.75716615       1.45661843
C        2.28384975      21.20957082      25.89696504      -2.01263510      -0.09216399       0.42004980      -1.43599653       0.04796900      -0.89220911
O        0.79416022      21.24563993      25.81093519      -0.58648502       0.52714726       0.27391914       1.74719131      -0.14154664       0.25871640
C        0.33508791      20.20302576      26.53211236      -0.46051385       0.72140757      -1.07509199      -2.79364848       1.87280607      -0.68233418
O       -0.84744646      20.06745370      26.70195368       1.94824248       1.01966871      -1.18350815      -0.51706779      -0.33352512       0.00023770
O        1.22520927      19.45330203      27.04971529       0.93511300      -0.71516955       0.18085631       2.83345461      -1.07222700      -0.28278556
H        4.50535928      20.28409857      26.75430337       0.14420600      -0.56042041       0.43872818      -0.93105215      -1.26639259       1.23220778
H        4.01350650      18.65107237      27.65851572      -0.46277280       0.21812705      -0.40242897      -0.61182272       1.76025963      -1.09872925
H        3.49785395      20.27388811      28.25471067      -0.24191792      -0.29599192      -0.00838457      -0.16430880       0.24806841      -0.20320231
H        2.72599454      18.96689627      25.54499441      -0.19248667      -0.06525483      -0.07839483      -1.02306473       2.14679313       1.53293002
H        2.67604227      21.12421989      24.91563492      -0.18483101      -0.08341903      -0.10517878       0.17978767       0.99400693      -1.23990393
H        2.69401343      22.12907246      26.38082812       0.23638488       0.00046239      -0.21619744      -0.45007402      -1.16280282       0.19506162
C        8.36913328      22.71357394      22.41145960      -0.59931576      -0.46793843      -0.52356933      -2.68631792       0.16695523       1.48474109
C        8.04041676      23.04073304      23.88154449       1.42193863       1.21629729      -0.05968158       2.75014687      -0.07583109      -0.49136972
C        9.10303459      22.47562405      24.92007428      -0.80258914      -0.33217193      -0.40564562      -0.95941526       3.67710972      -0.50347531
O        8.27075609      22.01029891      25.95946115       0.94287314       0.25130121      -0.08984223      -0.09129725      -0.81992042       0.41893619
C        7.01606708      21.91409054      25.54786866       0.17249637      -0.31003777       0.46595581      -2.90325117      -0.14848660       1.07718694
O        6.07546951      21.51053017      26.25660494      -0.74486179       0.35366181       0.57776870       2.86844945       1.01561797      -2.31478143
O        6.88171219      22.39779650      24.27444143      -1.25133641       0.09679768      -0.24890739      -1.74901783      -1.89861763       1.90437651
H        8.89054206      23.49062985      21.97181694      -0.00779508      -0.21200940       0.02095558       1.51906335       1.33440828      -0.76730108
H        7.40141536      22.68981031      21.91258090       0.10044710      -0.09013295      -0.00900331      -0.06721092       0.06041016      -0.16312380
H        8.78415183      21.75348781      22.28123931      -0.07156043      -0.09915424      -0.06028732       0.85204643      -1.09982455      -0.02460564
H        7.86009007      24.09734710      24.04858999       0.01685785       0.14725568      -0.07775488       0.27098802       0.28304672      -0.13115054
H        9.69888025      23.32494808      25.31420929       0.12566741      -0.35753237       0.12176073      -0.22125518      -0.67431337      -0.22591412
H        9.72653585      21.76559330      24.47251620       0.07292706       0.29296243      -0.00712161       0.78158855      -1.57195306      -0.35530674
C       15.64414354       6.24226002      -1.06829329      -0.74868982       0.38436847       0.27895648      -0.55089784       1.15363121      -0.29207057
C       14.75820814       7.31942906      -1.67484331       0.13941311       0.74132474       0.62061619      -0.29834673       0.43281364       1.09544504
C       13.99017876       8.26445467      -0.65342173      -0.10307772      -0.22362256       0.94345144       1.52670228       0.30317169      -0.51246780
O       12.68820469       8.25496131      -1.17988848      -0.13037083      -0.32642638       0.08701677      -1.18506491       0.83890659       0.17633402
C       12.54975561       7.38188051      -2.16287836       0.79090398       0.25227159       1.19387989      -0.79209185      -0.94895673       1.06396711
O       11.49991751       7.13869698      -2.68927691       0.33202841      -0.30208427      -0.33666802      -0.20380861       0.19122604      -0.59119511
O       13.65100904       6.68141100      -2.32167398      -0.35900120       0.00725331       0.43069425       0.16159329      -0.33494103      -0.73037744
H       15.25950212       5.93014637      -0.10469345       0.16944703      -0.08245439       0.12477871      -0.19328602      -0.37103713       0.01402990
H       16.56581993       6.76691117      -0.90216111      -0.26000229       0.19434261       0.04902316       0.83941841      -0.23309025       0.05681404
H       15.75564960       5.44561731      -1.81212580       0.17337240      -0.01032636       0.07733816       0.16719861       0.14760144       0.33671433
H       15.25477323       7.90424283      -2.43858080       0.13882827      -0.12529785      -0.24359158       0.35684344      -0.04270385       0.04909622
H       14.28889925       9.33607518      -0.62299749       0.04741430      -0.14245597      -0.13050449       0.29908133      -0.87246889      -0.20013042
H       13.99145980       7.86870244       0.35652715      -0.21621795      -0.01619027       0.11619672      -0.10716519      -0.27983624       0.18859531
C       15.06570109      17.03675239       5.95750998      -0.07982275      -0.06279808       0.31521033      -0.04738340       0.87716401      -1.41907108
C       14.31932562      16.88356902       4.64307837       0.08770114       0.93576173      -0.14525000       0.49228847      -0.93271506       0.28157392
C       14.06965546      15.40442383       4.27430362      -0.02280044       0.73600830      -0.28578438      -0.40486634       1.34562540       0.06748839
O       14.41523878      15.39949522       2.88070484       1.20390602       0.55307795      -0.43264358      -0.37208965      -2.12448859      -0.70783097
C       15.10034398      16.44690928       2.51272327       0.39661352       0.48063365      -0.08873988       2.02681136       1.43317425      -0.42313451
O       15.75367945      16.59206433       1.47531898       0.46673510      -0.21503730      -1.12236769      -1.79321885      -0.44690636       1.67995298
O       15.06549554      17.36918159       3.49221815      -0.91823633      -0.33257116      -1.07922962       0.30601335       0.36076447      -0.11292066
H       15.21031893      18.11637824       6.07129489       0.00757245      -0.08731420       0.09442328       0.48327336      -0.36170161       0.47537810
H       16.00589889      16.47824121       5.91971126      -0.13960603      -0.12583167      -0.09618664      -0.18068320       0.21260786       0.30727628
H       14.38395639      16.71081803       6.72042118       0.01380273       0.22543833      -0.08005092      -0.10260898      -0.36450779       0.58124435
H       13.40115328      17.44722280       4.68265134      -0.15804602       0.13216334       0.11642182      -0.31188554       0.08269342      -0.14549363
H       13.01838897      15.20084852       4.36851628      -0.00256132      -0.16049005      -0.13471581      -0.35733229      -0.24285357      -0.16270156
H       14.61468942      14.68499810       4.88386402       0.07225023       0.10506845       0.05797402       0.47139770       0.08571002      -0.43269947
C        2.39556447       4.02796177      13.73960268       0.43565539       1.27611675      -0.12795511       1.23427165      -0.37695920      -0.70550823
C        2.37601118       5.17156824      12.77023646      -0.04741949      -0.10305435       1.06260779       0.65009308      -0.48035017      -1.70630383
C        2.97038813       6.51731046      13.13697258      -1.58588443      -0.03735436      -0.35166722       0.50956357       0.93797898       0.27387321
O        2.04681983       7.56538006      12.67736061      -0.14043894      -0.38833154      -0.25645602      -0.30020028      -2.04543114       0.37489793
C        0.97080252       6.87577882      12.28573153       0.66542748      -0.39790374       0.05465465      -0.93177927       0.19953951      -1.07513177
O        0.01459028       7.36552963      11.75453898       0.17112490       1.36571793       0.74471825      -0.30187315       0.50421876       0.08643065
O        1.05378916       5.54966172      12.44899927       2.04552375       0.11241319       0.05528197      -0.63237393       0.17564778      -0.19013403
H        1.80859928       4.19845923      14.61343173      -0.16313802      -0.09046976      -0.02027939      -0.25744066       0.42172894       0.63417321
H        3.49444141       3.93037250      13.95809711       0.05641994      -0.18299566      -0.05924062      -1.05434906      -0.47407326       0.09930896
H        1.98194955       3.11331763      13.25392168       0.27629777       0.23414178      -0.12005519       0.51946646       0.62661541       0.23994292
H        2.86714959       4.76900003      11.83938804      -0.02356360      -0.12208707       0.07857096      -0.41643083       0.60640895       0.60491574
H        3.87255788       6.79646172      12.63967650      -0.09708071      -0.28723557      -0.00234273       0.87539393      -0.37569201      -0.14552796
H        3.05918570       6.60486314      14.19705503      -0.02749793       0.02290764      -0.32999269       0.14585131       0.23818201       0.86108649
C       20.50619508      18.88463928      26.30471774      -0.21362035      -0.82457245       0.02893359       0.62835765       1.62991345      -0.74684852
C       20.01345047      17.49041182      26.41764907       0.54025100      -0.13867048       0.40624896       0.40554661      -0.42960522       1.03267300
C       21.10709656      16.58685074      26.98538088       0.81105085       0.43563721       0.71120921       0.32994825      -0.37041074      -0.03061052
O       21.03758146      15.37383847      26.21334945      -0.52215230       0.31852079       0.86996645      -2.02894902      -0.02608644      -1.94169974
C       20.15399406      15.60149506      25.06912702      -0.27868810       0.22559105      -0.37596743       1.99855483       1.48452830       3.00679111
O       19.87533925      14.79371285      24.25626802       0.56076700      -0.39762596       0.26178865       0.09295660      -0.04682142      -0.08752671
O       19.79377909      16.91664655      25.12022581       0.47713838      -0.42121632      -1.06826706      -0.58813608      -0.84217894      -0.60152799
H       20.84091847      19.43315567      27.23029642      -0.11379679       0.02378913      -0.00454289      -0.44115505      -1.14373279      -0.61214173
H       19.78109742      19.54810990      25.82991352       0.01958428      -0.15438912       0.03766040      -0.15694480      -0.04311894       0.11296146
H       21.32936514      18.81509160      25.58304435       0.00892736       0.14178110      -0.03319355       0.23607211       0.31878892       0.26063567
H       19.08559451      17.44807939      27.01082220      -0.14232213      -0.00920270       0.03974915       0.20354632      -0.21159373      -0.30050784
H       20.91004279      16.38754747      28.03929924      -0.08775082       0.06084799      -0.16370877       0.11845331      -0.23403709       0.01662574
H       22.13631732      16.97641798      26.87533526       0.28739382       0.11578006       0.08391204      -0.65284079      -0.00009527      -0.00340043
C        9.64084996      23.18974795      18.50267671       0.33882883      -0.16491690      -0.06869724       0.41352743       0.21184367       0.45775864
C        8.19152154      23.40665793      18.26667550      -0.21500802       1.10555388      -0.10087958      -1.22935247      -0.48094085      -0.95048493
C        7.26964527      22.32030270      18.84819259       0.98388838       0.26936656       0.07848398      -0.59475935       0.72355461      -0.67099684
O        6.48351277      21.88558477      17.73425892      -0.57115202       0.31959685       0.33216201      -0.47278321      -0.74839348      -0.40433007
C        6.90018299      22.40020058      16.58108675       0.53055054      -0.45327309      -0.44553945       1.57123518       0.83773607       1.57645679
O        6.47095115      22.13702705      15.50578551      -0.07266876       0.02618919       0.83212784      -0.50064373      -0.16346045      -1.04366732
O        7.92192366      23.24775463      16.80108160       0.05746276       0.46002767      -0.01906046       0.00726405       0.28135338       0.59042531
H       10.24478947      23.87256770      17.92028624      -0.16408711       0.01209919      -0.02467774       0.06010740       0.51304668       0.03169483
H        9.93856791      22.20432285      18.15834814      -0.09603779       0.02499668       0.13856387      -0.05230524      -0.42306307       0.25893340
H        9.85413344      23.34331531      19.58072936      -0.06410449       0.12803390      -0.02153968      -0.03129743      -0.13879187      -0.67620498
H        7.80933814      24.37448153      18.57383355      -0.22796716      -0.03902479       0.21819163       0.26841563       0.18556505      -0.23814017
H        6.51795056      22.65659839      19.54629844       0.08038805       0.18228424      -0.07865657       0.26279321       0.31868964       0.58077103
H        7.81429774      21.48777098      19.22945526      -0.28076932      -0.13690235       0.09228433       0.43734866      -0.75843108       0.38204527
C       33.96957346      26.12298476      -7.56510798      -0.35123100      -0.19046714       0.83625391       0.54986471       2.03148246       1.67087936
C       32.68130722      26.60434956      -8.24327900      -0.08287308      -0.14492105      -0.46966465       0.43011272       0.20109910      -0.43656579
C       32.30282167      28.05405674      -8.09336177       0.67901358       0.46255946      -0.04083867       1.50700223       0.96981502       2.69614506
O       30.87996189      28.09834876      -8.12671147      -0.28118358       0.07514628       0.89381212       0.03095315      -0.90979820      -0.12541369
C       30.45564276      26.84071759      -7.79074046       0.31458661       0.80969837      -0.65583538      -0.22419961       1.10594535       0.43503112
O       29.29845588      26.57247896      -7.62587650       0.26315035       0.88152570      -0.20934717       0.40536982      -0.26320851      -0.25478354
O       31.50113856      26.03574519      -7.62394750      -0.46905205       0.96741712       0.91149278       0.03259901      -1.13878596      -0.30152833
H       33.98663101      25.04044098      -7.38465000       0.16312019       0.04339645       0.12609743      -0.08778064       0.28963742      -0.08103887
H       34.09532449      26.72013777      -6.54545448       0.16435968      -0.09592347      -0.13876081      -0.34699816      -1.47021043      -1.88447082
H       34.89099131      26.42390112      -8.14474992       0.05805439       0.09724396       0.03867017      -1.08581245      -0.36463305       0.27033007
H       32.73135277      26.35686550      -9.30242592      -0.04871876      -0.31066159      -0.08115189      -0.45139927      -0.44767672      -0.04737613
H       32.71864835      28.78683593      -8.73780483      -0.00428739       0.30217454      -0.00026966       0.26861051       0.26677418      -1.15898538
H       32.70861543      28.35480029      -7.06612108       0.04534947      -0.22182039      -0.17203087      -1.02014542      -0.14765513      -0.89918977
C       26.84441670      16.45234214      10.14487859      -0.34686997      -0.38113317       0.22345202       0.64905721       0.08643849      -0.22814985
C       27.04714421      17.89974108       9.67237317       0.00190308      -0.14478826      -0.42856885      -0.18808088      -0.50126112       2.47703743
C       27.20703226      18.78533842      10.97463285      -0.22933710      -0.57346709       0.01180542       0.59676111      -0.26436344      -0.46062335
O       25.88688456      19.30523262      11.17502201      -0.36575355      -0.21680756       0.58709149       0.02088693      -0.36297643       0.03214417
C       25.11464606      18.99131413      10.13229229      -0.16820399      -0.00612525       0.18326164       0.85096067      -0.32733089      -0.86254132
O       23.95537766      19.23196697      10.06243303       0.20298797       0.04477641       0.25791993      -0.99011135       0.33086377      -0.16779071
O       25.81088678      18.35199113       9.15113177       0.08715104      -0.43028519       0.10738347      -1.00100648       0.55033451       0.52598166
H       27.69697764      16.11139119      10.76051542      -0.05417977      -0.01619095      -0.01862501      -0.25117630       0.24520600      -0.29492968
H       26.77235691      15.79355761       9.27092337       0.06281225       0.11538228       0.07008448      -0.33865443      -0.02837532       0.30245790
H       25.94919865      16.41243203      10.78678877       0.09544560      -0.14591284       0.05151976       0.24213395      -0.19830282      -0.49499026
H       27.77991494      18.04062649       8.90878245      -0.03793551       0.04523932       0.09666587       0.70930630       0.12379314      -0.17764995
H       27.86393581      19.63451059      10.86926932       0.07210026       0.11461778       0.01951343       0.15979128       0.21053633      -0.34926900
H       27.54627992      18.23343946      11.87441600       0.01245695       0.06414918      -0.01001276      -0.49210861      -0.00082064      -0.52365929
C       17.94200480      19.49545571      23.17726021      -0.69323682      -0.14151687       0.21431453      -0.37100080      -0.29073548       0.49193147
C       17.48498765      20.19548682      24.40992020      -0.05760121       0.08240624       0.61886128      -0.68396819       0.25757113       2.66169500
C       15.99451151      20.55875890      24.51498968       0.89170054       0.27203129       1.00308048       0.29121509      -0.14203000       1.09226525
O       16.03301242      21.84645031      25.16012484      -0.17026489       0.07715393       0.50887742      -0.15539816       0.52007228       0.22016065
C       17.25179996      22.41223897      25.01219658      -0.22235192      -0.02231189      -0.15217397      -0.26682171       1.57690597       0.42495942
O       17.52807849      23.57497005      25.27857023      -0.36198305       0.06415883      -0.11224605      -0.71227151      -1.62556803      -0.36945486
O       18.09316223      21.55518281      24.49977131      -0.14156851      -0.79717296      -0.79667089       0.78814197      -1.62101960      -0.33413428
H       18.93943630      19.12642804      23.39991743       0.11557044       0.21323158      -0.33939723       0.05171199      -0.45992553      -0.38134760
H       18.02469223      20.25265223      22.38886582      -0.02516409       0.12794749      -0.01374639      -0.38240635      -0.56368351      -0.19123320
H       17.19430414      18.66059613      23.00585724      -0.05741962      -0.04400783      -0.13489319       1.08814061       0.91765118      -0.26698288
H       17.70863180      19.62174797      25.42651266      -0.03400964       0.38225759      -0.55816536      -0.01278834       1.20335603      -2.19078016
H       15.42982664      19.86327049      25.15060535       0.06606301      -0.19928431      -0.23034137       0.44469288       0.29319489      -0.12329291
H       15.44459674      20.65113856      23.60581849      -0.41806949      -0.18486751      -0.15414819      -0.05461389       0.19510914      -1.00374448
C        6.64641605      18.84926486      17.02843242       0.04672244      -0.96139007      -1.23559238       0.41251287      -0.18293560      -0.90613627
C        5.35068459      19.44452617      16.58725774      -0.89544511      -0.26016418       0.31437887      -1.60774899       0.91014141       0.83673173
C        4.46236628      19.73808825      17.84712607      -0.58832839       0.05162309      -0.09631746      -0.82771176      -1.43103409      -0.50297177
O        3.47745018      18.63097642      17.83596186      -0.47051867      -0.51630348      -0.13989557       0.12030070      -0.54393238      -1.92453015
C        3.51011249      18.02671155      16.60174876       0.17788322       0.42421089      -0.82470538       0.80942166      -1.09730268      -0.10180558
O        2.82422814      17.07844801      16.24732732       0.53807014       0.20721218       1.35118385       0.45331207       1.77419353       0.97647971
O        4.53003043      18.49458451      15.84187206       0.75812468      -0.65627747       0.82059318      -0.57694876      -0.14752732       0.92978054
H        6.41777815      17.94923977      17.56319630       0.10353464      -0.09445283       0.04548334      -0.07233993      -0.56357479       0.63984811
H        7.23748549      19.52005464      17.64386665      -0.24687916      -0.23529409       0.06799305      -0.15762618       0.13142315       0.09956440
H        7.25329153      18.54995935      16.18815865       0.08494561      -0.00530657      -0.02353820       0.32117325      -0.01585993      -0.41450089
H        5.35633868      20.33462434      15.93736794       0.17523030      -0.07559400      -0.00319813       0.59143472      -0.49300525       0.48014510
H        3.85665209      20.60800776      17.71501836       0.00959436       0.08745939      -0.20501669      -0.02632458       0.85380071       0.21975321
H        4.88722373      19.62979830      18.84765731      -0.00339638       0.12173509      -0.03791348       0.42912585       0.53540111      -0.42596200
C       22.72247581      14.70768877      -0.89280289       0.20957912      -0.22844795      -0.22247398       0.11531436      -0.74421883       0.13778600
C       22.86294855      13.58538891      -1.90112047      -0.71517643      -0.31577216       0.29468614       0.22470780       0.46562853      -1.25927269
C       21.65706695      12.65991731      -1.86255577      -0.25210588      -0.47211008      -0.21716527       0.03297424       0.50926375       1.34628618
O       22.19976419      11.36690844      -2.10181687      -0.32801398       1.21942611       0.23225014       0.78315556      -0.63107407      -0.42932612
C       23.57424650      11.39894877      -1.90534668       0.95934730      -0.29443801      -0.13978163      -3.90051770       4.10038567      -0.63310099
O       24.29522902      10.51613292      -2.01731866      -0.52651886       0.28532913      -0.17076200       2.60763597      -4.11476803      -0.08700036
O       23.95878652      12.65601335      -1.70150377       0.19813575       0.84503518      -0.34610851       0.22897647       0.98319876       0.79906136
H       21.82775164      15.25055730      -1.20736362       0.08284936       0.22846662      -0.07965289       0.26495114       0.42607272       0.08484443
H       23.61337458      15.28897973      -0.78549081       0.02364465      -0.05005767       0.06044159       0.48593488       0.87455803      -0.65442795
H       22.56541493      14.37648474       0.12627608       0.23077528       0.04916129      -0.17581727      -0.39939198      -0.65842140       0.06197000
H       23.03171479      14.03570092      -2.94817777       0.17857217       0.20289643      -0.19476295      -0.27115628      -0.71422535       1.51229250
H       20.96786187      13.02156619      -2.62041107      -0.10048113       0.09212836       0.15486664      -0.42153990      -0.67198181      -0.06861147
H       21.20935795      12.64091546      -0.83301126      -0.13365394       0.28701301       0.35526944       0.15090321       0.15962330      -0.98449600
C       19.26400144      29.56537121       6.35375255       0.42588227      -0.24865580      -0.45181860      -0.88674897      -0.74651527       0.53976250
C       20.35942328      30.28944382       7.08946920      -0.30448308       0.26143060      -0.10560419      -1.26064527       0.79825753       0.79246289
C       20.28588872      30.25393151       8.61184328       0.20411033       0.64868906      -0.15830989       0.17987815       1.70142555       0.02783515
O       19.71531169      31.58670392       8.97136652       0.06392048      -0.22190154       0.80754670       0.04344337      -1.78882146      -0.07465548
C       19.78999308      32.39882457       7.91096837       0.16505779      -0.05124664       0.03271317       1.24767590      -3.02596521      -0.48384652
O       19.58111938      33.54453690       7.99384923      -0.57495488       0.35017274      -0.56213501      -0.61857551       2.57075906      -0.41670039
O       20.21273370      31.70627876       6.79545434      -0.08701255      -0.42353613      -0.60470572      -0.09609491       0.84537387       0.84328943
H       19.17792248      29.97004134       5.37540501       0.10583486       0.15523668       0.03012501       0.19567947       0.32228988      -1.04420364
H       18.21004535      29.65932567       6.76867100       0.24049854       0.07212386       0.30093857       1.54416001      -0.12629500       0.12917395
H       19.55132963      28.51293637       6.21777269      -0.21771389      -0.22295443       0.05917089      -0.32769534       0.12167703       0.19494717
H       21.34859869      29.98294189       6.82459094       0.11775858       0.05911073      -0.21521735       0.53402019      -0.10020492      -0.74947435
H       21.25784133      30.22168599       9.06338902      -0.17357332      -0.03147592      -0.11678095       0.51387739       0.12063961       0.10348828
H       19.74479209      29.45120776       9.04154229      -0.23130960       0.06656508      -0.16185331      -1.09473491      -0.44790354       0.30168346
C       11.06739684       6.05912878      17.96099143      -0.05935194      -0.75239082       0.66370938       0.06593302       0.61885482      -0.12142137
C       12.41733545       6.10160965      17.31476468       0.93473820      -0.31416780      -0.34574284      -0.00491271       0.44528016      -0.25972998
C       13.38943614       7.16820786      17.85048154       0.17927289       0.87322434       0.17295785      -1.14050877      -0.83929390      -0.86198235
O       13.92548214       7.74812786      16.66392846       0.17740581      -0.26998734       0.14073219      -0.07254483      -0.07693723      -1.26301920
C       13.28728953       7.25402189      15.54727596      -0.97250071       0.40180170       0.26152051       0.12316090       1.25963783      -0.52019709
O       13.60087998       7.55184816      14.40043908      -0.24862393      -0.43737953       0.25166560      -0.58073604      -0.66105491       2.32211018
O       12.21812582       6.52840852      15.91843193      -0.28333213      -0.56760618      -0.59567160       0.91816342      -0.24968927      -0.01521394
H       10.56926694       7.04121450      17.86780068       0.13944108      -0.05006521       0.03507490       0.15685098      -0.49484980       0.23497570
H       11.12969468       5.71202401      18.98879872       0.15381226      -0.10659627      -0.07872449       0.11404584       0.13678446       0.17389527
H       10.51988317       5.32828683      17.40849390      -0.14595320      -0.19769364      -0.11023557      -0.83201307      -0.46514642      -0.28169027
H       12.87449116       5.11223207      17.29318759      -0.03077370      -0.00752030      -0.00828840       0.08924026       0.10437695      -0.06899504
H       14.18258976       6.69457254      18.35537413      -0.02488144       0.06585500       0.09072800       0.99577016      -0.34772438       0.88362491
H       12.85492942       7.85284654      18.49960849       0.02579167       0.13867219       0.00703070       0.21492791       0.57488400      -0.18439338
C       11.87681987      22.25831848      20.94884373       0.31788356       0.13855043      -0.18613916      -0.44379511      -0.06155225       0.72781384
C       12.45572177      21.34355632      22.02473919      -0.20557765       0.63061703       0.04498804      -0.35814518      -0.04778610       0.18634263
C       13.06940005      20.09782582      21.50398801      -1.15936720       0.55115771       0.05064855       0.88393670      -1.28623009      -0.43142357
O       11.94077362      19.16309445      21.39513698       0.37377540       0.88986289       0.44038001       1.20051050       0.46927947      -0.30402958
C       11.02471245      19.60135958      22.24269478       0.14009534      -0.34027649      -0.65080711      -1.10840964      -1.05095851       0.30813533
O       10.00846710      19.01100946      22.49142830      -0.66798943       0.43498902      -0.73553580      -0.32630068      -0.02731219      -0.04987374
O       11.36096326      20.73984018      22.80786791       0.40502789      -1.16660327       0.27110607       0.40885898       1.54728186       0.34061271
H       11.01290370      21.79683529      20.41204014      -0.06668102       0.06469077       0.22378391       0.89641714       0.04824326       0.35910252
H       12.65808447      22.59295417      20.27829645      -0.07679401       0.20544994       0.07476697       0.16564941      -0.18595542      -0.28975272
H       11.50692160      23.15381881      21.43499587       0.04664025       0.02950830      -0.05801965      -0.24580576       0.25748187       0.13206382
H       13.16035378      21.77926417      22.74115370       0.22688107      -0.09120482       0.00128102      -0.55096495       0.52987373      -0.41624606
H       13.82169664      19.70210294      22.22574616       0.04475491       0.24317220       0.14557697      -0.65912443      -0.03862773      -0.70461452
H       13.50291587      20.20419032      20.51106707       0.01920074      -0.16773900      -0.12052953       0.01961515      -0.07777168       0.07171287
C       12.98702722      26.45248995      -1.92884541      -0.45602639       0.02927887      -0.19703922      -0.42758536       0.25180966       0.48872831
C       11.86075421      26.28041319      -0.92499398      -0.02427114       0.44452298      -0.50904181       0.79281795      -1.26901925       1.52022004
C       10.51132053      26.59912706      -1.38264372      -0.05296519       0.68943109      -0.19949548      -1.25071180      -1.29029429      -1.61329842
O        9.79195244      27.01832706      -0.22951593      -0.06375310      -0.36662370      -0.02042491      -0.15191898      -0.09996364       0.75841486
C       10.70728216      27.53079698       0.60633977      -0.60191935      -0.02388825      -0.59885899       1.00989616      -0.90791869      -1.92929041
O       10.50607541      28.26102932       1.50943230      -0.32445845      -0.10527839       0.03241236      -0.72776639       0.89299965       1.69324088
O       11.94376866      27.16223466       0.21618164       0.06957896       0.53882016       0.18881253       0.47245747       1.01727688       0.46864590
H       12.86699320      25.74817965      -2.75312129       0.12426278       0.08484787      -0.15535517      -0.02856413      -0.10842960       0.16865158
H       13.95980050      26.28577865      -1.45024845      -0.20039055      -0.17160138       0.17158934      -0.21966851       0.12033860      -0.16582279
H       12.90950095      27.44762404      -2.38132341       0.14861735      -0.18138804      -0.32023495       0.30475625      -0.04696660       0.16454412
H       11.84194279      25.30246413      -0.41062527       0.16217108      -0.18080733      -0.00293267       0.36484817      -0.06031677      -0.74894643
H       10.07839404      25.71807226      -1.91446866       0.18778416      -0.11211312       0.07783257      -0.18980825       0.94040084       0.71643025
H       10.52820056      27.44856655      -2.00972117      -0.09800344      -0.10746564      -0.27682672      -0.08966108       0.92989445      -1.08520758
C       11.85298544      18.83658775       1.64604905      -0.03702673      -0.24175511      -0.00910348       1.83241951       0.17756976       0.26019219
C       10.76596930      19.03381143       0.66059340      -0.05405824       0.22867231       0.53731821      -1.16763639       0.72643781      -0.17640935
C       10.23860283      20.48395125       0.58809903      -0.24007709      -0.27448838      -0.16486463      -0.93464077      -1.51017237       0.09893822
O        8.82460860      20.25983391       0.35928419       0.35663527       0.06328401       0.29658774      -0.55349922      -1.90522289       0.63022518
C        8.47127775      18.91585265       0.73713136       0.60015343      -0.04791165       0.48555232       1.94576967       2.32831526       0.00328095
O        7.33885288      18.56399404       0.76743296      -0.15330360       1.39534760       0.10820315      -0.18064314      -0.31959116      -0.10059087
O        9.58336680      18.24332446       1.11111571       0.60616683      -0.40636700      -0.29736487      -0.88780552       1.21043074      -0.42019325
H       11.83862143      19.61858174       2.43308965       0.24408443      -0.26974757       0.04775747      -0.51295310      -0.76765811       0.00470618
H       12.86704167      19.02066401       1.20283436      -0.12130172       0.15622099      -0.21600872      -0.90452206      -0.53638762       0.00430939
H       11.79291150      17.80681470       2.03959096       0.19284128       0.11458544       0.08066836       0.26243091       0.54357100       0.13255693
H       10.86527382      18.68941000      -0.35742762       0.06721851       0.15360784      -0.01002344       0.88480902      -0.26019365      -0.07256112
H       10.61431052      21.03492592      -0.25209909      -0.08477064       0.01830467      -0.16030823       0.31580585       0.17855303      -0.23188250
H       10.40731570      21.02922674       1.50845953       0.10442297      -0.02402477       0.07921141      -0.30925238       0.03116432       0.15524259
C       15.92176745      20.77261974       1.93079844       0.50309334       0.09672142       0.07939312       0.31804186       1.24222791      -0.31528616
C       16.30817961      20.67307968       3.39234719       0.35273433       0.00256329       0.55257938      -1.08045578      -2.49144173       0.19267686
C       15.06692605      20.51083628       4.36066908      -0.19841510      -0.10510751      -0.37480490      -0.61846203       0.08105631      -1.95124781
O       15.08817076      21.73922361       5.06824123      -0.27715204      -0.14705265       0.56697667      -0.17680353       0.47570705       0.34655812
C       16.21655374      22.42177954       4.82898602       0.34649573      -0.15231209       0.06554610       0.47571027       0.43409383       0.80969840
O       16.54572113      23.41869157       5.43230066      -0.42813985      -0.31899625       0.55463415      -0.40796018      -0.92689818      -1.06094229
O       16.96774435      21.80106912       3.89038563       0.62164722       0.13039036      -0.02227603       0.19475350       1.18634415       0.41531968
H       16.80198824      20.91627965       1.27626276       0.06277612       0.01627175       0.00245415      -0.11523315      -0.85705209       0.31093329
H       15.41161513      21.71610912       1.72361975      -0.04242179      -0.36312837       0.03787416      -0.63651818      -0.05950467       0.27514195
H       15.28441001      19.92204685       1.66077461      -0.02645557       0.10988658       0.13578794       0.34931338       0.11902683      -0.14130962
H       16.95548231      19.79191196       3.49753523       0.01795388      -0.25835496      -0.07561492      -0.04907008       0.43369624       0.19795094
H       15.05385841      19.68292271       5.05483031      -0.03239473      -0.10623168      -0.31555168       0.61363822       0.01954691       0.09177378
H       14.11557211      20.40362081       3.76209108       0.01722705       0.15394604      -0.07781208       0.80794322       0.52073306       0.52812749
C       21.84350892      12.20387344      26.24307322      -0.35954108       1.09205221       0.00287407      -4.55062103      -1.90837491      -1.80566430
C       22.34973027      10.78511279      25.93911070      -1.46109671      -0.04487328      -0.95071708       0.11811298       3.39390635      -0.96357417
C       23.67064095      11.12873817      25.27681007       0.75812948      -0.47559989      -0.46053967      -0.22368804      -1.87938249      -1.72565937
O       23.69059892      10.04904970      24.23718391       0.93831923       0.02023437       1.33444071       0.37187120       0.19156480       0.24471313
C       22.44882040       9.52689757      24.07343467      -0.85252757       0.28040680       0.88364514       1.03017724       2.52734661       2.01593256
O       22.15206131       8.70182710      23.31258588      -0.56502684       0.00545676       0.36017980      -0.54836798      -2.24369216      -2.13405871
O       21.55842552      10.16754524      24.86437935       0.19699502      -1.75459780       0.23385178       1.18126702       0.06462837       1.85013747
H       22.58816030      12.76636605      26.64688700      -0.07719167       0.15455903       0.73810583       2.08098149       1.66503417       1.16310346
H       20.99375732      12.09915975      26.96038576       0.16832695       0.51347166       0.39805347       0.41044438       0.60804743      -0.62075394
H       21.47310271      12.69369987      25.24034827       0.13589269       0.09285602       0.10914026       0.62967652      -0.82182866       2.04350114
H       22.47632156      10.24451410      26.85574062      -0.00667888       0.06223993       0.04456266      -0.23958264      -0.96271509      -0.09505175
H       24.53893986      11.01131814      25.93847272       0.04536847       0.02824122      -0.17587069      -0.22193980       0.16068031      -0.43256247
H       23.62145796      12.09648158      24.71678597      -0.21794562       0.36409350       0.27411842       0.33167091      -0.76803476       0.64314514
C        7.84031477      12.55031985       0.05605118      -0.80876712       0.69980359       0.00073236       0.08130267      -0.95165652       2.14848089
C        6.65285946      11.61179956      -0.09442059       0.37399070      -0.25878641       0.14421995      -0.85229707       0.83708167      -0.17296760
C        5.78359784      11.55517351       1.16797147      -0.06307085       0.65087414      -0.19853113       0.34151062       0.73577917       1.45083523
O        6.14934900      10.30513833       1.84271212      -0.59947972      -0.47968899      -0.74366342       0.40379995       0.20543832      -1.53396106
C        6.72661672       9.53565870       0.90230235       1.55184133       0.02517814      -0.42128380       0.11402689      -1.72209096      -1.22974491
O        6.94879132       8.34003412       0.95698387      -0.61744854       1.36305737       0.68563016      -0.27709532       1.98091102       0.56906140
O        6.99955280      10.22493936      -0.25906414      -0.06512658       0.41406762       0.06216883      -0.21819273       0.06383800       0.88462216
H        8.34997541      12.29714052       1.09909953      -0.09939567       0.15686681      -0.17452920      -0.60525602       0.64882970      -2.36335111
H        7.39022539      13.55364893       0.14038558       0.23169095       0.11611464       0.07198408       0.42447966      -0.24957478      -0.03455702
H        8.48146250      12.46836089      -0.82508394      -0.06823844       0.01787483      -0.16566502       0.27086735       0.14507736       0.43717211
H        6.06494822      11.98015791      -0.98144329      -0.15015570      -0.16933903       0.11306654       0.38692853      -0.84487081       0.71260762
H        4.72365668      11.56584927       0.98880062       0.05749483       0.15090212      -0.07347298      -0.50232780      -0.38730013      -0.30469152
H        5.95221547      12.36616168       1.90965283      -0.25609517       0.07819715      -0.24815870       0.30756348      -0.52301520      -0.72551304
C       30.77506808      23.63368567      -5.51910707       0.46284748       1.12845957       0.28230561      -1.46192837       0.35734001       1.57189739
C       29.59883105      23.92061453      -4.42647456      -0.67380166      -0.39140643      -0.71615593       0.24740805       0.78309381       0.68888861
C       28.31289056      23.06719558      -4.53213497      -0.16127048      -0.13474744       0.15064646       0.69515663       1.68740523      -0.24062903
O       27.26748265      23.96646121      -5.00143441      -0.71970773       0.04428000       0.14065047      -0.20492187      -0.33023795      -0.40921873
C       27.68615106      25.23146153      -5.02451663       0.38358174       1.43028499      -0.49130615       2.67276740       0.13098526       0.30575356
O       27.08739126      26.22594322      -5.33027937       0.18106199      -0.52995218      -0.27698335      -0.30382544      -0.85304034       0.02775154
O       29.02685458      25.27116104      -4.68062524       0.69122009      -1.52369383       0.43298444      -0.23180926      -0.55061293       0.02513813
H       31.25405052      22.64880544      -5.39130057       0.00482662      -0.02556670      -0.22690017      -0.09886042       0.46355242       0.47754475
H       31.50202357      24.46906687      -5.44231805      -0.38136053      -0.22465158      -0.15886942      -0.41740260      -0.64210826      -0.20580041
H       30.32775945      23.57810460      -6.51332137       0.14686009      -0.00833641      -0.09706628      -0.05841005       0.46574411      -0.01156056
H       29.96131260      23.87820521      -3.32452578      -0.16849462       0.01871981       0.00423932      -0.25116557       0.31278098      -2.11435485
H       27.95009492      22.63768571      -3.64115980       0.01127187      -0.00594935      -0.13070782      -0.09176330      -0.40576500       1.20766747
H       28.56622170      22.31077465      -5.20724810       0.00331366      -0.33149555       0.43646653      -0.54440391      -1.27866948      -1.46465755
C       25.78469032      22.78595216      23.73169167      -1.15252680       0.15118363      -0.15508163       0.08707956      -2.00009441       2.44383836
C       25.39475468      24.15588835      23.25642491       1.14080680      -0.63919953       0.54673549       0.13335356       0.49271554      -0.96687829
C       26.61094933      25.09509898      23.01642208       0.07847858       0.38028220      -1.41357339      -1.69428754      -0.85050392      -0.66284466
O       26.08834362      26.41607798      23.24402544       0.10848850       0.47719026       0.44421439       0.91279662      -0.67051250       0.02854276
C       25.02884507      26.29822606      24.00098235      -0.56118562       1.04119249       0.71368464      -1.21388721      -3.27566195      -0.70565343
O       24.35222168      27.17333059      24.36030336      -0.23372117       0.32056459      -0.51086300      -1.38600087       2.46093631       1.49183333
O       24.58776976      24.95815044      24.15397735      -0.14482032       0.68865893       0.26294365       1.42181325       0.93519497      -0.39460865
H       26.52593884      22.69255672      24.69635393      -0.19101604       0.04881585      -0.04312252      -2.30669355       0.59980345      -1.91648877
H       26.41084454      22.30736066      22.99192045      -0.07403614       0.01358009      -0.21389553      -0.07529829       0.15724383      -0.38257959
H       24.84092717      22.08221390      23.80581054       0.34220077      -0.12313860      -0.06910021       1.89858031       1.45220888       0.29106355
H       24.83252057      23.99926692      22.29926505      -0.00880448      -0.09674740      -0.12451620       0.15729466       0.38901991       0.89240438
H       26.86869929      25.05090715      21.96334696       0.05179459       0.26210670       0.25002788       0.72005635      -0.10755122       0.47234371
H       27.30744022      24.84675347      23.78754668       0.15074940      -0.29487766       0.19990076       1.16307104       0.21655753       0.05855456
C       29.01228829      34.81515991      -9.47617634      -0.47888774       0.72925838      -0.08792294       1.37547886       1.51728237       0.65285730
C       28.29107969      35.77077918      -8.48090674      -0.54424331       0.04315900       0.51511650      -0.80970126      -1.91332948      -1.21940041
C       27.86492695      35.17868775      -7.12553299      -0.84607911      -1.35924413       0.26252070      -3.91764379       4.48434448      -3.02577758
O       26.35944637      35.14275326      -7.20343383       0.52164204       0.93397212      -0.46209647       1.97844648      -0.71576303      -0.23546278
C       25.95758529      35.58113909      -8.37963263       0.47886957      -0.37618885      -0.26568838      -0.27913541       1.00017190      -1.41732073
O       24.78096921      35.61508939      -8.68599076       0.08336167      -0.08791429       0.18331491       1.15371180       0.13119173      -0.13654211
O       26.98392104      36.05576324      -9.22637337       1.66714870       0.69782218       0.34861655      -0.37358645      -1.12873805       3.29450679
H       28.40159817      33.87541726      -9.60945411      -0.21662400      -0.11608619       0.27574797       0.88427061       1.09224236      -0.29710943
H       30.08863684      34.64308995      -9.16728857       0.09098389       0.02009894      -0.36217967      -1.37216318      -0.40432540       0.28338355
H       29.26142963      35.50730785     -10.33132698       0.05152338       0.74082129      -0.30120841      -1.02939665      -1.24269581       0.07752108
H       28.80984688      36.68305865      -8.28094134      -0.15530201       0.08344542      -0.15881914       0.21331769       0.68216217      -0.45255291
H       28.05151023      35.80672039      -6.33318292       0.36358322       0.14206410      -0.23710122       0.29696000       2.35277700       1.53544319
H       28.28108216      34.38312872      -6.77928507      -0.05675945       0.16589117       0.92842857       1.89225805      -5.93729353       0.85415530
C       26.26022972      30.61385586      12.57702059       0.10389667       0.38769231      -0.36364355      -1.24387145      -0.45340195      -1.15394855
C       25.34193961      31.33953412      11.54217441      -0.92431224      -0.85105269       0.03951650       1.26154709      -1.25773191       1.03416574
C       23.91697569      31.47234537      12.00471051       1.34547458      -0.57036592      -0.21740588      -0.06448186      -1.01464331      -1.35613048
O       23.13527402      31.32990866      10.76971135       0.29760937       0.38741966       0.60354154       0.85391819       0.29660255       0.12699921
C       23.93740436      30.73616563       9.85302520      -0.60004053      -0.55045835      -0.24541745      -0.68337339       0.27037382       2.24352860
O       23.54045479      30.34397302       8.80824841      -0.44095119      -0.00904011      -0.16048777      -0.13577487      -0.32384348      -1.56231773
O       25.15244417      30.56804279      10.34534973       1.16733578      -0.91136070      -0.48174294       0.67995566      -0.62565255      -0.70126277
H       25.78052486      29.76989267      13.09726647       0.04945015       0.07648545      -0.07334062      -0.02280643       0.44900343      -0.10558244
H       26.55841059      31.35586326      13.28968407       0.07394472      -0.07267732       0.23272758       0.37743762       0.17648067       0.44906196
H       27.10503610      30.19994249      12.03855576       0.04410987       0.06218597      -0.03963477       0.36392841       0.16477661       0.02350531
H       25.95707263      32.16568347      11.22433149      -0.10774318       0.21000511      -0.02432083      -0.56238204       1.00984406      -0.04315118
H       23.66279071      32.33924443      12.51386024      -0.17987833       0.02075348      -0.12141891      -0.51301205       1.67020607       0.49125358
H       23.68402056      30.62572094      12.62782559       0.13157894      -0.19654384       0.12383146      -0.21479827      -0.31426787       0.26066455
C       10.43602300      31.17552116      19.56580272      -0.52097949       0.18045242      -0.05828616       0.13674605       0.49486801       0.66192925
C       11.04289737      31.50920505      20.95537407      -0.78513011      -0.24585885      -0.30678597      -1.46503115       0.60460234      -1.45127332
C       11.09912353      30.31949803      21.87543167      -0.53324342      -0.22639874      -0.01876099       2.24213767       0.12711708       2.48830605
O       10.17999743      30.57864394      23.02028518       0.15683150       0.53257628      -0.57021207       0.99506837       0.87185800      -2.38861370
C        9.68715699      31.82752302      22.78736713      -0.44447936       0.18204954       0.28044324      -1.86395466      -1.03453207       1.65217364
O        8.85828924      32.29271166      23.53549746       0.32079818      -0.25273174       0.35706773       0.62231153       0.20505223      -0.42789629
O       10.05660714      32.36788868      21.65086238       0.39485243       0.54183505      -0.45109447       0.91862220      -0.03805440      -0.49554968
H       11.17414950      30.85009102      18.80718427      -0.24219897       0.06622062      -0.17255182      -0.40147036       0.52094871       0.47177890
H        9.81073459      32.02246686      19.27322516       0.26013979      -0.08306701       0.35729799       0.52066422       0.20920262      -0.46331233
H        9.69571028      30.41691699      19.69922196      -0.13611761      -0.02667112      -0.01063181      -0.34845725      -0.90631539       0.12574892
H       11.93847064      32.12217121      20.79313200      -0.20485535       0.05934477      -0.09935335      -0.12847714      -0.45468751       0.64344543
H       12.12828901      30.24914086      22.30213683       0.01649038       0.09983099      -0.08415172      -0.75187290       0.04047433      -0.08731794
H       10.90652515      29.36480976      21.45826740      -0.11062213       0.19778857       0.02227850      -0.83248204      -0.69939727      -0.54917556
C       22.25312387      23.65426616      16.78606072      -0.05295244      -0.02929589       0.59767133       0.51641977       0.17773686      -1.56875551
C       22.83208821      22.78242380      15.64160232      -0.44118964      -0.61486145       0.90261030      -0.50189990       0.74957937       0.59236586
C       24.12579452      22.10559361      16.01312531      -0.09313705       0.31769155       1.12360239       0.11679355       0.38363376      -0.23412052
O       24.89918749      22.22478646      14.79501461       0.41054900      -0.85501703      -0.08763152      -0.57596689      -0.12465254      -0.41319650
C       24.37073544      23.22403886      14.03850592       0.00803053       0.25005908      -0.13195228       2.49051714      -0.96259248      -0.35374695
O       24.94207879      23.60801974      13.03478724       0.28989228      -0.43058333      -0.85729265      -0.87702769       0.10776477       0.66858029
O       23.27067607      23.70230898      14.53922308      -0.80054499      -1.19205181       0.39484717      -1.36339176      -0.34917629       0.99551558
H       21.90913776      23.07527743      17.63146337      -0.01685518       0.15476080       0.39549771      -0.20142938      -0.29447824       0.06514647
H       21.45580480      24.27152884      16.34822408      -0.04998423      -0.23749128      -0.00408285       0.08427376      -0.27831793       0.47830021
H       23.05704011      24.31719050      17.12431725       0.19753530       0.02213425       0.04284997      -0.15354970      -0.05811573       0.02308236
H       22.12700217      22.07672705      15.21214956      -0.00066147       0.20364367       0.03821762      -0.21859492       0.12831211      -0.09792204
H       24.02770757      21.06839918      16.39094333      -0.15182377       0.02347684      -0.08140211       0.19877097       0.65757132      -0.58422881
H       24.61118402      22.75986914      16.71393439      -0.26086502      -0.32506331       0.15164211       0.50891864      -0.07455505       0.63445091
C       10.45765475      31.69088937      32.40738619       0.30053948       0.70768975      -0.17221250       3.31805468      -0.86724764       1.58132303
C        9.97819849      31.61468326      31.02540561      -0.19163164       1.10409849       0.39904072      -2.11485624      -0.64420003      -0.92809838
C        8.47732256      31.96363846      30.87124671       0.38837828      -0.33194086       0.16404115       0.73498619      -0.23570548       0.51027954
O        8.17544906      31.21240283      29.67422576      -0.61578792      -0.09030561       0.78681147      -0.51949221      -0.18409728      -0.45084757
C        8.98139576      30.14689953      29.60933816       0.37193030       0.74587733       0.28329285       0.66727918      -1.30163634       0.23513076
O        8.84710907      29.15330314      28.93367832      -0.36962707       0.26190663       0.00742380      -0.55904049       0.93120313      -0.16723484
O       10.02445400      30.24821082      30.44950629      -0.16651258       0.24211843      -0.18736067      -0.65732259       0.37170616       0.80398881
H       10.21749153      32.63535055      32.88665729      -0.13972748      -0.62504076      -0.04802205      -0.39656946       0.10471769      -0.05615782
H       11.61208033      31.70974634      32.36622232      -0.16699039      -0.01072213      -0.06231605      -1.65387166      -0.15963303       0.30066130
H       10.19040848      30.83151909      33.10970218      -0.33470437      -0.06026122      -0.16768147      -0.02177498       1.08289504      -1.25939155
H       10.49524457      32.08261257      30.23441354       0.21144462      -0.03619719      -0.45115731       1.11876893       1.66682935      -0.12211788
H        8.26139476      33.07478377      30.71001070      -0.06252569       0.74261113      -0.14069179       0.15993991      -1.97212267       0.32421011
H        7.97866617      31.43290599      31.73137172       0.25181458      -0.16198090      -0.20659963      -0.05459471       1.09639418      -0.78127033
C       22.70531850      29.72844958      -8.29244421       0.29897735       0.15562283      -0.07259295      -1.42385745       1.21060967       1.84975863
C       21.77581389      28.69466806      -7.70434951      -1.18348472       0.06516132       0.14601647       0.71932364      -0.37834153       0.07221716
C       20.34360626      29.09566189      -7.83489357      -0.39455250      -0.02382087      -0.92254535      -2.24257016      -0.59716225      -0.96353853
O       19.75669900      29.03369826      -6.50940576      -0.72243130      -0.62927679      -0.25181816      -0.16430044      -0.32221627      -0.61848640
C       20.68899717      28.67330974      -5.66833577       0.60198365       0.28306950       0.25963763       1.28211153       0.40175968       1.79924154
O       20.56643198      28.55114350      -4.45894266      -0.20937707      -0.35959903       0.04388331      -0.41850883      -0.28289980      -1.25161314
O       21.86691708      28.53640686      -6.26270044      -0.17328328      -0.12386109      -0.56750557       0.95447510      -0.20513183      -0.00127922
H       22.48612555      30.68792518      -7.75521128      -0.09474585      -0.04462500       0.10036728       0.73138350      -0.67470354      -0.20878260
H       22.44068505      29.93917681      -9.29132037      -0.05337978      -0.31261074       0.16449714      -0.53194922      -0.07290022      -1.37155724
H       23.70705785      29.42230506      -8.29614248      -0.04342127       0.27151472      -0.12784726       1.51145899      -0.20149232       0.40335503
H       22.02138618      27.69747778      -8.11885782       0.19892380       0.06259964       0.15418369      -0.46677873       0.54957360       0.13138571
H       19.83253138      28.30758195      -8.40189758      -0.06658155       0.10593250      -0.07704661      -0.13356230       0.49397519      -0.26804388
H       20.09001214      30.09650616      -8.23912141      -0.21473787       0.08527284       0.00521512       0.54046154      -0.50821185       0.15461227
C       30.61746525      14.01819789      19.10681768      -1.02520100       0.10874560      -0.32242955       3.88784695       0.95296013       1.39061606
C       30.96643716      12.82047042      18.32479497      -0.44204331      -0.11893046       0.11484582      -0.64784527      -1.89047575      -1.27975404
C       30.05324254      11.61252225      18.66276377       0.78180872      -0.08512065      -0.64462948       0.16793334       0.04961061       0.49909168
O       30.93482151      10.49043986      18.57608594      -0.86184015      -0.51177789       0.75236064       0.67005008       0.09290732       0.01880647
C       32.20791861      10.92388466      18.58709727      -0.71822495      -0.34406549       0.41073598       0.77180314      -3.05929208      -0.74479926
O       33.14526214      10.11342634      18.53006021      -0.59710385      -0.32441018      -1.13696481      -1.31410015       1.54301310       0.41476294
O       32.33216629      12.20812766      18.51285318       0.52897092      -0.17045365       0.29104416      -0.81106329       1.72438002       0.68343854
H       29.61822943      14.28726410      19.02607097       0.26334539       0.12530812       0.08904415      -1.92627919       0.32147250      -0.42166764
H       31.26696669      14.86159420      18.76541219       0.10969691      -0.27571313      -0.18600817      -0.64715493      -0.33385727       0.24628489
H       30.87254868      13.87447619      20.18302906       0.17572791      -0.11030785       0.07647099      -0.39172170      -0.02993418      -0.72539347
H       30.98059721      13.02335279      17.24272241       0.09563272       0.05081822       0.01799018      -0.25047699      -0.00131969       0.32469383
H       29.18805553      11.43189654      18.03919483       0.12611193      -0.46336686       0.01609706       0.28630263       0.22722095      -0.52158457
H       29.63860436      11.65010704      19.68025574       0.11827371       0.19673147      -0.08427602       0.42414683       0.21170034       0.05309867
C       11.07431853       4.03097280      12.25086011      -0.02533227      -0.56325925      -0.50512393       1.40518093      -1.39544106       1.24662304
C       11.81891074       5.27901558      12.68258180       0.54709274      -0.24080611      -0.26660726      -0.76859540       0.13137242       0.27626443
C       11.90381590       6.26114551      11.53656922      -0.93780043      -0.02810707      -1.43013772       1.54603994       1.06833422       0.81634325
O       13.32286714       6.60390113      11.51370818       0.02953403       0.99548164       0.39123204      -0.45018834       0.61994874      -0.23835951
C       14.01251031       5.82951816      12.33294585      -0.46795669       0.31036873      -0.32663613      -2.53470731      -1.10263312      -0.20125253
O       15.19177805       5.78773774      12.36834316      -0.24277589       0.17796064      -0.17463337       1.66195416       0.08254595       0.38083094
O       13.18551298       4.98964956      13.02276144       0.40759197       0.82383993       0.19227732       0.67034215       0.47278243      -0.49881247
H       10.01240950       4.18232220      12.14946438      -0.14338684      -0.21912794       0.16623398      -0.36476693       0.19866228      -0.01491728
H       11.27821612       3.23863489      13.02898793       0.06702257       0.03235273      -0.11423388      -0.52223480       0.66035378      -0.77461082
H       11.51163851       3.63972448      11.32022258       0.16295415       0.11390898      -0.18299192      -0.22506738       0.23043166       0.19205375
H       11.38059515       5.78765572      13.56050528      -0.01930559      -0.02235378      -0.11248092       0.17709114      -0.56998855      -0.26964194
H       11.37081198       7.18785852      11.72639153      -0.12623362       0.00890869      -0.01832109      -0.17899580      -0.04671802      -0.23978925
H       11.68998169       5.84363116      10.58520150      -0.08153158      -0.10673718      -0.04791284      -0.37230319      -0.30084875      -0.76961213
C       32.74509558      15.71710302      21.62292423      -0.38200467      -0.67871796       0.88683555      -4.37708569      -0.61572629      -2.99923420
C       32.04292625      17.01586751      21.82339568      -0.38205721       0.30945299       0.45817132       0.82626474      -1.09090602      -1.53843665
C       31.51763523      17.23954804      23.18206219       1.93491897      -1.21042995       0.79917833      -2.54421115      -1.43582523       1.32815874
O       30.54356729      18.28580575      22.89237678      -0.07436920       0.25256176      -1.83050672       0.95823544       0.08089811       0.29188609
C       30.08818110      17.98247345      21.67985725      -0.19232357       0.10258319       0.49159273      -2.81753159       0.11545373      -1.33909953
O       29.00524378      18.39738080      21.30504151       0.53195848      -0.87205524      -0.21197688       1.29809976      -0.27192461       0.13030924
O       30.84505370      17.09369538      20.98178430      -1.19700911      -0.14739574       0.90529090      -0.35786170       1.18719149       1.72371221
H       32.02546781      14.89742762      21.81818570      -0.03509851       0.25676769      -0.05890181       0.27573112       0.25321198      -0.52766562
H       33.36186685      15.65199048      22.34935346       0.06345899       0.22716679      -0.23385886       4.56099081      -0.44248077       5.29498625
H       33.36071888      15.53658098      20.76526756      -0.13470070       0.49351719      -0.22329861      -0.23979720       0.32904622      -1.03892803
H       32.63344969      17.83948682      21.52183648       0.25940914       0.33679048       0.00123763       0.82762790       0.85639846      -0.15037633
H       32.16641325      17.46520729      24.02995379       0.03798692      -0.42874083      -0.48609782       0.03816763       0.36801463      -0.65366310
H       30.79328592      16.37411896      23.48847907       0.02604087       0.00016914      -0.38318366       1.67728198       0.89085442      -0.32941669
C       31.23724704      31.58203763      23.33482963      -0.50143774       0.12379099       0.93261358      -1.78329694       1.74322271       2.16246295
C       31.24299349      31.18937928      21.86725506       0.58037781      -0.87145002      -0.21530099       1.10569990      -0.27201632       0.67423785
C       31.98866239      32.19614032      20.95761340       0.21767166       0.38667275      -0.84728627      -0.20317604       0.10162981      -0.71789515
O       30.95568822      32.50620749      19.95193166      -0.14396912       0.14438590      -0.86300742      -0.10208827      -0.37166387       1.09043694
C       29.78697424      31.90526501      20.23603733      -0.18808193       0.62137740      -0.03344051      -0.65996778       0.09397779      -0.74692547
O       28.79689943      32.07566841      19.49962546       0.14140858       0.19936228      -0.00635282       2.19007397      -1.03638852       2.47452664
O       29.86622208      31.10440592      21.39390965      -0.88781255      -0.34045018       0.35308221       0.49856931       2.09174657      -2.50129652
H       30.93731596      30.87725522      24.13451900       0.18247046       0.13583708       0.11618582      -0.27183121      -0.57929134      -1.09093487
H       30.45754950      32.43555633      23.55056658       0.18440024       0.17454971       0.06473624       1.43163502      -1.39371645      -0.81560123
H       32.15411226      31.94671605      23.81124047      -0.43621289       0.05816415       0.11354042       0.40186331       0.15478732      -1.04230177
H       31.74282770      30.22965626      21.66592178       0.02025378       0.07911832      -0.03105841      -0.52293223       0.04951324       0.33946899
H       32.89837272      31.79901434      20.45397214      -0.15574100       0.18982825       0.22155863      -1.08964181      -0.17912064       0.13944271
H       32.37728823      33.10808086      21.44678040       0.21689940      -0.30115923       0.09765782      -0.90756887      -0.14238487      -0.00591367
C       28.49845162      15.16345185       3.46439903       0.21544765      -0.16771096       0.49680060      -1.81454170       1.35614395      -0.57676399
C       27.56164620      16.09764889       2.55461522      -1.33973831       0.92136249       0.45049427      -0.71898961      -1.73639989       2.09966588
C       26.47925075      15.36209567       1.75155598       0.80341725       0.32457945      -0.52429793       0.29973039      -0.00028992      -0.35397130
O       27.17073013      15.16700006       0.49473230       0.28578784       0.07432774      -0.28725913       0.32510760       0.08535562      -0.54604095
C       28.18237998      16.10366167       0.39108502       0.53780648      -0.74990620       0.06344988      -1.31036866      -2.23981667      -1.01229048
O       28.80949351      16.27082786      -0.62065642      -0.49774931       0.53297711       0.49940211      -0.20669305       0.19707829       0.30245626
O       28.33116625      16.66350677       1.53437154      -0.31254815      -0.10829773      -0.00085868       1.53479981       2.31687689       0.80658811
H       28.50067558      14.15213020       3.10478103      -0.20754553       0.24445559      -0.11521885       0.15647772      -0.48004073      -0.43284276
H       28.08577114      15.10568309       4.49240443      -0.08067758       0.03144525       0.03947792       0.53419220       0.23537020      -0.51712060
H       29.47408528      15.62283239       3.39307351      -0.03840621      -0.03342596       0.08253417       0.36330789      -0.09117714       0.41605404
H       27.09191993      16.85978263       3.19471528      -0.03813191      -0.08663540      -0.03457126       0.50744271       0.09414288      -0.47961628
H       25.60219010      15.98345241       1.49972465      -0.12581902       0.07153084       0.07828896       0.21364653      -0.24656825       0.51501638
H       26.19797883      14.39206752       2.20052788       0.02718909       0.24389146       0.10069058       0.12205149       0.46514979      -0.35574633
C       19.52935851      32.24004481       2.39184012      -0.01248001       0.27233614       0.37023055       0.56085736      -0.10996567       0.51536316
C       18.37860258      33.04215493       1.81220585      -0.12838170      -0.10258050       0.42994634       1.94205117       0.47488207      -0.66986507
C       18.48351216      33.29026249       0.29008090       0.65130555      -0.34204302       0.34351943      -0.41496602       1.34420347       0.38634852
O       18.16883701      34.74466248       0.19592160       0.00751075       0.25565943      -0.91393593       0.04625988      -1.33620536      -1.55335927
C       18.44934655      35.30537203       1.32902375       0.01645233       0.11530822       0.30383009      -0.90358025       0.74241614       0.92485023
O       18.47106751      36.50226202       1.51188032      -0.33865442       0.56430577       0.40480122       0.27679062      -0.53034025       0.09719721
O       18.58923306      34.38015890       2.28552312       0.68855028      -0.24672494      -0.21448887       0.27349666       0.94489920       1.04033327
H       19.28320864      31.19835727       2.51828035       0.06549429       0.18106425      -0.04156270      -0.21190973      -0.42605123      -0.38576096
H       19.79647030      32.54049726       3.44634606       0.01992455       0.22768043       0.06248950      -0.19113795       0.22640558      -1.18724167
H       20.35824982      32.34605439       1.67147529       0.00064264       0.16903747       0.13516954       0.04205995      -0.09926096       0.76379609
H       17.44216942      32.68321155       2.15064612       0.27187251      -0.20579305       0.01587993      -1.04683518      -0.18947902       0.06886154
H       17.75992373      32.78753323      -0.31509520      -0.32897067      -0.16376435       0.07208253      -0.22583325      -0.33186141      -0.22660388
H       19.49733265      33.25790576      -0.10423532       0.25757638      -0.22010584       0.01513484      -0.13100711      -0.61059886       0.19824506
C        8.16442512       3.86025468      29.89446479      -0.57697247      -1.37497047      -0.96459961       1.69169772       2.71679497       4.68935633
C        8.57124348       5.32006649      29.89441359      -0.03152351       1.02073408      -0.40581056       3.74171829      -0.01098263       1.72061586
C        7.54374418       6.28610029      30.35814283       0.03072392      -0.82238566       0.79624023      -0.49773374       0.58280629      -1.76594663
O        7.63504508       7.33862061      29.35916600      -0.57819271      -0.19259375       0.03500127       0.65072441      -0.66262084      -0.63916755
C        8.52393188       6.97212167      28.37003152       0.31022812      -0.55666280       0.52932107      -1.20540237       0.47794536       0.54923236
O        8.77642324       7.73173908      27.47238939       0.29772795      -0.30055199      -0.70009573       0.17360862      -0.75110829       0.12873486
O        8.94433488       5.71102022      28.53470466      -0.94086353       0.25380055      -0.57539185      -0.51465172       0.85368484       0.43996119
H        8.92696459       3.17950791      29.77327397      -0.07822180      -0.50532093       0.23625474       1.69043791      -1.43098342      -0.23603919
H        7.46473971       3.77748783      29.23355973       0.30006535       0.21688461       0.09623927      -4.03311396      -0.72479898      -4.52855825
H        7.59174604       3.65815952      30.80748667       0.14493235      -0.42922540       0.00497258       0.60653615      -0.08305357       0.22119372
H        9.48889936       5.64187343      30.56941307      -0.29784373      -0.12514498       0.00346225      -1.27054739      -1.38426733      -1.52459943
H        7.72025139       6.79084929      31.27285716      -0.29596122       0.04843785       0.73931479       0.23417243      -0.00011227       1.03594625
H        6.61103670       5.75759064      30.34190081       0.19538145       0.43652280      -0.08818037      -1.18238091       0.39285046      -0.14346589
C       31.84998253       4.32430555       4.77726468       0.37159343       0.09832324       0.66243694       1.39755690       1.73547041      -1.13761723
C       30.37112908       4.30405145       5.12142201       0.51569325      -0.45797824      -0.24346157       1.63145971      -0.48715395      -1.95599747
C       29.49117226       3.35681325       4.29585774      -0.20387493       0.40435992      -0.14285558      -3.16385508      -0.22866206       3.68038917
O       28.23615149       4.25362896       4.40975246       0.03190246       1.07310019      -0.57476790       0.18629029      -1.66365731      -0.62897915
C       28.58308078       5.51433864       4.53826206      -0.50014045      -0.17046188       1.53629003       0.30154148      -0.12935400      -0.87295496
O       27.82170744       6.42696106       4.37509700       0.10010744       0.73246032      -0.19077748      -0.30083188       0.83114707       0.26300707
O       29.89673596       5.64650155       4.74218363      -0.66377470      -2.11571521       0.41667227      -0.16830608      -0.71052337       0.31799418
H       32.56214806       3.46123269       5.08366499      -0.24569022       0.28854205       0.09707475      -1.65262210       1.68671727      -0.14410630
H       32.14347659       5.40482821       5.15197949       0.26978329       0.32258064       0.24121911       0.12497918      -2.60009694      -0.32227433
H       31.95086754       4.44522943       3.63947138       0.14777847      -0.29182412       0.00658268      -0.19905479      -0.44985029       1.65473652
H       30.21092676       4.25112922       6.15990086      -0.10456190       0.44260881      -0.55224221      -0.35746634      -0.50158167       1.35784221
H       29.10340140       2.35461695       4.88296311       0.20374651       0.21744589      -0.03183568       1.40326011       2.50355625      -1.70226812
H       29.69938277       3.22910802       3.24995472      -0.12041185       0.03089679       0.10349079       0.35704523      -0.03813786      -0.26274887
C       32.09651350      32.04023837      10.97014739       1.56539362      -0.10211924       1.49897630       4.29103994       1.36880362       1.50646091
C       33.10874810      30.81662307      10.93974154      -0.13300980       0.82272761       0.05658897       0.86678874       1.75446534       0.22426879
C       34.39088155      31.34523700      11.66045187      -0.15103252      -0.37198627      -0.52294401      -0.80712837      -0.82137990       1.81536543
O       35.34663545      31.58073244      10.64506493      -0.10946963       0.19194812       0.98921898       0.66205907       1.13914478      -0.39125273
C       34.89561469      31.16815176       9.46390049       0.15719004      -0.30350408      -0.05154550      -0.04229906      -1.64628232       0.68752241
O       35.49030307      31.09671149       8.42228390      -0.45323508      -1.49194473      -1.47144974       0.04456046       0.66956764       0.27378428
O       33.70204289      30.60243262       9.65108698       0.44257537      -1.10805982       0.14736296      -1.66010904      -0.34679091      -1.59730601
H       32.69028117      32.92392989      10.36949222       0.11166513      -0.24500893      -0.04862369      -1.47002256      -1.95632100       1.76427388
H       32.02918221      32.31311473      12.11787407      -0.19711896      -0.04041723       0.19091191       0.03904274      -0.17571247      -2.45098376
H       31.14013380      31.96957645      10.60017614      -0.26508144      -0.13680341      -0.05668894      -2.01903629      -0.68131000      -1.00549138
H       32.79942527      29.82022022      11.30229099      -0.01171941      -0.17705154       0.23654714      -0.20723291       0.74160659      -0.11065051
H       34.80788035      30.55001855      12.30411609      -0.20516299      -0.41769303      -0.07523987      -0.13126525       0.44047675      -0.14814720
H       34.14950248      32.25042046      12.26416952      -0.06324206       0.00560419      -0.11211420       0.64037287      -0.66491663      -0.75390583
C        4.13431206       0.19156693       4.08876010       0.67192492      -0.64816622       0.98801715      -3.99131465      -0.58502567       2.06533337
C        5.25357847      -0.84423089       4.07980567      -1.34491479      -0.39703620       0.55527503      -0.19537756       1.56067944       2.05267024
C        5.75451374      -1.10101739       2.71143072      -0.02760465       0.12373123      -0.37900228       2.46519971       1.13889563      -2.28350902
O        4.91742320      -2.12549318       2.22051537       0.20592157       0.87156212      -0.04866704      -0.79719102      -0.60934496       1.16508973
C        4.45475842      -2.78881687       3.32360560      -0.06089834      -0.55721804       1.34070080       0.47135842      -1.04405618      -1.37718236
O        3.90252205      -3.84552472       3.20872523      -0.11917968       0.90989714      -0.37001293      -0.45852479      -0.16522282       0.41593984
O        4.79513041      -2.20045676       4.46349798      -0.69472113       0.26341491      -0.06899034      -0.73353493       0.95860255      -0.85956061
H        4.22474378       1.28162452       3.91351206      -0.03929449       0.73185156      -0.31362236       1.04063964      -1.13618004      -0.00318622
H        3.53057744       0.14089429       5.12004867       0.35672940       0.13001070      -0.23208105       1.57617533      -0.02690527      -1.80913436
H        3.31127542      -0.12482037       3.38753656       0.10421001       0.00804221      -0.07194005       0.84622228       0.10918280       0.19741830
H        5.96670000      -0.66894664       4.90926121      -0.06343991       0.15091423      -0.26730035       0.06625541       0.40658414      -1.15124178
H        6.78518873      -1.48437364       2.79806432      -0.35125876       0.00990614       0.16514693      -0.19878247      -0.07331242      -0.26254725
H        5.76899704      -0.28462283       1.88572007       0.03738565      -0.12050845      -0.00101961      -0.31044263      -0.88664806       1.96237862
C       14.55032238      10.81324361      18.67974188      -0.23714135       0.82814862       0.10827187      -0.44470850       1.20685101       0.80189961
C       14.45858325      11.19001687      20.15087304       1.00659966       0.74847678       0.32499601       0.42132640      -0.19880937       0.18027829
C       14.68417764      10.09473195      21.18405356       0.51923964       0.49718724      -0.46337870      -0.27423969      -0.83762306       0.05318053
O       13.79057569      10.46311034      22.26254396      -0.10738285       0.35295249      -0.03958840      -0.72994941       0.85139889      -0.32271671
C       12.83588585      11.32782972      21.75852940      -0.93829610       0.00801668       0.58390802       0.31374666      -1.15656066       1.41084814
O       11.84397862      11.66038219      22.36050194       0.57707943      -0.04550191      -0.90437785       0.60929918      -0.16126332      -0.59448445
O       13.15280106      11.69677891      20.54260073       0.41693634      -0.53136147       0.16251101       0.10799413       0.39991853      -1.12397242
H       14.37239277      11.71650862      18.06454174       0.05281163       0.01706021      -0.01900763      -0.27913672      -0.48606056       0.23919941
H       13.86330733      10.00287779      18.46097517       0.09631694       0.25366347       0.20525498       0.10167868      -0.12407087      -0.34973958
H       15.58613577      10.57251420      18.52217128      -0.14184421      -0.27466871       0.02832307       0.33965218      -0.62392467      -0.23500106
H       15.20712752      11.93784519      20.36817759       0.13716569       0.07202569       0.32435564      -0.08218754       0.68841714      -0.09735403
H       15.72496441      10.09810219      21.55799560       0.05257411      -0.01901214      -0.05891900      -0.53784889      -0.19087556      -0.19595012
H       14.34308468       9.09203331      20.84532388      -0.00344920      -0.09110280       0.24512576       0.48800632       0.48930991       0.07615393
C       22.46799538       3.90992936      17.10643347       1.23420347       0.13410739       0.65767025      -1.55406356       2.30087686      -0.38777840
C       23.30106343       3.48949102      18.28399092      -0.11598823       0.31588074      -1.40623124       0.53266150       1.06836200       0.82136458
C       24.29947146       4.54027210      18.93320277       0.05389335       0.38076998       0.85203298      -1.37890339      -0.00928403      -0.51026064
O       25.38856264       4.49206040      17.97289817      -1.32412217      -0.00648153       0.17939145      -0.19806337      -1.95803142       0.19663854
C       25.40221311       3.15357454      17.55259991      -0.36417545      -0.67640562       0.32133431       0.54211217       1.57276583      -1.38725948
O       26.25987275       2.64609571      16.88794755       0.09856355      -0.20180152       0.90800905       0.37298825       0.34880653       0.63407445
O       24.26386060       2.54416909      17.78789541       0.59808517       0.99858510       0.71884829      -0.53930974      -0.41478884       0.64735663
H       21.73278313       3.26134521      16.67167686      -0.10492763      -0.51365915      -0.01524891      -0.16930115      -1.38601804       0.38797542
H       23.08782586       4.13398326      16.26432480      -0.35343220      -0.10294484       0.55316053       0.79640049       0.38164818      -0.51763582
H       21.78472499       4.82527377      17.21470264       0.30507889      -0.15423903       0.04597940       1.29166925      -0.81025690       0.58912820
H       22.75277423       3.01583246      19.07303164      -0.26997369       0.05317193      -0.20853083      -0.33258560      -0.29189602       0.31499809
H       24.62781813       4.17234738      19.91032278      -0.05764141       0.07927477       0.05044206       0.06436463      -0.04831934      -0.32410654
H       23.90226840       5.57034530      19.10995181       0.10428686      -0.11516586      -0.04915252       0.37024263      -0.79813498      -0.65273875
C       34.08061675      10.79247318      15.31028159      -0.21935680      -1.47466646      -0.01532047       3.44187903      -6.51377201      -2.63297200
C       34.14917781      10.99229745      13.75840716      -0.19751320      -0.11107710      -0.12471352       0.22790074       0.40129605       1.58275020
C       33.69713617      12.42420195      13.42356312      -0.07644860       0.76346560      -0.90215635      -1.50523567      -0.75184703       0.87909633
O       32.52282437      12.18406115      12.55307466       1.09097007      -0.20430678      -0.12577799       0.75414228       0.03388159       0.42617130
C       32.28202355      10.85923015      12.42726613      -0.52558416      -0.41758999      -0.69968376       1.02591228      -0.61421847       1.45267200
O       31.33425792      10.38531212      11.88828666      -1.02669746      -0.71421270       0.28178483       0.11670744       0.12484905      -0.29864684
O       33.22953116      10.10055956      13.13225592       0.14285474       0.91451107      -0.73245548      -1.27695227       1.50144494      -1.19662654
H       34.14216910       9.59436441      15.71662909      -0.25740750       0.27441919       0.07081522      -0.53057575       3.14251518      -1.70827031
H       33.29561639      11.22700696      15.68055479      -0.11842129      -0.06059331      -0.04608263      -4.82999516       2.20205665       1.98186743
H       34.88418912      11.17879344      15.81742690       0.87622145       0.32448896       0.54571532       2.28973722       1.33461273       0.79764742
H       35.12185161      10.94434068      13.29194324      -0.02596584       0.17863831      -0.30186611       0.40333644      -0.97254890       0.29808253
H       34.45635913      12.97333597      12.89359463       0.02534722       0.20327265       0.02580227      -0.02621613       0.31664175      -0.23640870
H       33.39284538      12.92889065      14.38462235       0.20112256      -0.03580514      -0.04043179       0.00860408      -0.06796634      -1.30274117
C       21.79039837      22.98135796      26.05424856      -0.42376666      -0.07756337      -0.02687801       0.17590751       1.87433553      -0.31267530
C       21.62611558      24.41935331      25.52684018       0.26230591       0.06626736      -0.18935766      -1.90485072      -2.51189828      -0.42948052
C       20.31136260      25.03316392      26.01899255      -0.25619777      -0.50380669      -0.46531089       2.43561864       3.41971540       0.40610456
O       19.95254460      25.87641623      24.82550867      -0.70751416      -1.18522444      -0.52250670       0.19089299      -0.79950243       1.55395544
C       20.53412591      25.31326826      23.76792251       0.49468786      -0.39150169      -0.04889187      -2.47848535       1.04887772      -3.77235866
O       20.16978119      25.67252308      22.61069407       0.95361075      -0.67434895       0.63554763       1.84713757      -1.44739652       3.57250881
O       21.34669139      24.33061109      24.08173399       0.43700300      -0.20803543      -0.70241782       0.58008897       0.40899199      -0.12710463
H       22.52084136      22.45947675      25.44701542       0.04635249       0.16909810      -0.06674350       0.26642305      -0.12000898       0.31533733
H       20.82745892      22.52138158      25.99624431       0.20940838      -0.18676886      -0.03167443      -0.55996716      -0.60118186      -0.04490169
H       22.04426261      23.10904263      27.10199704       0.12696880       0.06562538      -0.23167274       0.34174380      -0.42146045       0.20433749
H       22.50657554      25.01623623      25.64009387      -0.18928530       0.13539963      -0.04445253       0.33851197       0.57853091       0.09889720
H       20.62521605      25.74284518      26.84075326      -0.02027773      -0.04870751       0.21563972      -0.82243341      -0.50633425      -0.84408545
H       19.49504921      24.45012077      26.38288070       0.07074194      -0.01160918       0.21707396      -0.48207828      -0.90294689      -0.49448413
C        9.86567859      14.78885910       2.09456942      -0.09867745       0.24943629      -0.37456896       1.05041194      -1.33766341       1.01092434
C        9.47225974      14.32422461       3.52330020       0.25535518       0.08965191      -0.86758879       0.30365801       0.65471143       0.61295134
C       10.52678088      13.53273761       4.36445774      -0.58785958       0.38180749       0.34362686       1.52868664       0.27544093      -2.35645628
O        9.87165013      12.39890359       4.84250163       0.15826618      -0.04589994      -1.25242134      -1.77936256      -0.68334150       0.35045901
C        8.60162746      12.33832644       4.33863929       0.17280086      -0.58975365       0.59925664       3.23833609       1.86710453      -1.18715310
O        7.86834415      11.45998255       4.56346249       0.70424476      -0.22535146      -0.44889965      -2.10951877      -1.66599751       0.53427237
O        8.43240845      13.32918220       3.42173688       0.38480593       0.35530190       0.74472656      -0.75821483      -0.56993282       0.49628186
H        9.01455624      15.11809031       1.53615837       0.11488140      -0.16361026      -0.25266699      -0.61162311       0.60325068      -0.05898776
H       10.20414718      13.88122123       1.55662449      -0.23568435      -0.03856826       0.26103975       0.18907714       0.52508229       0.18340659
H       10.67778614      15.55104417       2.11165446      -0.03875865       0.12250025       0.01255452      -0.71354932      -0.55206418       0.07678575
H        9.04928467      15.14748548       4.11714555      -0.01804423      -0.13110718      -0.25856819       0.36560327      -0.23304772      -0.23891586
H       11.05187468      14.00633808       5.19057487      -0.17951956      -0.10683780       0.13875499      -0.40046257       0.36841658      -0.31336400
H       11.25883732      13.14275259       3.61669870      -0.24687879       0.11295062      -0.01807824      -0.00783264       0.43752804       0.56213772
C       25.19205292      25.91357651      15.91559509      -0.43996235       0.22133542      -0.70147131      -1.42828321      -0.67271620      -1.23988605
C       26.37714346      26.76065667      15.89780567       0.34118620      -0.68978954       0.44595522       1.27060902      -0.27564037       1.30072844
C       26.85452810      27.12818176      17.28518748      -0.24785766       0.78032558      -0.33446433       1.28257704      -0.17950486       0.80944633
O       27.60908057      28.32832913      16.95885412       0.54752287       0.21612896      -0.09278596      -0.10475841      -0.59309018       1.14264858
C       26.98191993      28.92183562      15.97168466      -1.13727563      -0.04555817       0.00591450      -1.27509117      -1.30602169      -0.73142433
O       27.16221911      30.04854108      15.67311150       0.16754821       0.99301126       0.16308485      -0.18808913       1.11272550      -0.60046101
O       26.08051883      28.03976534      15.37591089       0.58080620      -0.02047656       0.44330425       0.79628271       1.87777865      -0.25347614
H       25.26902282      25.02964766      16.56962174       0.11946411      -0.00377153      -0.03462961       0.07821148       0.44157895      -0.29852036
H       25.02964924      25.61998730      14.87003399      -0.19685933      -0.00179565       0.04414118      -0.15068583      -0.46455240       0.26625448
H       24.33781408      26.55170129      16.14197792      -0.09281934       0.11040535       0.06112876      -0.17485014      -0.16386522       0.49955040
H       27.21509709      26.34371704      15.30685122      -0.00038907       0.04836478      -0.06672790      -0.23912324      -0.02385491       0.35935318
H       27.55864954      26.40768299      17.73019427       0.22781381      -0.25661815      -0.35018460      -0.24157375       0.23564012      -0.30745575
H       26.10863822      27.40172541      18.06540229       0.07160116      -0.02853132      -0.10764465       0.05200520      -0.22481339      -0.85769659
C       14.35408277      23.20193310      17.48697384       0.01183374      -0.19802778      -0.31930230      -1.69286680       0.88354689      -0.63858867
C       14.61785994      24.03117186      16.21662578       0.40397684      -0.20365882       0.17482415       1.33101523       1.36339450       3.29981232
C       13.95406463      23.69747731      14.92878906       0.00137211      -0.21924829      -0.61980931      -0.87920851      -0.09945089      -0.09186365
O       15.02123385      23.75938145      13.99388042       0.16540514       0.17670821      -0.26290048       0.51824933      -0.58482379      -0.06120701
C       16.22082768      23.71921889      14.65489360       0.48995464       0.19969046       0.55202940      -2.61582923       0.82537860       0.37384129
O       17.23195682      23.67050691      14.06037201      -0.38510132      -0.29341255       0.13778310       1.99511600      -0.30974329      -0.57623565
O       16.02344122      23.88015650      15.96903590       0.02230068       0.54608887      -0.16909402       1.17460787      -0.62009990      -1.25533545
H       14.67862183      22.21214827      17.23660592       0.13615778       0.12802111       0.10324883      -0.31375346      -0.73519272       0.03504281
H       13.25028204      23.31053325      17.62701245       0.10470162       0.08232507      -0.25678131       0.56264079      -0.66734618       0.10659546
H       14.80033606      23.51041337      18.45051433      -0.19008072      -0.20062658       0.01629021       0.18015261       0.33114973      -0.83319867
H       14.55875521      25.09618275      16.48267845      -0.23775256       0.25130781      -0.03153789      -0.56793737      -0.22378305      -0.33169064
H       13.25255653      24.48294220      14.66461755       0.13578535      -0.00466208      -0.12185245      -0.27590874      -0.03525875       0.03355978
H       13.44837282      22.72303858      14.95234663       0.20374313       0.08578705       0.12221716       0.43794939       0.22108151      -0.30543542
C       10.78840404      10.78534345       2.10721166       0.10896811      -0.39367423      -0.15646335       1.21554589       2.34831619       0.70698524
C       11.28025646       9.90516787       1.01425120      -0.48601708      -0.72108430       0.79619200       0.49693057      -0.70771217       0.00918371
C       10.17723105       9.63546486      -0.01289074       0.31990114      -0.00018624      -0.23515645       0.03478104       0.29978919      -0.36492047
O        9.80848180       8.22246997       0.19587397       0.88137532       0.18021321      -0.40384281       0.27277029       0.75494313      -0.36451572
C       10.64181686       7.66467118       1.07560184      -0.62737933       1.02796329      -0.78570005       0.01568732       0.79489982       0.32538095
O       10.67394338       6.50416755       1.40568704       0.21434072      -0.96097425       0.82254971      -0.18502176       0.64947838      -0.25077891
O       11.45006545       8.60545643       1.61413048      -0.38118282       0.78785322       0.41337836       0.42703521      -1.39756095      -0.01553560
H        9.88632626      10.40647269       2.54453400      -0.02011306       0.23208011      -0.26609044      -0.52712435      -0.35051215       0.24582995
H       10.60720576      11.82105995       1.72704999       0.11502664      -0.20145020       0.03378614       0.03503077      -0.90455669       0.05551638
H       11.55682337      10.93108947       2.91000387      -0.23257088       0.13985757      -0.20033708      -0.56297690      -0.44548425      -0.54742187
H       12.29001835      10.17067864       0.63576576       0.24015037       0.14070232      -0.21594654      -0.92144305       0.15949549      -0.07963305
H       10.47237740       9.80800007      -1.06473938      -0.01242502      -0.13346292       0.47784974      -0.18893044      -0.40102112       0.69933110
H        9.35866420      10.33130449       0.24265443      -0.08678547      -0.12319983       0.35261320       0.01718665      -0.89270210      -0.37313128
C       23.61306987      27.00973902       8.30256807       0.33511594       0.24107665      -0.28387189       0.42775851       0.60207272      -0.82416809
C       22.46575486      27.38894554       7.37803001      -0.48743148      -0.18497580      -0.29110403      -0.27161610       0.67001170       1.22568309
C       21.80486933      26.20147276       6.74982824       0.84219179       0.60247100       0.64439813      -0.16382967       0.11763048      -0.42956617
O       22.64904322      26.04021446       5.59673260      -0.33529185       1.69388975       1.39703190       0.81717730      -0.09161887      -0.91148180
C       23.17662577      27.24565279       5.26625264      -0.69540019       0.32076236       0.94191194      -0.24997813       0.29168507      -0.16683248
O       23.74436953      27.54118939       4.24631591      -0.13457234      -0.13589791      -0.51258318      -0.22317807      -0.68777370       0.32546279
O       22.93822994      28.13536598       6.24757503       0.19706324      -0.64427725       0.45473399       0.30011159      -0.40559500      -0.29019067
H       24.23331952      27.89701649       8.46349885      -0.03431400      -0.00077830      -0.06607771      -0.20579390      -0.12172686       0.38963252
H       24.27069653      26.23143229       7.94154536       0.14450915      -0.08834049       0.21323053       0.18183756      -0.25876755      -0.73144925
H       23.22707443      26.58117766       9.19322104      -0.05416200       0.14975753       0.20675441      -0.52016675       0.03234457       1.04879451
H       21.78667470      28.05863209       7.91146524       0.22758254       0.09704231      -0.03640945       0.02578172      -0.23112404       0.01800137
H       20.80703763      26.33542055       6.32958376      -0.02381806       0.17355158      -0.06232458      -0.15085059       0.26139587       0.41824263
H       21.81605665      25.35406140       7.42517378      -0.14088646       0.09590224      -0.15891655       0.13982965      -0.38190886      -0.27879739
C       18.37872567      16.46470277      21.39356068       0.23983564      -0.31797805      -0.44003375      -1.82644880      -0.84773046      -0.26590899
C       19.15774634      15.24676584      21.01901643      -0.21003589       0.76168387       0.06097254       1.82762814       0.54517823      -0.19798732
C       19.65558578      15.21443032      19.54680174      -0.11000006       0.68603476      -0.55851489       0.88154376       0.71999443       0.58947188
O       19.23306178      13.97253829      19.03970578      -0.78140908       0.43021455       0.03885063      -1.20694923      -1.10724258       1.40877175
C       18.43335417      13.37097090      20.00120894       0.64329495       0.30055402      -0.44934794       0.38426274      -0.80983245      -2.25680971
O       17.89344566      12.30254613      19.75650921       0.13976739       1.48253769       0.49952522       0.53155297       1.00289178       0.79465449
O       18.43017742      14.04080251      21.12642370       0.11207160       0.66651977      -0.35440849      -1.19638741      -1.06548738       0.03489818
H       17.53873472      16.54687131      20.68252256      -0.02443659      -0.04197908       0.03086138       0.25823137       0.13064584       0.23009373
H       18.97912462      17.33928589      21.29670534       0.07915664      -0.16498246       0.15935665       0.52237761       0.55683947       0.23028758
H       17.91640050      16.34961470      22.38538553       0.34908904      -0.02005771       0.03236012       0.47084126       0.21300586      -0.14334922
H       19.99663686      15.09304892      21.70289456      -0.05457265       0.16588417       0.00169549       0.05399317       0.32006726      -0.14059213
H       20.75387186      15.26682848      19.49442284       0.08476469      -0.01283533      -0.03661272      -0.52939779      -0.12837379       0.10447703
H       19.24266286      16.01193332      18.93529791       0.19073334       0.14719076      -0.01586933      -0.20007327       0.16098590       0.00136255
C       22.23903590       4.00448547      13.15655207      -0.80693412      -0.18942945       1.09785009       1.14430022      -1.27028799      -1.73871779
C       21.10678514       3.88881539      12.16367147       0.64112407       0.65122546       0.92052714      -1.71859884      -0.33927602      -0.56655824
C       20.62308762       5.21240262      11.54868605       0.79572460       0.85158589      -0.04253350       0.13027062       0.94182163      -0.36028618
O       19.25827978       5.32519965      11.95643379       0.17587724      -0.70421553      -0.15663261       0.41734704       0.25667846      -0.85333669
C       18.86502784       4.22638645      12.53556555      -0.02311693       0.21139716      -0.17746841       0.04803231      -0.56543946       2.21464801
O       17.71276790       4.11979699      12.87971760       0.50640591      -0.15357497      -0.39509495      -0.03097707      -0.88485885      -0.17544110
O       19.89116861       3.40259507      12.91358168      -0.34854607       0.40002761       0.43280028      -0.36241531       1.35633349      -1.62027967
H       22.13240855       4.78351127      13.86930231       0.03577975      -0.05833983      -0.13119989      -0.68827355       0.61036360       0.78166914
H       23.16800869       4.26912178      12.61579616       0.28354926       0.17821332      -0.09317331      -0.30861396      -0.15304326       0.04130128
H       22.42573153       3.02527957      13.61401554      -0.25759198       0.15211131      -0.12271253      -0.13395962       0.34364003       0.18105705
H       21.14113622       3.21147744      11.27547477      -0.14438654       0.22825867       0.03592862       0.89001781      -0.04318760       1.22277796
H       20.66411184       5.37159777      10.44531909       0.01885851      -0.15518316      -0.08688989       0.04343382      -0.74199200       0.88026953
H       21.10460450       6.06590342      11.98338990       0.11344159      -0.03246296      -0.02490580       0.48319691       0.39201003       0.20712861
C       17.03005398       9.38943218      15.62954334      -0.05327871      -0.11918521       0.08239593       1.05490649      -0.10488960      -1.02720213
C       18.33901874       9.28755729      14.73568210      -0.44655667       0.00457877       0.05320566      -1.31645787      -0.27228522       0.94357401
C       18.56215048      10.47795825      13.81066910       0.05442189       0.50808203      -0.51281418      -0.38629526       0.64534760       0.49821231
O       18.08564813      10.01551724      12.53937969      -0.01401656       0.19376242       0.51302290      -0.12828302      -0.74599016      -0.12713471
C       17.99479342       8.66522803      12.58128702      -0.11261214      -0.37780475      -0.06136687      -0.61156780       1.49850011      -1.05366945
O       17.65051752       8.02858695      11.62024969       0.53136941      -0.12265394      -1.05244028       0.18465617       0.04610819      -0.18256435
O       18.19672725       8.19022067      13.76720511      -0.20099213       1.01872235      -1.11354805       0.08546477      -0.33600256       1.57992303
H       16.92943904       8.59165735      16.37504452      -0.22636393      -0.02637332      -0.11969748       0.18948662       0.09456363      -0.28369644
H       16.17361907       9.33117085      14.94643973       0.16214676      -0.08987762       0.08229826      -0.05407260       0.18541063       0.24182963
H       17.03055605      10.35719892      16.15615247      -0.23486985       0.03976943      -0.03842778       0.00892629      -0.30527547      -0.27425024
H       19.20433912       9.04426055      15.34174154       0.21806167       0.14986731      -0.13358834       0.16769069       0.11025390      -0.01321704
H       19.63277737      10.65288925      13.70792335      -0.15462452       0.10265397       0.09275225      -0.14395404       0.49626017       0.23182926
H       17.93715538      11.36311276      14.12318718      -0.04512534       0.07880267       0.14511567       1.13410211      -1.01295650      -0.41813359
C        2.96719530      15.29693839       7.79803099       0.15498751       0.31774410       0.42054086      -1.81042707      -0.96105582       0.52363306
C        2.22089938      16.47823926       8.24458357      -0.16987303      -0.84988841      -0.80643823      -1.93045902       2.86107969       0.13646796
C        1.38264013      16.41157849       9.60194300      -0.60689760       0.00186046      -0.22725823      -0.01228153      -1.98857367      -1.02736056
O       -0.00356547      16.70415641       9.24771408       1.26031471       0.23919582      -0.45026648       1.34498310       0.87986094      -0.80072153
C       -0.06662445      17.01133913       7.93766012      -1.04873435      -0.67119759      -1.82526422      -1.76246846      -1.23988211      -0.48367941
O       -1.15624809      17.29766595       7.41313134       0.15863464       0.66307730      -0.82427777       2.72402787      -0.45236960       0.61773932
O        1.09315012      16.73460982       7.28840808       0.58387158      -0.18113986       1.20477702      -0.86888796       0.85519212       0.60392702
H        3.43948164      15.46716924       6.85663546      -0.19909187      -0.09844672       0.03720309      -0.14172344      -0.19328846      -0.98453104
H        2.29771636      14.39541554       7.91857023      -0.15033479       0.04531630      -0.08930004       1.29452956       0.78006786      -0.45940933
H        3.73785985      15.30733284       8.49608116       0.14523244       0.18297300       0.17748843       1.62139690      -0.85045362       1.38864970
H        2.86392694      17.41717863       8.15335535      -0.58532657       0.02975179       0.08546578      -0.84385985      -1.15399778       0.50906277
H        1.68917556      17.03341188      10.40295280      -0.03738521      -0.17770994      -0.25004690       0.37205449       0.85537148       0.17505275
H        1.35989101      15.38769062      10.01993020      -0.11396929      -0.16091126      -0.03239865       0.15489918       0.40712905      -0.48877522
C       30.03710011       6.79052360       1.60915917       0.32648419      -0.40839902      -0.15069438       1.49766779       1.39213300       1.25885189
C       30.83336119       7.50086701       0.51196353      -0.79129755       1.30406334      -0.48510569      -3.78232312       0.75147820      -1.02075052
C       30.28917372       8.96581569       0.11602705       0.65128149       0.07507212       0.19851857       1.76363409      -1.95007300      -0.94332600
O       30.28248273       8.90038602      -1.35006425      -1.23377798      -0.70219412      -0.97875604      -0.82448518      -1.23112631      -0.23705210
C       30.33430815       7.59216458      -1.80066432       0.54429911      -1.20357801       0.91813060       0.86964720       1.07784379       1.46579194
O       30.29540149       7.23670147      -2.94900826       0.64424158       0.74485259       1.33942480      -0.30808586       0.40614045       0.69301558
O       30.57798854       6.78435659      -0.74652546      -0.41468514      -0.59100871      -0.26773455      -0.12068831      -0.14265427      -0.46585274
H       30.40214445       5.80952102       1.85186558      -0.17328378      -0.05588107      -0.13151776      -0.16069721      -0.80405080      -0.52728522
H       28.98909567       6.93608330       1.67676919       0.08763026      -0.19647963      -0.12527742      -1.20345104      -0.45601952      -1.23853207
H       30.18943745       7.26791952       2.57936677       0.06143379       0.06490801      -0.05404801       0.91581708       0.59990382       0.11498483
H       31.85789186       7.46168846       0.61807472       0.14363869      -0.15167322       0.01617436       2.07462549       0.07078686       0.60360271
H       30.98465064       9.78953526       0.27729851       0.01696029       0.24812975       0.13476980      -0.19181526      -0.18413717       0.74568415
H       29.31169096       9.04822544       0.55208949      -0.15525278      -0.22654514      -0.28088286      -0.57646191       0.52949405      -0.17213520
C        8.37406069      29.57119645      17.21428908      -0.43384106       0.59481227       0.12577778      -0.29969731       0.71406412       0.60773718
C        9.01361615      30.41625189      16.13918840       1.22946667       0.42318217      -0.32353245      -0.32968482       0.13023281      -0.94546580
C        8.20885477      31.60734104      15.56614387      -0.00776685       0.26522166      -0.45266181      -1.85414374      -2.45869541       1.64870620
O        7.70225122      31.04760024      14.36871946       0.25782975      -0.41542005      -0.04433473      -1.27514923       0.41159400      -1.03715730
C        8.42497676      30.01668423      13.92798273      -1.02295848      -0.38012966       0.76464812       1.64498436       1.15609145       2.95985246
O        8.34926688      29.52888031      12.86687614       0.75484186       0.03316510      -0.39622737      -0.40022954      -1.00155938      -2.21425223
O        9.34415754      29.67353092      14.87267309       0.74476940       0.64596260      -0.08447337      -0.85073674       0.46446049       1.02425849
H        7.40185192      29.18377990      16.93275149       0.10935391      -0.24312303       0.05378011      -0.20594370       0.46182412       0.07030546
H        8.34752203      30.21804263      18.13768421      -0.10254815      -0.01861277       0.31475097      -0.50621611      -0.58682519      -0.95745343
H        8.92437693      28.69575460      17.50239621       0.21074427      -0.13984025      -0.17755194       0.89519173      -0.31129023      -0.07449432
H        9.87853534      30.87072250      16.53749172       0.16951261       0.25656230       0.07012032       1.52668619      -0.06601343       0.11201722
H        8.79214166      32.44384714      15.36067246       0.08618379       0.05212518      -0.08363609       1.15354502       1.35381198      -0.48534581
H        7.35195527      31.88163006      16.23322378       0.03422035       0.22070506       0.36642755       0.59119183      -0.24448299      -0.61929345
C       23.64002939      29.41672936       0.42229798      -0.08457610       0.57071628       0.06966809      -1.83255148       1.68405092      -1.30541849
C       22.48937980      29.87534250       1.31740922      -0.91291284      -0.55197394      -0.63641558       0.52830803      -0.76753122       0.09830023
C       22.91989087      30.40989385       2.66640548       0.19391138      -0.43246736       0.46742314       1.05998254      -0.93014568      -0.93536609
O       21.92041909      29.98072455       3.54283552      -0.02899204      -0.02329076       0.41378354      -0.65137714       0.17867145       1.17716682
C       21.35895780      28.86423988       3.06336162       0.68305049       0.44626148       0.16081644       0.63243186       0.87185109      -0.34952575
O       20.61988037      28.17593732       3.70459667       0.01905991      -0.01672354       0.53825874       0.15010764      -0.24237430      -0.49291998
O       21.76606646      28.71146299       1.78944436       0.44226804      -0.15405394      -0.32225933      -1.13017464      -1.12088633      -0.30984563
H       23.21605031      28.64154263      -0.27992696      -0.01226218      -0.25453516       0.00624524       0.85830235       1.15864325       0.39065388
H       24.42071237      29.04108925       0.99792215       0.08348676      -0.00409865      -0.28827166       1.31479311      -1.09738278       1.06163347
H       24.05313886      30.38187267      -0.02086746       0.13739743      -0.04696733       0.07774316      -0.56509227      -1.41659939      -0.16417393
H       21.81261893      30.54761441       0.75847088      -0.04650634       0.05497893      -0.02874278       0.03285503      -0.34101194       0.38598645
H       22.95250060      31.45167301       2.59887204       0.15849681      -0.01209037       0.18258711       0.14500491       1.71174479       0.55312949
H       23.88682561      29.95935853       2.96705471       0.04710643      -0.01044614      -0.08077922      -0.40634498       0.42324007      -0.02515293
C       30.53053492      27.25010800      10.30540387      -0.57570093       0.08794782      -0.21702514      -0.87895310       0.79444343      -1.45640635
C       29.55110162      28.31371087      10.61968840       0.18466624       0.11646096       0.25094480      -3.15153956       0.08900525       1.41711748
C       28.30555541      28.22311550       9.67619543       0.47325774      -0.44969323      -0.54256927       0.23923196       1.33072460       0.30736610
O       27.90755131      29.64032886       9.62776716      -1.13765646      -0.95989303      -0.33733835       1.12035096       0.52578890       0.01834364
C       28.97556365      30.40885872       9.95250720       0.15754055      -0.37251932       0.67245116      -0.13750152       1.94017458      -0.11683068
O       29.03160452      31.64087434       9.86232119       0.34510493      -0.29197965      -0.32569892      -0.56603813      -2.66901684       0.01465375
O       30.00077009      29.69960243      10.45342717       0.14836846      -0.05242192       0.07443125      -0.45153886      -0.96615702      -0.59032762
H       30.73523183      27.43164515       9.25264427      -0.06769025      -0.19956060      -0.07382325       0.62503326      -0.22426498      -0.24398863
H       30.02974635      26.29660900      10.32197969       0.11090489       0.11322187      -0.12803393      -0.10262419      -0.44409487       0.37298012
H       31.39957274      27.28777466      10.88206132      -0.11722162       0.07344233      -0.26292755       1.39699161      -0.14934069       0.96275300
H       29.07180638      28.29935685      11.65314354       0.08519431      -0.06715705       0.01212764       1.12762737      -0.23516884      -0.83180064
H       27.40621235      27.69422147      10.04131268      -0.09642126      -0.05272663       0.06035276       0.87453920      -0.10307005      -0.09747551
H       28.57489201      27.92979922       8.65885780       0.12765047       0.00298046      -0.01741307      -0.02969212      -0.18772905       0.17266990
C       21.53405205      24.94961512       2.15815614       0.44933742      -0.75940659       0.60759735      -2.61369443       1.45890188       2.15472746
C       22.89429724      24.68916428       1.83079512       0.57811734      -0.31174029      -0.15643298       2.19597745      -0.84410149      -0.81664783
C       23.54535543      25.80430871       1.00800457       0.09450475       0.65369434       0.00857081      -0.32996818      -0.24281459      -0.14826041
O       24.16442228      25.10095503      -0.08052944      -0.61588243      -0.19825279       0.26439234       0.90412325      -0.09146132      -0.59384239
C       23.74849176      23.83647574      -0.14329531      -0.05704695       0.75088130       0.20624063       0.87823725      -1.26058984      -1.75559402
O       24.10989497      23.03290319      -1.02747785       0.34451544       0.23008306      -0.94331455      -1.09781742       2.05810571       2.50013828
O       22.91412206      23.59409837       0.85435207       0.62129628       0.37947163       0.23157794       0.11069495      -1.04930687       0.04210760
H       20.99943003      24.16517494       2.73919994      -0.22393152       0.29083894       0.11996346       0.39684334       0.09078790      -0.87709844
H       21.01788887      25.31377742       1.26835625      -0.19296363      -0.02507359      -0.07063031      -0.41408461      -0.36114770       0.09730419
H       21.54520359      25.79314365       2.89208643       0.16860788       0.07080117      -0.25283311      -0.02622982      -0.22859801      -0.54497290
H       23.48748549      24.38649064       2.69212170       0.03765167       0.00839964      -0.13559723       0.18641990      -0.05790929      -0.10778663
H       24.31294225      26.38753252       1.54319004       0.10506155       0.09254117       0.05596332      -0.56629622      -0.11273096      -0.34601858
H       22.72595382      26.34981467       0.52212174      -0.02801774       0.23312705       0.06850741       0.41683280       0.64439768       0.48971099
C       18.81669636      23.64831220      19.29990644      -0.49533859      -0.30233237      -0.18685847      -0.15851963       1.28685176       0.17292129
C       18.18390403      24.13119448      20.59030492      -0.84116363      -0.21809941       0.52357440      -1.11149776      -1.03677547       0.37354138
C       18.34700370      23.20231069      21.81294022       0.14048875      -0.12787766      -0.31955749       0.03551614       0.60156953      -0.97055358
O       17.07594572      22.49058332      21.80033502      -0.03174303      -0.19234963      -0.53696802       0.72638977      -0.01107469       0.55023825
C       16.18017272      23.17802727      21.10506888       0.96370789      -0.18476521      -0.31069232      -2.21653414       0.97180194      -0.60424054
O       14.97909085      22.94054310      21.10613197       0.22583481      -0.13248069       0.47752198       1.70116484      -0.06253313       0.01320126
O       16.69708033      24.21881517      20.39595252      -0.40690268      -0.03520014       0.42224108       1.23364854      -1.36185884       1.33800089
H       19.85558087      23.49560927      19.54583355       0.02961592      -0.03485740       0.16013923       0.63268411       0.09204036      -0.23824482
H       18.68081552      24.53668961      18.66039224      -0.14855715       0.02959663      -0.00023883       0.47285506      -0.74222422      -0.44715115
H       18.46222491      22.73533913      18.80637967       0.05550431      -0.07627900       0.05744045      -0.42168385       0.27209640       0.49777225
H       18.51134752      25.09563114      20.92638239       0.15990152      -0.02315650      -0.09391332       0.29078606       0.66146886      -0.52409130
H       18.52612801      23.77880766      22.73835255       0.06314871      -0.05660567       0.03765184      -0.64513969      -0.47421947      -0.27259961
H       19.21352043      22.55631968      21.63448884      -0.06891505       0.12096371      -0.10182529      -0.51062292      -0.39044243       0.20569286
C        6.80645083      13.69384139       9.37304553       0.70723763      -0.30156394       0.40715316      -0.66336858      -1.35476398      -1.05092597
C        7.11620142      14.78261740       8.37281765       0.19040981       0.31078911       0.29650471       0.48365137      -0.32649297       0.53769600
C        6.96804817      14.34725334       6.92707319      -0.20876918       0.20765462      -0.12724797      -0.14817750      -1.38125753      -0.54712403
O        8.30381856      13.84106138       6.56241507       0.82653575      -0.33537920      -0.07997125      -1.30259264       1.46230721       0.50473142
C        9.17070106      14.34690684       7.44738783       0.85863272      -0.20791736      -0.74937886       0.69368774      -0.11141148      -0.70531929
O       10.35679593      14.21539868       7.22137555      -0.70974891       0.15860850      -0.24113651      -0.09236708       0.58250147       1.16120636
O        8.60490611      14.95658834       8.48086163      -0.30956190      -0.09739896      -0.04297839      -0.59903079       0.21536866      -0.87225258
H        7.26151321      13.86884615      10.32648093      -0.00804958       0.00217924       0.11985326      -0.00567039       0.23241611       0.43324801
H        7.18470284      12.73100925       8.99128384       0.12136670      -0.22111567      -0.06313133       0.45787910       0.33573461       0.05894049
H        5.74476429      13.42584934       9.44480725       0.02965836      -0.10778785      -0.11887457      -0.07437295       0.74385530       0.23612317
H        6.58467107      15.72100596       8.59811104       0.03073205      -0.14217668      -0.27992628       0.65036130      -0.14313154      -0.13995308
H        6.52233137      15.05989823       6.23080356       0.02103445      -0.10699882       0.15600300       0.94993114       0.49237236       0.01849644
H        6.37580526      13.45705537       6.78741738       0.01560083      -0.11971828       0.05931040      -0.59763998      -0.28749880       0.51112390
C       23.89250532      27.52707966      20.86224705       1.17006576       0.19557923       1.31746586       0.39386839      -1.06629193      -0.04676354
C       22.55545548      26.85188736      20.85468779       0.08821599      -0.42750938      -0.00652325       0.90045005      -1.42045653      -2.44555950
C       22.08910759      26.40374464      19.41907378      -0.15321251      -0.17450290       0.28228530      -0.76185149       0.32128510       1.09982777
O       20.62804216      26.57733482      19.60763319       0.64397697      -0.34165424       0.53612181       0.41553524      -0.94165558      -1.76038384
C       20.41022801      27.39993394      20.57364071      -0.08623309      -0.51124123      -0.56601195      -3.27887535       2.65700078       2.17924166
O       19.31655731      27.91441963      20.89785891       0.27355151       0.04997124       0.52738294       2.51405048      -1.48256481      -1.23887181
O       21.51935839      27.72885702      21.23013353      -0.46878605       0.05089579       0.51915946       0.17497918       0.26833555       0.46477735
H       24.69094592      26.83165320      20.42387081      -0.21484898       0.20805127      -0.25105506      -1.13129532       1.17703629       0.35331038
H       24.08741884      27.60896583      21.91161918      -0.27133098      -0.08110724      -0.40910565       0.73886192       0.57297832       0.59372574
H       23.80065183      28.50854153      20.41256771       0.22881842       0.15348513      -0.27166332       0.47787851       0.01809312      -0.24564469
H       22.59517606      25.98380119      21.49753845      -0.02678232       0.21795876       0.09111386      -0.40525717      -0.27418417       0.40815702
H       22.21370523      25.35980435      19.10599888      -0.10827169      -0.24498997       0.08328449       0.26928857       0.33305696       0.45879108
H       22.45242967      27.09151388      18.64254652      -0.10676645       0.03122731      -0.24191216      -0.31097347      -0.09380439       0.12578771
C        3.53489546       0.38483386      27.30211794      -1.08343386       0.67434223      -0.10271731      -1.13735962      -0.12507124      -1.15566254
C        1.99460816       0.63183237      27.09976509      -0.77168731       0.91524648      -1.78856108       1.36708760      -1.96116424      -0.75693399
C        1.12760385      -0.50735732      27.72566735       0.39206907      -0.72928916      -1.48586528      -0.22081946       0.93408048      -2.88981175
O        0.97246449      -1.46924312      26.49605530      -0.11030793       0.43101896       0.04225577       0.64544040       2.92743063       0.22859098
C        1.34048705      -0.73914505      25.35582053      -1.20277817      -0.26350079       0.71345640      -1.15642190      -1.33627033       1.96883965
O        1.24716465      -1.17594052      24.24003296       0.94307180       0.30002607       0.23258559       0.04060178       0.77833629       0.24622238
O        1.79883320       0.45802446      25.68647621       0.47162847       1.47477035       0.68801326      -0.47963983      -0.19101232      -1.29763150
H        3.66615243       0.63078529      28.27649776       0.02178933      -0.13418972      -0.06567223       0.66591388       0.84206772       3.42645550
H        4.14816625       1.11198705      26.76618226      -0.00500214       0.16118392      -0.38985387      -0.16975065      -0.46054602      -0.40712297
H        3.90956996      -0.67745776      27.24970709       0.05344757      -0.38533083       0.06555098      -0.92118818       1.42326558      -0.52546901
H        1.59871610       1.63653710      27.26647642       0.06064449      -0.52736681      -0.60190774       0.44925365      -0.26894227       0.67444229
H        0.18197930      -0.01136905      28.07256425      -0.27942727       0.87187977       0.25052111       0.57524085      -1.36259377      -0.39180118
H        1.71692737      -1.06846839      28.39861832       0.23782243       0.04743474       0.63038133      -0.01082860      -0.57220173       1.05608010
C       16.04029368      20.40293868      19.03949213       0.42605282      -0.40007441      -0.22510780       0.84247464       1.33420444      -1.75445271
C       16.00087926      18.93285224      19.05606929       0.68923582      -0.41363795       0.51213220       0.02782589      -1.98389733      -0.02540693
C       16.90710363      18.20227743      18.05704023      -0.67600451       0.02263243      -0.81876445       1.59016204       0.50574136       0.14847137
O       16.09270045      17.29307055      17.35102606       0.19911811      -0.63100896       0.05544991      -0.32716629      -0.02581190       0.08850077
C       14.81876353      17.37831019      17.77694498       0.06820694      -0.11279341      -0.09976959       2.77622080       1.39360261       0.52647829
O       13.99047324      16.65624769      17.35508639      -0.16306382      -0.23347065       0.07341501      -2.15223503      -0.88484442      -0.30338854
O       14.69038858      18.34715750      18.70512889       0.07652450       1.16920747       0.60123429      -0.23009413       0.26221824      -0.11111540
H       15.51813258      20.85977187      19.84619728      -0.27080870       0.10361509      -0.17836301      -0.24728452       0.22963604       0.90103549
H       15.61791924      20.86756580      18.11517468      -0.15552145      -0.05609959       0.27140587       0.50650603      -0.78015155       0.48108304
H       17.13323353      20.67609646      19.07363176      -0.04143274      -0.00470814       0.04195105      -1.11217666      -0.09349945       0.16065763
H       16.28444387      18.56286847      20.04490376      -0.22050997       0.07577779       0.04417588      -0.49973068      -0.01073138       0.11292693
H       17.74442044      17.66026878      18.56244506      -0.17696357       0.12509095       0.25072809      -0.83295959       0.26275539      -0.32810649
H       17.37281918      18.90779234      17.36147368       0.02910981      -0.02395614       0.09231625      -0.18424919      -0.08352809      -0.14080006
C       20.74992077      30.92925133      20.35035979       0.19454280      -1.21542819      -0.86657971      -3.28682756       1.98239744       0.84480786
C       19.36856497      31.54865099      20.91238275       0.41984670       0.50895513      -0.59479377       1.15480065       0.67255813       1.64153993
C       18.12947506      30.73507819      20.52023204       0.05125806       0.69482482       0.96585105       1.06074250       0.14403214      -2.20477891
O       17.16973253      31.73266161      20.00910115      -2.40217687      -1.85928945      -1.58770156       2.04551792       1.03672433       0.77990699
C       17.88893892      32.95936287      19.83956383       0.86483213      -0.01396770       1.20028843      -0.07561620      -2.08878088       0.11227012
O       17.36365986      33.85257786      19.24044534      -0.37055569      -0.24285204       0.55971128       0.52711111      -0.12120289       0.74216080
O       19.15669653      32.89228470      20.36311766       1.68222288       0.28965691       0.40152465      -2.42733407      -0.28451875      -1.62685025
H       20.60281388      31.02668738      19.25346970       0.23734667       0.63069896       0.05383348       0.60652745      -0.95701718       0.73298424
H       20.84473566      30.01111203      20.90476069      -0.07859462       0.21882303       0.34587527       0.06315345      -0.84077525      -0.77774543
H       21.51762178      31.56525405      20.71603921       0.29706950      -0.07243125      -0.36475658       0.92053860       0.73924232      -0.01871268
H       19.36434251      31.86677596      22.03922330      -0.21664693       0.21500708       0.72910379       0.26316145      -1.42319405      -1.80029035
H       17.82682674      30.07733351      21.28854937       0.21388059      -0.13555164      -0.13946765      -1.03951526       0.12038752       1.14148641
H       18.34675948      29.99685403      19.69658338       0.23148225       0.15359492       0.03934754      -0.00599577       1.18395829       0.44524720
C       16.49260033       4.36469178      21.23609795       0.08213940       0.60360198      -0.60596958      -0.43516549      -0.77795291       1.07856154
C       15.73918266       5.67000661      21.43817745       0.33771091       0.65962324       0.03769411       0.59208632       0.03064172       1.64453340
C       16.54897061       6.78066628      22.23466993      -0.16162246      -0.63321573       0.04419960      -1.21022010      -1.01084995      -1.21942925
O       15.67066345       7.11723834      23.29281149      -0.68663384       0.11857581       0.41592609      -1.85978794       0.84874767       0.77212632
C       14.56366142       6.36085239      23.31244914      -0.05855179      -0.12117793       0.56616938       0.17061809      -1.75689745       0.44548750
O       13.71098633       6.30980490      24.18821220       0.89864668      -0.38963494      -1.63735822       1.41720557       0.75229722      -1.37144327
O       14.60138093       5.44670681      22.30919476      -1.41210060      -0.72904965       0.03627178      -0.07972933       0.68429852       0.53318423
H       17.24740433       4.63783132      20.55086594      -0.03133399       0.23516950      -0.08954408       1.18026745       0.01251858      -0.83711225
H       15.89046896       3.57875315      20.70886356       0.09954929       0.15132413      -0.03728918       0.31249988       0.72267586       0.65848869
H       16.99320649       3.96751348      22.20106489       0.13226806      -0.13630903       0.04338201      -1.03435850       0.73460692      -1.42595422
H       15.36297049       6.13687463      20.53756750      -0.22974741      -0.06808563      -0.12009688      -0.06254668      -0.27262840      -0.42676342
H       16.69379435       7.60772021      21.54483074       0.10464175      -0.02118171       0.06907425       0.24939534       0.28375953       0.50271410
H       17.41479294       6.45192523      22.76144578      -0.12283429      -0.20535818       0.09085109       1.03390956      -0.42344153      -0.30053416
C       10.74643541      19.96250429      -4.35437191       0.11248702      -0.13183097       0.00378674       0.78706437      -1.55168867       0.07651752
C       10.29955387      20.78036426      -3.19526285      -0.53213651       0.04555799       0.28182465       0.17661549       0.62030613       0.30586785
C        8.81290960      20.94104426      -2.96451991      -0.14137391      -0.47095040       0.55585842      -1.05436492       0.95098990       1.55027640
O        8.56883974      22.41657635      -2.90310658       0.90044888      -0.78187074      -0.73136486       1.03280735      -1.24106538      -0.07421658
C        9.71349970      23.01712113      -3.25890956      -0.05639362       0.58796945      -0.16531503      -0.50451916      -0.78860652       0.90283281
O        9.83806301      24.20512377      -3.28157730       0.08743396       0.53841487      -0.36499473       0.31362170       0.53150702      -0.57125586
O       10.68508232      22.13193894      -3.49260589       0.27653936       0.08279404       0.43792028       0.59045285       1.09144115      -0.05973705
H       10.25154942      20.18616905      -5.29003320      -0.03176207      -0.10303039      -0.07779927      -0.47598940       0.08005130      -0.07438872
H       10.59287274      18.91053926      -4.06526091      -0.23053319      -0.07740736      -0.25437548      -0.04348792       0.22213551      -0.51160932
H       11.83165782      20.03257926      -4.56754311      -0.09678192       0.24201715       0.00566128      -0.46005705       0.23834291       0.50959373
H       10.78628212      20.47291670      -2.24913066       0.12999600      -0.14106693       0.10737377      -0.05472660       0.19626558      -0.73246586
H        8.50088273      20.55308176      -1.97467012      -0.23156636       0.05874662       0.10875627       0.08991142       0.06623098      -0.72285122
H        8.17151902      20.62613582      -3.74539154       0.07308006       0.18516793       0.01504787      -0.46965182      -0.74687290      -0.80365455
C       18.40973981      11.99106942      -0.43692417       0.30844725       0.33680210      -0.37327324      -0.69037431      -1.78013992       0.27482721
C       17.38891421      12.95017141       0.15676545       0.45115030      -0.82401708      -0.78984553       1.76146126       1.35919666       0.77365822
C       16.69089489      12.50428795       1.43945393      -0.47851698       1.07496720       0.84603545      -0.28335983       1.12257516      -0.62538546
O       15.57222826      11.76495699       0.88992299       0.24906463       0.14901925      -0.61157963       0.03903952       0.43319252      -0.04055819
C       15.32245504      12.25623209      -0.35248833      -0.66193448      -0.24159706      -0.22576461       1.77168632      -0.38992155       1.57892537
O       14.40002207      11.92591482      -0.99477848      -0.71758261      -0.78029702      -0.22463539      -1.97003138      -0.31706592      -1.29506671
O       16.29653018      13.07165419      -0.75969818      -0.31766252      -0.00756360      -0.37383285      -0.34076998       0.35798755      -0.18253992
H       19.25892203      11.72730754       0.25510717      -0.00351428       0.07107328       0.02039156      -0.82824951       0.53163159      -0.80946350
H       18.68216069      12.42786202      -1.36858547      -0.00522918       0.09603120      -0.02425599       1.00826585       0.50523752      -0.42094311
H       17.93066329      11.03769537      -0.83108556      -0.01856891       0.24195628       0.05034579       0.18883948       0.75335479       1.01651704
H       17.89421816      13.97232636       0.27425539      -0.21024748       0.07729344       0.02739834      -0.94909835      -1.33427262      -0.08535074
H       16.32017030      13.37999120       2.03859129      -0.07424845      -0.01632645       0.16389910       0.31103098      -0.92324018      -0.45947328
H       17.33380121      11.85057636       1.99489648      -0.03642584      -0.04188538       0.04753139       0.09262139      -0.33757234       0.53761697
C        7.93435623      26.63625749      15.76257465      -0.12502142       0.90447936       0.16444680       1.36198938      -0.77625841      -0.38019499
C        8.20656373      25.55823895      14.69713461       0.75290888      -0.63402839       0.34626295      -0.02639839       0.02342279      -0.12849605
C        9.65152642      25.01853886      14.82420369      -0.33007460       0.67286223      -0.06715248      -0.67437428       0.74750793      -2.23911166
O       10.28738530      25.44172750      13.52336383       0.40050376      -0.35883057       0.58708940      -0.74923539      -0.44998223       0.62920779
C        9.42134011      26.18910977      12.82348832      -0.37763108       1.15519040       0.29394385       0.16496065       0.05606043       0.47445220
O        9.69208187      26.76993555      11.80238243      -0.03303314       0.15297887       0.44411307      -0.19875719      -0.39489871       0.09514049
O        8.23161382      26.25409530      13.43253628      -0.06470409       0.40265184      -0.04616311      -0.14578050       0.18249401      -0.46329001
H        7.07286855      27.20324176      15.51004543       0.06436697       0.18164653       0.06839624      -0.92655170       0.36400077      -0.32994568
H        8.80133715      27.35556872      15.68904953      -0.19834230      -0.07364479      -0.07866772      -0.79410124      -0.87809128       0.51935357
H        7.79654183      26.16328130      16.75207736      -0.08434380       0.14662987       0.02062124       0.35851407       0.41467428      -0.29832897
H        7.43440652      24.75080696      14.58496958       0.07506588      -0.11565584      -0.04202384       0.67845929       0.75158697       0.42645204
H        9.72453211      23.95321271      14.91828592      -0.24337691       0.04347690       0.02370189       0.26052070      -0.37359568       0.06709556
H       10.16691064      25.59876763      15.53365120      -0.17121481       0.15179014      -0.01809741       0.80477673       0.18304697       1.18503773
C        6.21048787      18.56651935      21.30219313       0.46561916       0.20861640       0.27096493       2.11755848       0.02163385      -0.25227737
C        6.22116396      19.57028395      22.42269677       0.50942982      -0.71099910       0.94128831      -0.51609063       0.80833191       0.45343655
C        5.12582721      19.50646762      23.50737628       0.09503146       0.01780027      -0.04854938       0.28055510       1.40502536      -1.20482695
O        4.45965596      20.80297686      23.38540837       0.02530379       0.00460514       0.22337047      -0.12927672       0.16568233      -0.30871004
C        4.94226403      21.51991314      22.34442273       0.30969013       0.43346216      -0.11578703      -1.08183026       1.71405911      -0.70085454
O        4.48514804      22.60935237      21.92768417      -0.45535328      -0.47852532      -0.54841382       1.66501474      -3.47458935       1.50807452
O        5.97956713      20.87584650      21.79329316      -0.37617935       0.23008300      -0.51652345      -0.01291391       0.04694464       0.22856952
H        5.27507646      18.34863584      20.80883004       0.14536358      -0.12711916       0.05617255      -0.45667076       0.20942411       0.15847076
H        6.65548794      17.64100327      21.69994993       0.25998604      -0.07558054       0.00100383      -0.16059913       0.08073330      -0.33886793
H        6.94839306      18.99672368      20.54704014      -0.09511209       0.11464564      -0.06958147      -0.88096386      -0.80544257       0.70886558
H        7.16755702      19.56244357      22.98304537       0.03494122      -0.02864073       0.19625626       0.16803125       0.32269844      -0.83434987
H        5.52255205      19.43469343      24.50928590      -0.13686111      -0.18177124       0.04699576      -0.05577493      -0.16894771       0.24133882
H        4.44972990      18.73303527      23.23458730       0.01712434      -0.13324436       0.24894105      -0.91224277      -0.61769783       0.27664647
C       26.82369367      20.55727103      20.88380250       0.10457075       0.69750543      -0.37032900       0.71393609      -0.15757039       1.03485012
C       25.82717482      21.59891133      20.56687938      -0.35147822      -0.74958433      -0.58704841      -0.00581132      -0.16267474       1.49224627
C       25.33889181      21.61460194      19.18787090       0.26108688       0.04937641      -0.01101110      -1.21276879      -1.35289216      -1.33222115
O       24.88019275      22.99212462      19.11226607       0.09170467       0.06862005       0.46318379       1.09926927       0.58445472      -0.59241486
C       25.81525538      23.74228126      19.78653616      -1.66793995      -0.19104020       0.27931439      -1.05904889       0.09110829      -0.27191511
O       25.93460509      24.95174886      19.64306545       0.13827057      -0.87650502       0.57034797       0.17683908      -2.28078413       0.60661536
O       26.45986118      22.91105835      20.65179897       0.31768582       0.80175676       0.08591480      -0.36532611       1.56310487      -0.54953140
H       27.74976182      20.61163643      20.33007283       0.17688470       0.03812054      -0.03783045       0.20369375       0.19817293      -0.34585729
H       26.34748865      19.64411471      20.65713187       0.01352290       0.12483538      -0.00857142      -0.44447532      -1.42710865      -0.41629851
H       27.08661964      20.46685265      21.95175296       0.12043161      -0.24409646      -0.04322315      -0.14942260       0.42770356      -0.36861607
H       24.95968140      21.50578360      21.25103451      -0.00984633       0.22601281      -0.25123667       0.70149076       0.63506961      -0.19144665
H       24.47561959      20.86432502      18.98223070      -0.00098245       0.01532593       0.26202344       1.53082550       1.58521986       0.35466474
H       26.21364434      21.40460644      18.51584303       0.09430146      -0.29984424       0.31586335      -0.94905198       0.49670696       0.01789354
C       18.93258556       6.03009722       5.84840656       0.12256921       1.08345280      -0.28801831       0.63295537      -0.26897731      -3.07439637
C       19.33287668       4.89430766       4.83475758       1.22686976      -0.33358141      -0.02524898      -0.06429777       1.86364543       1.18396652
C       20.39673818       3.98061748       5.40679641       0.81320932      -0.42731037      -0.23580560      -0.50512981      -1.72220492      -0.33471191
O       21.52313823       4.19203306       4.57714485       1.03911443       0.33946885       0.26719648       0.73142087      -0.20483150      -0.72118318
C       21.24480426       5.03424621       3.58156448       0.14507575      -0.44679563       0.49818694      -1.45553982      -0.63031793       1.06073093
O       21.96871316       5.34445309       2.70978405      -0.48271727       0.81040793       0.78706727       1.62485552       0.48590195      -1.39101970
O       19.97757880       5.47027832       3.65870060       0.27228223       0.68962023      -0.33605405      -0.14022267      -0.02425386       0.75583190
H       18.35345465       5.63832254       6.65239698      -0.22986840      -0.13403114       0.19068952      -0.36855784      -0.18976079       0.56015599
H       18.33741442       6.71518697       5.19770671       0.15714791       0.12942256       0.03489573       0.20015915      -0.13196559       0.99212009
H       19.87110334       6.48843874       6.16498535      -0.33432052       0.00629692       0.06299515      -0.20821418       0.13494904       0.22058946
H       18.46743875       4.43527371       4.41083686       0.20031424      -0.03895589      -0.17515816      -0.62274170      -0.68014026       0.18493491
H       20.06619411       2.89978920       5.37519804      -0.02727263       0.04534828      -0.06327575       0.59314072       0.98240584      -0.04733242
H       20.77037125       4.21001504       6.38312117       0.04245046       0.31869470      -0.36585950      -0.44965500       0.22840013       0.80297774
C       29.48745938      33.47493712       2.49242853       0.16505220      -0.52781660       0.28529328       0.86130714      -0.60772139       0.89606488
C       30.56012676      34.37599278       1.91246502       0.30489604       0.50697912      -0.06861122      -1.59750628       0.06900674      -2.04086733
C       31.87798695      33.69544981       1.56032637       0.32862642       0.03472230       1.07937622       1.15927362      -0.35577244       0.22162893
O       32.78072874      34.23674934       2.51832907      -0.69974015       0.37104302       0.26972607      -0.70199096       1.62105095       1.52471614
C       32.16663645      35.34722971       3.17835655      -0.74977700       0.72670421       0.43809613       4.29395199      -2.17167735      -0.52746946
O       32.87352747      36.02844209       3.87393686      -0.26584885      -0.88526360       0.30666988      -1.15306044       0.19751787       0.07687941
O       30.92014504      35.39576186       2.90624375      -0.36653522      -0.10810868      -0.28461367      -1.84686661       0.21903729      -0.83734125
H       30.01818101      32.67786532       3.04188596      -0.01825527      -0.48879151      -0.00277474      -0.47321692       0.09086476       0.00099766
H       28.86785532      33.00675332       1.75307131      -0.43091164      -0.04385853      -0.01613827       0.03289137      -0.23003924      -0.67791671
H       28.78734153      33.94731831       3.17275518      -0.33697276       0.03590304       0.00093816       0.18894626       0.46406063       0.21766350
H       30.15278020      34.84227143       0.95318783       0.21103464       0.00522441       0.25237876       0.63974315       0.03954684       1.53294790
H       32.35488178      33.92202176       0.60672925       0.47561688       0.01304824       0.21606611      -0.75016290       0.32593480      -0.30585247
H       31.95463805      32.60104455       1.64802420       0.04711659      -0.12887330      -0.21289800      -0.70872343       0.28813714       0.14890806
C       28.50809280      18.11171831      18.11094596      -0.49160887      -1.20566948       0.15127537       0.32775888       1.20767617       0.36355627
C       28.45535106      19.37559748      17.27344873      -0.25565338       0.03183614       0.86028518       0.12795079      -0.17304492       0.48895186
C       27.48667323      19.35950476      16.10276991       1.06049367      -0.26112909      -0.56614596      -1.31019127       1.22887111       0.28646231
O       28.22231551      20.04610151      15.12434586       0.07047744      -0.01254791      -0.61176349       0.92878634       0.35118061      -1.94886327
C       29.53470082      19.94971594      15.36088759       0.23428642      -0.30049669      -0.71222498      -1.53686452      -0.64179307       1.43819189
O       30.40569331      20.09455252      14.58808361       0.75574569       0.07999108      -0.24673591       1.58845568       0.71451712      -1.69234991
O       29.73963028      19.65318527      16.64815315      -0.17325146      -0.19598123      -0.14575376      -0.03710452      -0.52486676       0.35678551
H       28.97091354      17.30539644      17.56997344       0.13669668       0.01953175       0.05609298      -0.22194664      -0.45520440      -0.45594943
H       27.47756499      17.92734012      18.39515618       0.08248272       0.04812781      -0.01608766      -0.09428741      -0.48955151       0.10730356
H       29.09371385      18.25386532      19.02082706      -0.04125287      -0.11032815      -0.00370639      -0.14733234       0.16419974      -0.07168701
H       28.23695750      20.28190140      17.83948532      -0.04487495       0.04922471      -0.06443741       0.00727189      -0.23682983       0.43681473
H       26.65516357      20.07006425      16.27996000       0.12405388      -0.02801797      -0.02168053       0.02039481      -0.90297794       0.26473099
H       27.13272501      18.40605217      15.70100356       0.01812594       0.08705115      -0.10489282       0.38095355       0.19702068       0.38723215
C       18.77004501      18.23326178       2.04057044       0.47678043      -0.28823425      -0.72223833      -0.21735977      -0.15353362      -0.36312324
C       19.13955122      17.63382075       0.70096795       0.00397132      -0.11155577       0.66998918      -1.63796842      -1.50188017       1.22180986
C       20.58606891      17.64054920       0.45156162      -0.20629742       0.71744604      -0.10496248       1.96042728       2.17964625      -0.80980599
O       20.66762828      18.01335433      -0.97913167       0.19937489      -0.69819748       0.13937954       1.05115938      -0.53843153       0.15853599
C       19.54707449      18.59570827      -1.32062127      -0.01578153      -0.39955087      -0.13047559      -1.37757432       1.03755713      -1.12972450
O       19.32118021      19.23756596      -2.34273116      -0.54182550       1.00536618      -0.38421639       0.68824530      -1.05503964       1.19862986
O       18.61131537      18.43567043      -0.37537454      -1.05513255       0.54666175       0.27167474      -0.17481151       0.09075209       0.12606266
H       19.14172678      19.28184911       2.05700869       0.07283686      -0.09635996       0.01348042      -0.12855487      -0.76105958       0.59636039
H       19.01678899      17.53048881       2.85339182       0.06894699      -0.05526960      -0.01974059       0.84745979       0.66790867      -0.22895962
H       17.70085411      18.17853507       2.14629935      -0.11724252      -0.20040477      -0.16695169      -0.73370481       0.46647939      -0.28861532
H       18.72218821      16.58837833       0.63204763       0.02706186       0.09300809      -0.04890242       0.26600188       1.21665561      -0.08738857
H       21.13812678      16.74206989       0.64266243      -0.03276871      -0.01114241      -0.09909166       0.03063994      -0.57710892      -0.17069958
H       21.12787270      18.49518220       0.94699176       0.01966070       0.13199822       0.12569235      -0.62988740      -0.87957537      -0.10557393
C        7.76516446      13.10709629      13.11718190      -0.90358840       0.11545647       0.02312212      -0.78091973       1.39729989       1.31497204
C        8.76378381      12.20139214      12.55686594      -0.02367861      -0.58895520      -0.49065171       0.74179125      -0.85264939      -0.70811880
C       10.12249297      12.26391594      13.23629342       0.27653860       0.71763317      -0.46004901       0.22632891       0.80349368       0.38610655
O       10.80958195      13.26167479      12.40753792       0.44549933       0.05003421       0.54123008       0.32147256      -0.69379801       0.48856205
C       10.26078904      13.27016079      11.20587875       0.45963407       0.25670861      -0.39812763      -0.57046223      -0.04177819      -1.20023108
O       10.67456042      13.83824182      10.22694583      -0.53649729      -0.26269615       0.32241951       0.45079321       0.07543893       0.47830015
O        9.12027357      12.56353951      11.14209838      -0.47009047      -0.23879737      -0.24249982       0.05096365      -0.29032019       1.83216822
H        8.13878806      14.12378007      13.28827288       0.09996383       0.07336458      -0.19405105       0.34642670      -0.07220652      -0.14475439
H        7.50754650      12.75017981      14.14113711      -0.10677272       0.16281692       0.02443425      -0.11740743      -0.02805313      -0.76248229
H        6.89736698      13.22695241      12.48538424       0.06464826       0.23860922       0.11692297      -0.44113693      -0.36453396       0.00823688
H        8.38491153      11.18453338      12.53156679       0.24195326      -0.05814890       0.05935817       0.02533553       0.03962965      -0.16705383
H       10.59504294      11.28985785      13.23978396      -0.00170314       0.07442523      -0.09388207       0.45626307      -0.02507252      -0.58017308
H       10.21240507      12.62474145      14.28635229      -0.02490671       0.22100377      -0.12526767      -0.73440009      -0.07115895      -0.80863065
C       29.35006439       5.40535856      13.46536852      -0.45316055       0.19725117      -0.44800854      -0.14654304       0.13787724       0.11327256
C       27.84889872       5.43854558      13.45402197      -0.80700704      -0.79079072       0.27113732      -0.27069107      -1.85826373       1.71716213
C       27.24639299       4.78594861      14.72298878       0.65339710      -0.82588515       0.71996350       1.20975697      -2.00400734      -1.66113734
O       26.18488782       3.94359145      14.22587392       0.26828422       0.56520041       0.18845641       0.16210574      -0.09042447      -1.22575450
C       26.37382033       3.72974582      12.90051305      -0.75743036      -0.98049867       0.17705424      -0.19263420       1.41312456       0.69045120
O       25.64081698       3.04774698      12.23525998      -0.13243330      -0.22552423      -0.87039472       1.08830369       0.16432554       0.12285325
O       27.41505223       4.51181799      12.42997294      -0.80445560      -0.63247431       0.98043309      -1.56707025      -0.81004381      -0.07182984
H       29.66704115       5.95352378      14.34493838      -0.03599697       0.05074114      -0.22012995       0.36958951      -0.08298795       0.22737400
H       29.66807112       5.97242860      12.62014411       0.16424414       0.09243885      -0.08622190       0.66619831       0.32652110      -0.73717958
H       29.77645233       4.37547871      13.40598871      -0.30667845      -0.04388309       0.02057759      -0.55438924       0.72703373       0.18826710
H       27.39245434       6.40729879      13.38579202       0.08581325      -0.05826082       0.08802972       0.05094847       0.59207666      -0.90604979
H       26.85950754       5.39446613      15.46319192       0.14264097       0.31668297      -0.15796581      -0.71811700       1.34682167       1.20985913
H       27.99549754       4.11152509      15.13538727       0.19613323      -0.09106513       0.09326782      -0.01672956       0.01075740       0.31482992
C       11.37932482      31.14498792      -4.83152154      -0.27327819       0.61340819       0.13390677       0.37181222       2.29863048       1.31415868
C       12.51249342      30.59899370      -5.63468197       0.13815356      -0.10402918       0.14724929       1.49271786       0.36349857      -0.38395843
C       13.90671179      31.17781588      -5.31665853       0.13418542       0.16022071       0.30105484      -1.18250430      -0.19446571       1.54331779
O       14.52282634      31.42369325      -6.54956441       0.53468610       0.24395369      -0.95056187       0.27931440       0.71937639      -1.10384691
C       13.58880301      31.41715719      -7.50514364       0.45206357      -0.14558193       0.09106308       0.31656942      -0.57014209      -1.30429745
O       13.77613290      31.67173655      -8.68190352       0.71893560      -0.58251753       0.41851468      -0.22275414       0.13861062       1.53579819
O       12.44752438      30.94366277      -7.03868913      -0.62072458      -1.28777591       0.59131081      -1.12316477       0.07770079      -0.38719359
H       10.43743408      30.75660819      -5.05533461      -0.12859048      -0.05797854      -0.37392007      -1.44540930      -1.26634371      -0.58907020
H       11.17635583      32.26586999      -4.89761352      -0.03331920      -0.35351329       0.16676947       0.98246992      -1.23876941      -0.17627575
H       11.55732421      30.95701164      -3.74958146      -0.09408872      -0.09745621      -0.09752431       0.07914871      -0.03342110      -0.59673804
H       12.62302627      29.51942227      -5.55822967      -0.21072412      -0.06821770       0.00249668      -0.45817947      -0.18224382      -0.10220664
H       14.49150197      30.47028768      -4.77993684       0.01655125       0.26592551      -0.19689340       0.56818837      -0.50417900       0.51598030
H       13.76711132      32.07343640      -4.73296322       0.20547360      -0.02879811      -0.03759670       0.33465326       0.44976035      -0.03319299
C        5.41696327      10.65511657      16.23068393       0.24339779      -0.03170288      -0.01202313      -0.47049084       2.31504917      -2.17354298
C        5.39573718       9.40070230      16.99093060      -0.53440135       0.83447148       1.35398515       1.77166247      -1.81615078      -0.99136031
C        4.67109358       8.19086905      16.29512870       0.44222785       0.01500398      -0.40499343      -1.16159475       2.70238352      -0.66114402
O        3.82561655       7.71094877      17.31763475       0.08528648       0.17931793       0.16823167      -0.30865532       0.50475055       1.77188873
C        3.87356605       8.58935450      18.40372291      -0.43155524      -0.05187415       0.12282462      -0.07227689      -1.96670461      -2.05380750
O        3.26151772       8.43475876      19.40293165       0.30494831      -0.59758128       0.44846519      -1.11052608      -0.55233884       1.21796668
O        4.69100461       9.56429026      18.18897501      -0.06441119      -0.42446549      -0.79940648      -0.30124682       1.44655180       0.58507407
H        5.76199977      11.57392752      16.72075406      -0.12673455      -0.02909569       0.03680832       0.06748521      -0.53346795       0.78996009
H        4.38096980      10.89870876      15.94561940      -0.08558897      -0.07274921      -0.01982844       0.19797389      -0.06246446      -0.05426595
H        5.98510029      10.72575182      15.26183145       0.05993057       0.30641896       0.03554856      -0.46859974      -1.01989400       0.87718320
H        6.36597735       9.07876479      17.33181150      -0.06513030      -0.08803511       0.04308504       0.66082466      -0.06862522      -0.17768748
H        5.25193335       7.42771572      15.84108790       0.14591300      -0.02378578      -0.11033013       0.83332819      -0.65623772       0.17194499
H        4.03188942       8.62176005      15.48193343      -0.22231043      -0.10448961       0.23967904       0.36460620      -0.38788199       0.49703559
C        0.33411319      25.65909896       8.27107591      -0.24834961      -0.83295810      -0.07294863      -0.96896702      -0.43888962       0.19122319
C       -1.06926677      25.32925524       7.68566263       0.50719606      -0.08150861      -0.64273551      -0.30354315      -1.23498142       1.21754038
C       -1.51913133      23.87934206       8.12439951      -0.07827944      -0.09724090      -0.09305474      -0.70210087       1.73290753      -1.22321403
O       -2.17254460      23.46248372       6.88175639       0.31630355       0.08444829      -1.31593030       0.05416294      -1.04519248       0.54772645
C       -1.61733746      24.07942457       5.85098524       0.29511092       0.20861652       0.01791682       0.58686233       0.23339269      -0.78080213
O       -1.61599515      23.70660014       4.70171852      -1.04256058       0.19070817       0.06612795      -0.51512289      -0.16263427       0.32154259
O       -1.02030654      25.20845772       6.21043146       0.09015284       0.54213298      -0.03715560       0.54162979       0.46439415       1.69615531
H        1.05029263      24.90060090       7.92949507      -0.25490123       0.24713209      -0.04358636      -0.23909907      -0.02625249      -0.01035500
H        0.37099498      25.65265314       9.40472776       0.13702719      -0.11930545       0.08876112      -0.39072713       0.07130371      -1.34237301
H        0.64855594      26.59882602       7.86852576      -0.03133021      -0.04363657      -0.31383563       0.25485948       0.63819033       0.08284729
H       -1.95371664      25.97950467       7.96635940      -0.09278236      -0.28217617      -0.13795253       1.40819144      -0.08551545      -0.48731774
H       -2.28470188      23.88320739       8.88459606       0.19627875       0.10099518      -0.03452293      -0.18597145       0.13977902       0.21726499
H       -0.71930848      23.23467747       8.44233136      -0.05959369       0.05530810       0.22903715       0.40038714      -0.35341063      -0.45421037
C       30.33734115      23.91561494      19.05922030      -0.12706662       0.21633137      -0.74479017      -0.86818033       0.51232374       2.38089323
C       30.05196920      22.82509842      18.10399772       0.10902613      -0.09667753      -0.87569310      -0.89074886      -0.98874182       0.23933129
C       30.55194721      23.18971288      16.73447508      -0.64428520       0.07358899      -0.52310926      -0.65828258      -1.27077353      -0.62816012
O       29.40740548      23.69987396      16.04788499      -0.11226204      -0.23684012       0.13227090      -0.34304875      -0.41181970       0.28207064
C       28.32178859      23.25319168      16.65450968      -0.21472142       0.37814147       0.23977745      -1.85357857      -0.47134686       1.38133419
O       27.20267053      23.33950598      16.20307418       1.24495420      -0.33372769      -0.11557707       1.11389506      -0.09395967       0.69450110
O       28.58635391      22.68434124      17.95410456      -0.06366995       0.28387945      -0.55310691       0.70622271       1.34589601      -3.13841891
H       29.70924035      23.81462025      19.98274783      -0.20134721       0.02435120       0.21865346       0.28746834      -0.06124225      -0.82597828
H       30.09120137      24.89961010      18.64888636       0.10228286       0.09666073       0.13692366       0.28143561      -0.08172549      -0.21867566
H       31.34036932      23.89469636      19.48317553      -0.09625141       0.07647438      -0.08298812       0.29841363       0.08699558      -0.44084343
H       30.38746067      21.82879266      18.38984853       0.10224690       0.31230267       0.43026027       0.23016667       0.19533370       0.31670329
H       30.94804627      22.35195143      16.15580663      -0.19070438      -0.08239167       0.09997165       0.07771750       0.15070257       0.03571640
H       31.21907625      23.97903151      16.82816088      -0.06810886      -0.21112963       0.24443126       1.48967469       1.31252122      -0.23288125
C        5.33818845      20.97234834      30.80727212      -0.07538680       0.47756162       0.63224982       1.20814347       0.26747462       0.40388036
C        4.59969878      19.69393032      31.10046623      -0.80447747      -1.11663237       0.08162779       2.06653857      -0.53305542       1.61005783
C        5.04803496      18.40525464      30.39419628       0.73799207      -0.06092864       0.15492113       2.04718447       1.02351093      -2.20497537
O        3.82724848      17.79650064      29.95160797      -0.39378078       0.67365860      -0.15100361      -0.63208753       0.96870947       0.49559459
C        2.82860116      18.70520600      30.16337934       1.48358883       0.15042441      -0.38567426       1.03430772      -1.06840777      -0.89535648
O        1.70984544      18.53643121      29.80263004      -0.73370942       1.09681832       0.12086412      -1.39555001      -0.49905536      -0.27130431
O        3.25083391      19.81429642      30.70024264       1.04692543       0.10555900      -0.27171526      -0.39549124       0.63288695       0.69192857
H        6.24100247      21.07766235      31.46619977      -0.05962635       0.16228540       0.01777823      -0.89439553      -0.18340386      -0.42056599
H        4.65484407      21.77382447      31.01878335       0.14592141      -0.18676088      -0.02811435      -0.17371868       0.62607265       0.34642631
H        5.71127590      21.15458474      29.80489067      -0.00203458      -0.19342123      -0.08380823      -0.19101831      -0.44971287      -0.50919127
H        4.71981797      19.58120567      32.20911010       0.28970577      -0.38472079      -0.00481451      -0.84015679      -0.16804071      -0.75696546
H        5.63805900      17.66029994      30.91441793       0.10611656      -0.14895826       0.26670777      -0.15877324       0.19640841       0.63411379
H        5.73992735      18.73913519      29.49472053      -0.40088988       0.31995030      -0.17738710      -1.59028232      -0.90454245       1.21091712
C       27.39907290      14.58499317      21.17375793       0.45351266      -0.65469785       0.06835861      -0.11704558      -1.76051724       0.62673670
C       26.38059979      14.33264582      20.12555143      -0.02428647      -0.57666612       0.82435446      -0.04829355      -2.28388619      -0.72835082
C       25.46871713      13.09483533      20.37301631       1.51788659       0.18276393       0.76138342      -0.78418422       0.39172548      -0.51901031
O       25.88802159      12.12749534      19.40312822      -0.27451445      -0.03688852       1.02541679       0.97020692      -0.29680651      -0.50405240
C       26.80336545      12.69582875      18.54093410      -0.29320455      -0.19119622      -0.52662328      -1.88771665      -3.16459107       0.09462804
O       27.28316456      12.11983736      17.59232911       0.80278005      -0.15993814       1.03134952      -0.27793863       0.22435632       0.46172196
O       27.00593878      13.88723814      18.87852615       0.61057213      -0.50022499      -0.40848678       1.72926068       3.95039988       0.30416489
H       27.83523276      15.52230769      21.05915558       0.12713146      -0.35932530      -0.26332582       0.76853460       1.79325390      -0.03978149
H       28.18866410      13.83124680      21.19381538      -0.15159830       0.20812963       0.24042289      -0.06661893      -0.14671007      -0.13954370
H       26.89896196      14.47406119      22.13147678       0.09050723       0.00524323       0.18840822      -0.03710955       0.33872172       0.30916345
H       25.90193952      15.22484705      19.82991096      -0.11382145      -0.02717733      -0.02214262      -1.02602077       0.92640942      -0.08000099
H       24.40710693      13.25599455      20.16591384       0.22432527      -0.21491398      -0.29898320       0.09280051       0.40182695       0.04279008
H       25.51897715      12.68638499      21.37167922       0.02489161      -0.10116078       0.11081462       0.46253324      -0.16156013       0.25967112
C       32.35754290       8.32463108      -5.66791017       2.21418311      -0.09905621      -0.41920689      -1.24131143      -2.02962279       0.56243569
C       32.83348046       9.11296904      -4.53547235       0.12546779       0.09013982      -1.25448231      -0.05159239       0.01001837       3.83191180
C       31.75492055      10.25292175      -4.05140122       0.32785715      -1.28354024       0.46937145      -0.31601667      -2.68496418      -1.01212454
O       32.51058391      11.40764924      -4.17341777       0.31383451       1.02369037      -0.43180942       1.07532108       1.78741658       0.12477416
C       33.77310217      11.18193987      -4.63927159       0.17247885       1.48012393      -0.79643286      -4.29134083      -3.79170871       1.00268877
O       34.57326134      11.96850953      -4.81777684      -0.75207231      -2.88873086       0.57306883       4.17912483       5.38156223      -0.75674856
O       33.98455645       9.91838026      -4.91014628      -0.35692574       0.78611274      -0.38496941      -0.94220918      -1.70188451       0.09347081
H       33.05133308       7.53798794      -5.93450894      -0.50207593       0.25110682      -0.19739338       0.34445274       0.29777962      -0.42994109
H       32.04877042       8.95666793      -6.47197720      -0.00083042      -0.15718955       0.19194693      -0.14449264       0.20392229      -0.65830952
H       31.47734319       7.72491119      -5.29209306      -0.10919227      -0.13159746       0.12816823       0.51724309       0.82203197      -0.34310585
H       33.17464799       8.42288824      -3.58547799      -0.00278673       0.05090043       0.51275195      -0.91824794       1.71639574      -2.42669725
H       31.38276666      10.09107835      -3.00356038      -0.18257662      -0.05747550       0.08098159       0.42696333       0.22860321      -1.10417902
H       30.89452168      10.28532944      -4.81291274       0.18557348      -0.25014905       0.05858209       1.16910028      -0.11133680       1.27873313
C       14.04883040      15.08650534      -2.84610188      -0.26684245       0.58549894       0.29111562       1.98907125       0.85940623      -1.23695028
C       12.91165192      14.94871744      -1.93762640      -0.62276450       0.00440344       1.17167759       0.04697273       1.55244398       1.51392233
C       13.32216543      15.07636573      -0.44598945       0.15324716       0.59386489       0.05843907      -1.12474537      -0.15620646       0.79665422
O       12.50769436      13.99996095       0.17301154      -0.22940761      -0.18493553      -0.22743769       0.98782885       0.70529884       0.21934588
C       11.94372050      13.27539045      -0.76672604      -0.23082982       0.34621515      -0.08083181      -1.08230352      -1.66809154      -0.24559221
O       11.19596394      12.32364734      -0.57925987      -0.76564749       0.26244125      -0.65325451       1.12757850       1.40933633      -0.23310895
O       12.26319861      13.71331695      -1.98947923       0.65623722       0.99541887      -0.01673844      -0.58829546      -1.09559584      -0.43583429
H       14.94807212      14.74924814      -2.34482771       0.18028100      -0.09194406      -0.02359193       0.44366071       0.25911251       0.16990294
H       14.19151426      16.11329987      -3.27721356       0.00530728       0.14116368      -0.03559824      -0.18826020      -0.59652287       0.92744541
H       14.06604252      14.52009032      -3.74989495      -0.05183294       0.01053547       0.14391838      -0.79931724      -0.86280406      -0.68947309
H       12.19903759      15.71934845      -2.15413593      -0.15609413      -0.02041874       0.02065898      -0.66850066       0.30750039      -0.16814370
H       13.01791238      15.97326722       0.09559431      -0.27012564       0.27102267      -0.20246074      -0.35403055       0.22359243      -0.52780062
H       14.37949570      15.02439701      -0.19480965      -0.13694715      -0.05862149       0.05405563       0.14686482      -0.85274345      -0.22299075
C       24.70377454      17.40407598      22.28890723       0.25505110      -0.71807184      -0.59192345      -0.16318457      -0.72160685       0.81096148
C       23.58082630      16.85188438      23.14317493       0.07472721      -0.76576538       0.65773703       0.00355777       1.09084034       1.71775293
C       24.02613195      15.63644088      24.00075637      -0.62261951       0.57658807      -0.97720130      -1.53285813       1.41777861      -0.51190609
O       23.85105096      14.56862891      23.05239525      -0.02049231       0.75284556       0.13327264      -0.17368345      -0.49381953      -0.44616127
C       22.89805495      14.95066460      22.17055154       0.83551820      -0.58915450       0.05830242       0.10058686       1.05197716       0.63101673
O       22.34029049      14.27897008      21.36272306       0.73592306       0.32035703       0.66500321       0.03641233      -1.35458171      -0.53401393
O       22.60902712      16.24786558      22.29270065       0.48042348      -0.71451807       0.78603129      -0.19715831       0.01991031      -0.03880626
H       25.47803062      17.83857228      22.90488053      -0.16720696      -0.21871881      -0.25724771       0.07878380       0.17711501       0.20349000
H       24.37121758      18.10064386      21.56087258       0.13487060      -0.00745585       0.11252808      -0.38211444       0.59259498      -0.53509426
H       25.11920562      16.54678635      21.79542693       0.09794798      -0.00122952       0.12873547       0.55490547      -0.44375810      -0.57234353
H       23.08458519      17.64824992      23.77999908      -0.06465398       0.32523810       0.06345850       0.53691119      -1.06212544      -0.86826998
H       23.35299267      15.48377041      24.84683931       0.10895507      -0.25413599       0.11626211       0.18248279      -0.13904725      -0.05193114
H       25.02096516      15.77041272      24.34443170      -0.30688262      -0.18862621      -0.12460724       0.88306886      -0.46918458       0.15176351
C       11.18672448       3.44957377      26.87916934       0.09825605      -0.16207231       0.23920232       0.46202233      -0.35456461       0.10609471
C       12.12029415       4.15731405      27.80629142       1.23834734       0.87072881      -0.45127996       0.24554193       0.76430368       2.18276882
C       13.31038336       4.98870969      27.21099340       0.47976136      -0.10931351       0.39635287      -0.43339583      -0.82444626       0.02790848
O       14.49103940       4.49406552      27.90828144      -0.92209280       0.53612209       0.64298154      -0.76907957      -0.65442431      -0.63257784
C       14.13549624       3.44405956      28.61813169       0.88889002       0.20577160       0.71006495       0.61428332      -0.98216337       0.83175462
O       14.94231785       2.79292862      29.24972687       0.50731786      -0.21600678      -1.27731395       0.64278698      -0.10648586      -0.00010139
O       12.86455603       3.13328517      28.62523440      -0.20543524      -0.06848599      -0.39700369      -0.85353583       1.14633954      -0.97788423
H       10.54064094       2.73365362      27.37467573      -0.30787793      -0.27406232       0.01143743      -0.40016931       0.38328022       0.50951874
H       11.72221904       2.83256984      26.19468710       0.03557414      -0.10948716      -0.11092803       0.71438098      -0.29381990      -0.74600887
H       10.63731605       4.16523978      26.30585640      -0.37993410       0.09292627       0.02981709      -0.63376224       0.41520110      -0.25216714
H       11.55315394       4.78899170      28.58248814      -0.00013721      -0.08653205      -0.17583606       0.81497520      -0.88157785      -1.22553062
H       13.34445215       5.99638398      27.53557139       0.10905337       0.05749804      -0.14772887      -0.70838439       0.99224275      -0.40173686
H       13.38784649       4.86704998      26.12300053       0.03760656      -0.00807843       0.10559270       0.33026445       0.03671563       0.36798915
C       17.21641066      25.37524832      -2.41051561       0.62753187      -0.19974222       0.87807674      -1.31575918      -0.26453850      -0.09971412
C       16.68854338      25.60239343      -3.85816797      -0.14318149       0.00602270       0.37162166       3.01039457       1.71799862       1.11518383
C       17.52272365      26.65078375      -4.75508356      -0.10045508      -0.60407012       0.45892574      -0.72079247       0.43321726       1.09341037
O       16.48527386      27.60632499      -5.13192175       1.01588067       0.02946169       0.26747758       0.43658796      -0.63831043       0.87174523
C       15.35215840      27.32830846      -4.44323021       0.35989852       0.04853835      -1.67386173       0.38013339      -0.46121827      -1.82574308
O       14.36263167      27.96839305      -4.60574750       0.21443496      -0.51210552      -0.08566778      -0.95190543       0.81557250       0.45505112
O       15.40146919      26.17473771      -3.79901618      -0.25464959      -0.85907279       0.14651317      -0.13100469       0.22674537       0.38448817
H       18.20217568      24.95911084      -2.34444830       0.01181250       0.18106675      -0.20373864       0.76152056       0.04088629      -0.50477850
H       16.60882763      24.55937019      -1.94113990       0.05931535      -0.04027162       0.13729048       0.12288023       0.89223236      -0.22531465
H       17.20158825      26.29337978      -1.78729716       0.02525605       0.05000506       0.05506197      -0.23071542      -0.47982201      -0.45571297
H       16.71065749      24.71647933      -4.42812701       0.15216654      -0.04311986      -0.03077983      -0.56302708      -1.31265962      -0.48466942
H       17.91084652      26.17559532      -5.63263721       0.08143381       0.09972609      -0.13784484      -0.13211904      -0.28075495      -0.67533183
H       18.36293185      27.24608528      -4.33477024       0.05232247       0.04867679       0.19689053      -0.67024529      -0.59765244       0.36476576
C       15.11192044      11.72146971       4.37458078      -0.27244430      -1.33608054       0.02390780      -0.58216232       0.35107568      -0.43927068
C       15.13438781      10.39460318       5.09648188       0.77243316       0.20947309      -0.97316640      -0.50796217       0.25316960       0.61069441
C       16.50623572       9.78241865       5.17800278       0.38137099       0.49012074       0.65096374       1.30332696      -0.77638096      -1.07387328
O       16.38549023       8.52203846       4.44640580      -0.00215699      -0.09464571      -0.25410346       0.05982716       0.46735388       0.47287530
C       15.14002108       8.39083130       4.01374121      -0.35116218      -0.06503235       0.18341692      -0.00489830      -0.99561465      -0.80598569
O       14.77261398       7.46353677       3.31948859       0.22368341      -0.00477327      -0.31909520      -0.10755820       0.56090462       0.49895078
O       14.36044382       9.39963904       4.37339383      -0.20300664      -0.73493991       0.26202139      -0.09625360       0.39511088       0.12613317
H       15.91075857      12.37700153       4.72889944      -0.14212157      -0.00544848      -0.04177757       0.13256243      -0.20914397      -0.08681916
H       14.18587903      12.28364255       4.53539100       0.22861054       0.05703913       0.23630182      -0.07262804      -0.27880388       0.06633708
H       15.19669859      11.56790108       3.27679380       0.08793091       0.01863866       0.07775387       0.12375176      -0.01668068       0.74230129
H       14.72986387      10.40820164       6.12692520       0.03841930       0.19203051      -0.07225812      -0.06203585       0.38911724      -0.67658865
H       16.81367068       9.59288253       6.18961679      -0.21305420      -0.10963642      -0.07200991       0.10146204      -0.36918271       0.42117068
H       17.33545700      10.30715425       4.67392156       0.11510446       0.10793335       0.09355494      -0.55482978       0.26362547       0.16794226
C        1.34872140      14.51081771      13.94250110      -0.39186247      -0.40768856      -1.08518816       3.78339291       1.90214658       1.34633911
C        2.46219236      13.96472054      13.08869521      -0.49002957       0.66650154       0.07311721      -0.81919730      -1.24194527      -0.97207266
C        3.85005669      14.09376561      13.74522798      -0.17229898      -0.75511170       0.78021901      -2.03094864       2.12856007      -1.78578138
O        4.60095042      14.55222129      12.62488621       0.02357518       0.53131365       0.07953490       2.34025383       0.04184620       0.60101777
C        3.88419032      15.02441649      11.64727205      -1.48788948       0.18009612       0.64415859      -1.61855221      -0.04096724      -1.42279100
O        4.32068116      15.60272160      10.67444515       0.21338644       0.39201225      -0.45209853      -0.35391730      -0.28977257       0.91027141
O        2.56489887      14.72327372      11.84167690      -0.38971619      -0.60936228      -0.70227818       1.34338379       0.62195814       0.56328464
H        0.41353300      14.54836387      13.56984071      -0.14563644      -0.65694208       0.14675800      -3.24956536      -0.88434064      -1.47195303
H        1.54700509      15.62660289      14.03784990       0.38941151       0.45540051       0.15046232       0.17155348      -1.16639113       0.47701222
H        1.45063028      14.01523108      14.91193439      -0.39339246      -0.06001238       0.13963914      -0.42751065       0.22633956       0.07496933
H        2.27762603      12.94952544      12.69324794      -0.07430818      -0.08470830      -0.34374693       0.07989760       0.12150471       0.62305045
H        4.29898033      13.25366677      14.14254098      -0.13129423      -0.04892891       0.15847208       0.66561598      -1.97573078       0.61502361
H        3.79156078      14.89860892      14.45466684       0.41238322       0.02910237      -0.06229619       0.23515277       0.40341264       0.62473571
C       18.57836786      23.24344577      32.14284180       0.34898738       0.32887473      -0.59426947       0.82277769      -1.39285350      -0.10679824
C       19.04345341      22.19458217      31.10245308       0.36455545       0.37075651       0.17166576      -0.02272635       1.48339045      -0.15930994
C       20.48775051      22.36531383      30.54103640      -0.54401616      -0.77615158      -0.29703760      -1.27600813      -0.07669973       1.14461303
O       20.34530068      22.13906104      29.15385337      -0.22269922      -0.81431259       0.40108328      -0.56510460      -0.20792963      -1.61777425
C       19.03781015      22.15933494      28.78300209      -1.11917034      -0.89047299      -0.25072324      -0.77297986       0.14713550      -0.43977916
O       18.57646138      22.06555884      27.64691012       0.23787302       0.60334125      -0.40350356       1.44049478       0.16882935       2.35144734
O       18.27795749      22.36747129      29.88471710       0.79753953      -0.00064154      -0.35521200      -0.21013419      -0.04182511      -1.06913769
H       19.02557272      22.97621417      33.11899165      -0.05827046       0.19881513      -0.02057914       0.15668166       0.33255342      -0.52912503
H       17.53676665      23.03687797      32.27808012       0.09915494       0.33417892       0.05811201      -0.91043836       0.33522102       0.01370850
H       18.76405123      24.27002462      31.84266909       0.03410934      -0.00412385      -0.18558780       0.08984385       0.07817441      -0.01378378
H       18.69329472      21.23924382      31.44926383      -0.08339771       0.05985645      -0.10654469       0.78079456      -0.76987863       0.32986096
H       21.18526737      21.66740533      30.95588118      -0.07420310       0.02701081       0.10802461       0.39921737      -0.36256817       0.13734114
H       20.80477983      23.38881931      30.72650631       0.09528797      -0.18829702       0.17086830       0.14733389       0.10198204      -0.13438129
C       30.94677053       9.36256128       8.89016350      -0.10704481       0.11952782      -0.81064754       1.89608860      -1.52250004       0.12088929
C       31.12733880       8.14893186       9.83463730       1.11184364      -0.79176909       0.33487998      -0.41873369       1.48280215      -0.42417139
C       32.54088898       7.90185760      10.46838748       0.75139345      -0.64269531       0.48543454      -1.10510075      -0.05694161       1.38971579
O       33.07425367       6.82171701       9.66857779      -0.15172988       0.72840351      -0.73582625      -1.15264630       0.59815288      -0.65439576
C       32.06526459       6.34034939       8.88366854       1.28581909       0.37534850      -0.22528400       1.41360199      -2.20153666      -1.10975707
O       32.24100763       5.35237290       8.17144863      -0.93075357      -0.94471357      -0.46117893      -0.47947600       1.61744976       1.15335011
O       30.92671336       7.01626212       8.95004556      -0.25063542       0.79337935       0.66826044       0.78204572      -0.48380190       0.94182551
H       31.82907915       9.24057712       8.19591593       0.13316863      -0.01086697       0.04516611      -1.16672730       0.72466969       0.16749875
H       31.04748126      10.23329770       9.46867502      -0.08694785      -0.15564957       0.11837949       0.59351724       1.21268499       0.72112375
H       29.97235237       9.43337360       8.42119448       0.04372770       0.03764520      -0.08784729       0.07815498      -0.51825577      -0.31667942
H       30.35777432       8.17633427      10.60151184       0.23254021       0.26842755       0.02804450      -0.08342350      -0.37674570       0.07961521
H       32.41630254       7.50148928      11.52263082       0.04343172       0.31666601       0.19420428       0.06416383       0.34800476      -1.17230439
H       33.17741882       8.81123181      10.55719468      -0.30995466      -0.16166583      -0.12834809      -0.28483963      -0.79741925      -0.74922156
C       32.69004882      24.72382796       1.52074587      -0.38314842       0.54752928      -0.10125008      -0.96184289       0.11664793      -0.38725883
C       34.01463181      24.98464853       0.90834738      -1.63824005      -0.88497234      -0.92387389       1.58747292      -1.84626102      -0.13074446
C       35.15791627      24.13256334       1.52899092       0.30057445       0.48919254       0.91062454      -1.08986211       0.52643973       0.37913576
O       36.25061165      25.09929377       1.50495893       0.50949583       1.91525553       0.55685604       0.39791960      -0.60819227      -0.18003742
C       35.72432810      26.32827198       1.53630288      -0.35093655      -0.31204957       0.48491816       2.53915310       2.10027385      -0.02957582
O       36.39502100      27.38266614       1.69423336      -0.34151788      -0.67991892      -0.04647872      -2.30187225      -3.19072676      -0.32160950
O       34.43466144      26.25152247       1.30866167       1.33947375      -0.35699708      -0.12728404      -0.57607645       3.19111347       0.20485605
H       32.78526505      25.13926029       2.50786930       0.15374416      -0.08803227       0.01160709      -0.28862086       0.15127002       0.62276840
H       32.41707125      23.68243472       1.63627913       0.19134289      -0.10780544       0.01553088       0.25362751      -0.35830200      -0.23003259
H       31.87732187      25.22418737       0.98469314      -0.07283748      -0.00246921       0.25049772       0.23647845      -0.00381349       0.16115153
H       34.17270680      24.93472183      -0.20147034      -0.09982395       0.05618150       0.00317530      -0.65806293      -0.11577833       0.77737683
H       35.18610713      23.24270418       0.89299753      -0.02002866       0.19558042      -0.32969409       1.25177610       0.13926826       0.25260422
H       35.04628032      23.89229431       2.61627918       0.05505798       0.08180078       0.05326809      -0.36404273      -0.05235162      -0.88683820
C        2.90055740      -6.39089261       0.42434798       0.55140623      -0.54288760       0.50962437       1.12183368      -2.63392854      -4.58084059
C        3.06461438      -4.97722736      -0.10322061       0.38279773      -0.80684199       0.09378041       1.94027877      -0.19636458       0.97720277
C        1.96333212      -4.07234122       0.32501114       0.07537542      -0.75950656      -0.02531860      -0.35227126       1.42408121       3.61208749
O        1.68215451      -3.32069040      -0.84352360       1.12575299      -0.22918231       0.09985326      -1.48205388       0.44972858       0.36554092
C        2.22238462      -3.88815724      -1.92547919      -1.34167982       0.53915366       0.04603288       1.51993787       0.22542295       2.93023133
O        2.13757296      -3.44085741      -3.00753766       0.74899215       0.06412462       0.61670165      -0.51871002       0.27785426      -2.34073257
O        3.08923404      -4.82130630      -1.51673669       0.87994124      -0.74412207       0.43376119      -0.19687828      -1.14397550      -1.13420355
H        2.89675758      -6.38758769       1.45392488       0.01390690      -0.12797621      -0.59792019       0.58841509       0.06211105       2.17399287
H        3.80540932      -7.03134860      -0.10426468      -0.39643588       0.08471851       0.11000905      -2.06266522       1.30205262       1.84207988
H        1.96287310      -6.98074151       0.14380478       0.16594543      -0.00209114       0.22399454       1.07642257       1.33294296      -0.06139640
H        4.09961040      -4.64525989       0.21037687      -0.21153806      -0.15673945       0.10658444      -1.09415948      -0.09347657       0.02739255
H        2.25887870      -3.29996306       1.25292234      -0.25488557       0.24368158      -0.14276629      -0.72045732      -2.07144022      -2.67799520
H        1.13316705      -4.75237050       0.71666461      -0.30920320       0.07376202       0.30241786       0.61868811       1.52750361      -0.88736266
C       18.46600742      33.15090837      -4.88822642      -0.71999369      -0.61834113       0.30937926       1.15130985       0.56564254       0.51008236
C       17.39589758      32.40504870      -5.60348970       0.34302867      -0.17014899      -0.54783665      -0.46257770      -1.05093694       0.05040697
C       17.70125261      30.90046626      -5.87966961      -0.17035831       0.07225795       0.00463524       0.76219326       0.08616300       0.41417125
O       17.35546579      30.74308278      -7.28292834      -1.19515350       0.88978139      -0.77631990       0.07036157       0.35036689       0.11472408
C       17.08863880      31.93203311      -7.81483681      -0.04561649      -0.69807764       0.38069454      -0.29810411       0.65978277       0.64581823
O       16.76447484      32.10426098      -8.95578772       0.01073991      -0.41836000       0.74062002       0.01764174      -0.00420918      -0.63072836
O       17.17479207      32.96764745      -6.94417421       0.15236501       0.66244471       0.37381882       0.27562112      -1.57291341       0.14591578
H       19.38662162      33.18418440      -5.58008060       0.34219692      -0.19304903      -0.08286298      -1.26453412       0.33586338       1.30039310
H       18.74750276      32.64889076      -3.90206094       0.09683664       0.03444481       0.06080006      -0.39397818       0.38251653      -1.34556472
H       18.01832339      34.14349535      -4.60570298       0.03949845       0.18306934      -0.04672615       0.95821345      -0.69843775      -0.53692085
H       16.45362686      32.48198449      -5.06910898      -0.20911509       0.12499377       0.23890007      -0.06192555       0.02751928      -0.15016474
H       17.04165725      30.21629921      -5.27284652       0.21938963       0.12082552      -0.12623704       0.84068996       0.65164101      -0.63029957
H       18.81264280      30.63761057      -5.79715788       0.24149125      -0.30550540      -0.18958458      -1.87342548       0.59004486       0.23081549
C       29.17525276       5.48653745      26.17150505       0.18715771       0.45826066      -0.30423808      -0.05018125      -2.25094652      -0.56792665
C       30.18774299       5.68610541      25.03042014      -0.83303073       0.10423164       0.33557634      -1.02592266      -1.67504966      -0.66593874
C       29.76660675       6.73233932      24.05513837       0.47133580      -0.22803616      -0.77655774      -0.20795658       1.29388142      -1.17570531
O       29.00509735       6.00304851      23.04375913       0.64209280      -0.09863102       0.16440862       0.27553901      -0.31308007      -0.42194247
C       29.48774592       4.73642476      22.97245692      -0.31167378       0.03105160      -0.17605461       0.61884356       1.74563527       4.51257133
O       29.26704626       3.88190078      22.21031268      -0.30329447      -0.44519108      -0.88303126      -0.57023263      -0.97864091      -2.11499667
O       30.18258857       4.49597289      24.15038824       1.02075195      -0.58038695       1.05704884       0.03619569       0.21188620      -0.42478621
H       29.44702297       4.58373427      26.86141259      -0.05899663      -0.09494655      -0.07709059      -0.28401732       1.60421824      -1.34164238
H       28.27195328       5.14027750      25.53917568      -0.17284622      -0.10531909       0.09522249       0.66890264       0.98901302       1.68604219
H       29.10109799       6.38302394      26.81672968      -0.13559188      -0.28896360      -0.27778876      -0.35455966      -0.41288903      -0.55023462
H       31.18053864       5.78723640      25.32787767      -0.02447002      -0.11289545       0.06884382       1.67126942       0.25369230       0.67397851
H       30.59301391       7.25766998      23.46345966       0.16211609       0.07595608       0.16707446      -0.97364837      -0.58175033       1.22171271
H       29.07338463       7.41892521      24.56726233      -0.12517777       0.33113997      -0.17629302       0.41650510       0.11728964      -0.71010292
C       16.81475628      26.32621219      23.14487720      -0.65129947       1.23883878      -0.09798620       1.89960623       2.80374336       0.02838692
C       16.71804894      27.83268452      23.41892362      -0.62987322      -0.03678366      -0.43741351      -1.64447725      -1.24456966       0.47980633
C       15.36609583      28.20551647      24.17699557       0.32054798       0.32920188       0.56080956       1.65181947       0.65923405       0.58200920
O       14.58243822      28.95818708      23.21031641      -0.54013270      -0.90577458       0.46152816       1.96714628      -0.93026477      -1.50355840
C       15.39195453      29.09697545      22.10727620       0.54166052       0.09233387       0.32808258      -0.18845645      -0.04835628       0.57817507
O       15.09286546      29.74621555      21.14437326      -0.43202831       0.27674082      -0.90061896      -0.76707751      -0.06712846      -0.38777637
O       16.57777870      28.48386857      22.15065438      -1.28973309      -0.91533850      -0.00840468      -1.39598739       0.42558059       0.78387022
H       15.97914349      25.91496767      22.74550075       0.62260822       0.21779873       0.20839986      -2.99046803      -0.75551015      -1.25357699
H       17.00995481      25.76146509      23.99828184       0.05889056      -0.01292704       0.13002087       0.85031462      -0.78266299       1.35985005
H       17.56269902      26.29893521      22.38368039      -0.05792404       0.06712747       0.08666586       1.04897952      -0.62889266      -0.20240499
H       17.61666140      28.23910173      23.85707270       0.17723175      -0.15799663       0.05815788       0.05440158       0.01642091       0.42320076
H       15.57046100      28.92057412      25.01019724       0.01614549       0.05594453      -0.13849540      -0.36458915      -0.90809417      -0.57922488
H       14.89467330      27.26117644      24.48625080       0.19731011       0.08456099       0.12235395      -0.29593012       0.64090073      -0.12715344
C       17.26041355      18.00421879       9.49098523       0.24388339      -0.87844628      -0.55238568       0.97406346       0.45519152      -0.43126312
C       16.03929362      17.88998044      10.32312656       0.26554696      -0.58441104       0.01187318      -0.56365895       1.18348098      -1.72262728
C       15.89771997      16.58362969      11.03497032       0.28470168       0.09072856      -0.33369220      -0.30530620      -0.03496945       2.13119578
O       14.57047014      16.12176694      10.72787245      -0.39044220      -0.48108575      -1.15409503       0.48962474       0.17310363       0.05352356
C       14.13788677      16.82031407       9.70203309      -0.20859431       0.60162029       0.14661820      -0.90843093       0.30784246      -0.49707425
O       13.07584720      16.55162683       9.18379266      -0.49890446      -0.59890532      -0.01968607      -0.26866519       0.03722283      -0.57600987
O       14.90808088      17.84306002       9.34570799       0.56191664       0.10560640      -0.75936104      -0.14564760      -0.87691301       0.90681881
H       18.11289070      18.06966750      10.19039871      -0.19471587      -0.23218960       0.11333917      -0.14068705      -0.09389109      -0.57152253
H       17.22160343      18.90041690       8.83840974      -0.18387934      -0.14880878      -0.06884179       0.05236966      -0.36599523       0.54995823
H       17.35211303      17.15228611       8.81014268      -0.12278054       0.12612821      -0.12340110       0.16234164      -0.15465316       0.24196580
H       15.90973487      18.84700762      10.83251967       0.01633905       0.07963979      -0.07977454      -0.30248725      -0.58375806       0.67475927
H       15.92822017      16.66650003      12.14024201       0.10843543       0.07595545       0.01841605       0.33059084      -0.07515407      -0.69000340
H       16.58883160      15.85711698      10.66356608       0.05526290      -0.06041211       0.19608474       0.52071172      -0.44404668      -0.06393572
C       23.60707735       7.90042347       1.49431294       0.72096206       0.06187892       0.12343841      -1.40124452       1.71103811      -0.85614771
C       24.52501530       6.98906655       0.70065684       0.49480046       0.53008763      -0.20668990      -1.08284307       0.64269030       0.65519768
C       25.58541102       6.50202382       1.65582610       0.44113055       0.60770552      -0.58228723       2.41957068      -0.31178376       1.06696570
O       26.88896358       6.69910810       0.93925471      -0.73452036      -1.04910041       0.37170562      -2.93758750       0.33214274      -0.55030787
C       26.55888785       7.46974541      -0.14534918       0.40067280       0.05470367      -0.90479540       1.51419878      -0.68639022       1.09301186
O       27.44014680       7.84526799      -0.84926399       0.46858203       0.25460754      -0.07682839       0.21051955       0.76992834      -1.22807264
O       25.26101597       7.73102534      -0.28110041      -0.67644525       0.10650276       0.49403741       0.68463373       0.12555896      -0.02288309
H       22.91452361       8.48780464       0.83798548       0.11686514       0.25721476       0.17128180       0.72270817      -0.49406263      -0.00976779
H       24.07304438       8.70064267       2.12375477      -0.07985520      -0.06328836       0.01450416       0.02868802      -1.17536175      -0.50759524
H       22.88552047       7.34434527       2.08491708      -0.14741979      -0.06850282       0.04497330       0.39732340      -0.42372882       0.37518597
H       23.95320517       6.26676724       0.09417739      -0.09487786       0.13970366      -0.07717415       0.31133851      -0.18099803       0.78317159
H       25.59041724       5.44333441       1.92308078      -0.19318821      -0.02018317       0.14974848      -0.46356282       0.24916637       0.03958188
H       25.70095905       7.14676673       2.57312428       0.07675341       0.14356264      -0.04776393      -0.47958255      -0.75215566      -0.89018035
C       18.19189079       8.56797181       8.31745730      -0.86189578      -0.81060076      -0.07496764      -0.17242722       0.83546591       0.37569839
C       19.54416101       9.21816916       8.29608749      -0.01555243      -0.70517906      -0.43629079      -0.38670543      -0.17830043       0.40184245
C       19.83571317      10.14559472       9.49867836       0.32657245      -0.14850143       1.02327607       1.69863391      -2.05122757      -1.67816341
O       20.64591832      11.17222665       8.88785573       0.41069572      -0.20136330       0.30491315      -0.74286574       0.12392309       0.88861752
C       20.42389084      11.13965198       7.58596538       0.29003809      -0.36784173      -0.09534240       1.62361145       0.66286403      -1.52229917
O       20.97035815      11.86990387       6.79408766      -0.16483846      -0.33346238       0.21637123      -0.42321324       0.07861477       0.35093984
O       19.66197104      10.12073498       7.22281610       0.55573834       0.27547497       0.09295788      -0.70089328       0.88038146      -1.36430871
H       18.18404483       7.96770729       9.20351598       0.13116358       0.11816843       0.04360651      -0.22821386      -0.52324486       0.45594352
H       18.03277983       7.92808019       7.46893760      -0.19160133       0.00631422       0.05968100      -0.12894765      -0.23157935      -0.36633956
H       17.35049643       9.29836969       8.42232582      -0.04639083      -0.00187336      -0.28004013       0.72357506      -0.48142669      -0.14992875
H       20.33162012       8.49359475       8.07004362       0.05140035       0.07023978      -0.01509121      -0.00170139      -0.26652205       0.77171278
H       20.46877088       9.58240600      10.14751339      -0.00492730      -0.19354612      -0.07328601       0.18629695       0.00868799       1.04545426
H       18.94352553      10.47370424       9.93797731       0.09417210       0.05983307       0.04850350      -1.11747646       0.95329040       0.78488880
C       35.49095489      13.11237016       2.42049441       0.18829693       0.62920263      -0.25817445      -0.93969816       0.32027873      -0.75524640
C       35.75122084      13.34960288       3.86019472       0.35173236      -0.13456862       0.38540076      -0.00934511       0.61052257       0.87248647
C       34.62219000      14.01657951       4.63266014       0.39761471       0.08322524       0.17031387      -1.93498230      -0.73074180       0.99075443
O       35.24180882      15.09131470       5.46048608       0.10245727       0.94394546       0.25243257      -0.25335145      -2.10119319      -1.95248842
C       36.43979565      15.24920853       4.89018529      -0.27364869      -0.02825717       0.19543591       1.90290034       2.82455087       1.10848081
O       37.17839977      16.15395940       5.26560705      -0.67445482      -0.51618424      -0.14887169      -0.69435000      -1.31605804      -0.76620018
O       36.75103137      14.41408792       3.89159154      -0.64958616       0.04202205      -0.38747630      -0.36332074      -0.06666228       0.94075096
H       34.97257365      13.93606113       1.88198295       0.08804045      -0.18126258      -0.33451240       0.18331926      -0.20260806       0.71784741
H       34.89191521      12.22459996       2.26288453      -0.02331872      -0.07619122      -0.41488270       0.09271883      -0.43717507      -0.08490893
H       36.45687441      13.04974951       1.97084791       0.15757645      -0.08135382      -0.02176017       0.68437535      -0.61247355      -0.61341977
H       36.10090314      12.42889335       4.41068231      -0.04856066       0.18351949      -0.01190169       0.00358008       1.22648668      -0.74685335
H       34.21247684      13.21529187       5.34902108      -0.04275813       0.23175480      -0.13692987       0.01042660       1.54129982      -0.99376857
H       33.84918480      14.49145181       3.92824185       0.01025000       0.04382918      -0.05714617       0.96095264      -0.66469818       1.26414299
C        9.47561835       4.67780699       8.76823077       0.55090769       0.06716992       0.10056595      -0.15189403       0.63110149       0.98755258
C       10.50722010       4.26371008       7.75604818      -0.48220481      -0.62499937      -0.78490912       0.34480578       1.20895302      -1.11729431
C       10.69477981       5.42894398       6.71712183      -0.66739814      -0.00043688       0.19261732       0.49960944      -0.57263762       0.06083783
O        9.75093939       5.05716695       5.66033266       0.31921977      -1.09635103      -0.60131423       0.74974102       0.29377824       1.05565464
C        9.62000448       3.73650440       5.71975053      -0.66115332       0.28754938      -1.01073111      -0.90273738      -0.35630056      -1.45789540
O        9.05066412       3.13315643       4.83727492       0.70775561      -0.54062868       0.65671793       0.28106740      -0.26782349       0.69501150
O       10.13956198       3.18954226       6.81609864      -0.34693072      -0.08118668       0.23047900      -0.36229289       0.42197675       0.78369540
H        8.55332866       5.05409276       8.28826358       0.02547067       0.00338707       0.18378711       0.25861830      -0.36958537       0.21541759
H        9.88742875       5.57163414       9.34820448       0.03246238      -0.10373483      -0.07069252      -0.41486880      -1.18793488      -0.87764019
H        9.27574172       3.89456401       9.51478408       0.26893528      -0.25059601      -0.05610185      -0.20423166       0.13214000      -0.35250959
H       11.41140468       3.91712258       8.25695379       0.12710158      -0.14099143       0.12199858       0.09833848       0.24326389      -0.27718347
H       11.69063281       5.38393131       6.25593682      -0.25582225       0.01927141       0.11628389      -0.21138577       0.21963145       0.22054818
H       10.44076386       6.43574081       7.06860609       0.15515407      -0.00463635      -0.01132055       0.09665406      -0.44253093       0.00540551
C       34.29456725       2.48571391      16.00083155      -1.16555385       0.46232268      -2.31873477       0.35168064       5.70060682       4.92395306
C       33.34728588       3.68405422      16.33738049       1.94794725       1.50622719      -0.61926181       0.56561661      -0.11714237      -0.20887001
C       32.54046277       4.26961358      15.19015862      -0.18639034       0.42525407      -0.08398087       2.08434868       2.52108455       1.65520537
O       32.57008276       5.74650016      15.49014590       0.73202631      -1.65714931      -0.01259388       0.76429397      -0.90277994       0.96569610
C       33.54085576       5.98932059      16.42173661      -0.26399844      -0.57620640       0.07102625      -0.32623041      -0.50912005      -2.32825041
O       33.85092883       7.11204444      16.73129633      -0.39165274      -0.54418377       0.85474722      -0.38047984      -0.43116727       0.24974003
O       34.18603242       4.88935018      16.76843245       0.45123961       0.56677897       0.84831774      -0.87951553      -1.13443995      -0.21356551
H       34.80436514       2.95102767      15.26225522      -0.08306519       0.43985549       0.05741417       2.29793954       0.34769535      -2.76527452
H       33.83961509       1.62955104      15.77952108       0.05424138      -0.24813935       0.65134626      -1.85215998      -3.41941094      -0.75682151
H       34.90240478       2.55500469      16.96781740      -0.34770977      -0.09926528       0.15808540      -0.47972029      -1.18293405      -1.55738056
H       32.82796204       3.46966620      17.22899641      -0.53176164      -0.03914786       0.52549682      -1.16203630      -0.09567739       0.89180362
H       31.53362484       4.11352931      15.07768606      -0.07930812       0.02956535      -0.21013165      -2.40557337      -1.12000358       0.23083536
H       33.03325499       4.09407990      14.27460829      -0.16845617       0.01853655       0.39954576       0.71231681       0.11394425      -1.24099565
C        7.08737014       7.07504199       6.33923130       0.30345701      -0.26843482       0.49034465       0.54240930      -1.65523076       0.75139290
C        7.61977744       8.29653582       5.70823327      -0.29577453      -0.43135548       0.39343611       0.75890064       0.38219300      -2.40906525
C        7.51743280       8.36263669       4.11765052       0.72343773      -0.29571342      -0.90623773      -0.91183305       0.82865512       0.55952430
O        8.87743206       8.40251581       3.62921274       0.55459818      -0.46945225      -1.28723512      -0.98827636      -0.74552643       0.08404408
C        9.69048139       8.08283377       4.62328759      -0.18647226      -0.11386903       0.01729761       0.06529430       0.99285209      -0.05183855
O       10.86096650       7.87337820       4.43528621      -0.06137002       0.67118576      -1.30710428      -0.06161603      -0.32010627       0.84929085
O        9.06291982       8.19200526       5.80889899       0.45708638      -0.10097856      -0.51955022       1.27191842      -0.14084589       0.47565061
H        6.01573537       7.06009820       6.40402327      -0.06249458      -0.16154490      -0.37899971      -0.53781277       0.05657647      -0.29612088
H        7.42124255       7.06970702       7.40026771      -0.02729264      -0.30233149      -0.17107579      -0.00013488      -0.09424254      -0.50983977
H        7.48049995       6.14100939       5.82903249      -0.03472918      -0.07378668       0.11591047      -0.55702114       1.03558612       0.53727585
H        7.24370154       9.19451704       6.19900078       0.05219660       0.32854692      -0.11952175       0.53630275      -0.00681038      -0.11110759
H        7.04829813       9.28184553       3.72568263       0.00238439       0.01882052       0.15874425       0.05705523      -0.64139193       0.47523046
H        7.00376658       7.47323723       3.74335176       0.10138881      -0.06867886      -0.08225042       0.22419451       0.20357792      -0.03799023
C        4.88445235      -1.65811245      30.95709037      -0.39687185      -0.70345389      -0.42204827       0.76936877       0.60279423       0.83985281
C        5.97683321      -0.65647296      30.57553847       0.14410475      -1.53055869       0.27633409       0.83567941      -0.75085390       0.09240782
C        5.74996867       0.86960955      30.60364185      -1.46122544       1.26884408       0.82960752      -1.41872656       0.28942534      -1.18151689
O        6.47479629       1.26996508      29.40788971       0.34542692      -0.96913068      -0.55356242      -0.90974426       1.39838183       1.33836448
C        6.65655894       0.27589887      28.62572729      -0.54267284       0.19995985       0.38287733       1.43153310      -1.95425832      -2.53173304
O        7.15042281       0.37381356      27.52161677       0.66920951      -0.01674505       0.40569371      -0.33792287      -0.10630748       0.15950176
O        6.33329107      -0.93164073      29.13934595      -0.03796756      -0.26619283       0.51330563      -0.43953827       1.55606425       1.59642911
H        5.31995458      -2.64322743      31.25251722      -0.30111745       0.70985015      -0.20867934      -0.43963632       0.60402936      -0.78795481
H        4.08064925      -1.63905909      30.23344616       0.30653065       0.22873951       0.37280847       0.04249061      -0.46630222      -0.48280954
H        4.39449300      -1.30657288      31.84516034      -0.09586776       0.29402293      -0.07925320      -0.10795517       0.25022626       0.54945719
H        6.93664844      -0.78670267      31.15166852      -0.26420342       0.14785056      -0.53686636      -0.92926109      -0.29823622      -0.49138168
H        6.25540904       1.38972942      31.38823451       0.04759732       0.57678966      -0.10593550       0.11505112      -0.14568339       0.64122134
H        4.68501652       1.27818495      30.52639508       0.44204098      -0.29322231       0.02826710       1.47101915      -1.01455510      -0.10196897
C       25.47428298      11.51834944      14.66828172      -0.52061039       0.16036838      -0.07138768       0.49693015       0.55543435      -1.12083995
C       24.67586555      11.66978488      13.37509028      -0.59097413      -0.66259653      -0.73673660       0.27662793      -1.33488584       0.47844395
C       25.15414251      10.84710294      12.12383874      -0.53138804      -0.18751918       0.93363939      -0.44158822       0.55209249       0.81541181
O       24.89648568      11.79684187      11.04901532      -0.35122279       0.56002655      -0.78622612       0.84402883      -0.72643578       0.96967733
C       24.83219786      13.04813207      11.57568838       0.86601600      -0.16578227       0.67876442      -1.15059292      -1.50667429      -0.90015608
O       24.66382380      13.96321631      10.83448246      -0.25134988      -0.48370254       0.38081205       0.38890281       1.36806083       0.24008207
O       24.78132005      13.02482407      12.90122091      -0.15171525       0.57616327      -0.44378175      -0.11690322       0.53732002       0.05872762
H       26.37430081      12.13757929      14.59415618       0.23806825      -0.16451234      -0.07494552       0.06232576      -0.32010388      -0.02038128
H       25.75022299      10.48042178      14.77901003      -0.17638189       0.24356980       0.11985832       0.13361326      -0.32099098       0.21599148
H       24.92938345      11.86345466      15.52511450       0.18915159       0.11420216       0.07919381      -0.23773025       0.01821805       0.16655891
H       23.63055796      11.39717281      13.64552194       0.07651208      -0.09100656       0.13045672       0.34582728       0.53536922      -0.64194828
H       24.53301493       9.96995872      11.98418871      -0.06145111       0.06776259       0.07881874      -0.06517291       0.11955772      -0.05436005
H       26.20363695      10.51020506      12.14943468       0.15054826      -0.03462496      -0.02074933      -0.16310138       0.52986127      -0.01071576
C       25.78261736       7.25787369      24.41835215       0.43479159       0.85347341       0.91779834      -2.67717791      -0.89387238      -1.14203155
C       25.81914393       7.08687788      22.88031984       1.16298778      -0.47794196      -0.56611488      -0.12747702       1.79460692       0.46241239
C       25.86670258       8.50701463      22.09201190       1.20638360       0.47836075       0.19567486      -0.43832600      -0.50798714       0.94181657
O       24.78846267       8.36233721      21.13527083      -0.33502910      -0.97128313      -0.36079304       0.79648489      -0.05470742       0.61216480
C       24.08304684       7.28615106      21.43741326      -0.68854451       0.00018814      -0.49828401      -2.90616918      -1.24490905      -1.32862496
O       23.05341433       7.01684745      20.80882724       0.68353296       0.94028966      -0.55579433       2.00607967       0.20255230       1.18623197
O       24.56759622       6.52514847      22.43622281      -0.06534718      -0.17031857      -0.59245983      -0.08447410       1.25697267      -0.83580035
H       25.50823108       6.25197593      24.80997194       0.14977090       0.33007034      -0.05969589       0.75917101       0.51308995       0.07239654
H       24.91872531       7.88996406      24.75082454      -0.13184780       0.03386137       0.04199781       0.93271309      -0.15403742      -0.74972421
H       26.68642196       7.67737725      24.75503503       0.14262455       0.11259850      -0.09198296       1.21206129       0.24476276       0.62852734
H       26.55227704       6.36169879      22.60905023       0.03639169      -0.23715638      -0.07131498       0.81757575      -0.10789691      -0.40116841
H       26.74508910       8.89246679      21.52725070       0.05929542       0.05883064      -0.10882801      -0.33402732      -0.87261277       0.71677202
H       25.53531808       9.26026638      22.83127379      -0.09078495      -0.10271065       0.10850314       0.34596401      -0.15653963      -0.46290955
C        4.71193889      14.80091191      22.81590326      -0.05936765      -0.02059619      -0.40372327       1.39251816      -0.45641169      -0.10711855
C        4.98749898      15.37153101      24.17435831      -0.03930474      -0.37996131       0.81825938      -0.59800875      -1.23951864       2.18647003
C        4.78022510      14.37423138      25.39116862       0.09699278       0.95809889       0.11666684      -1.94960105      -0.74737149      -1.32154596
O        3.58699099      14.86778099      26.12258582       0.11952976      -0.61993182      -0.39535387       1.98585081      -0.57533348      -1.03287458
C        3.37384886      16.08514142      25.67689875       0.53601019      -0.09604598       0.85949967      -1.78314817      -0.84181815       0.67104214
O        2.49869927      16.74784506      26.18618800      -1.91065844       1.08582476       0.13263103       0.31171364       1.11639810      -0.38153076
O        4.04199973      16.36005309      24.57508078      -0.11598443       0.39836824       0.25133056      -0.34114084       1.97886145      -0.73527908
H        3.81097740      14.23828434      22.71175704       0.05363883      -0.38188818      -0.22283057      -0.71026105      -0.53328449       0.39666826
H        5.58624473      14.13331297      22.62491091       0.07888200      -0.17176646      -0.15588854      -0.66165453       0.34346080      -0.08315641
H        4.66762607      15.53433370      22.02405915       0.12469538      -0.26593136      -0.12941866       0.24893546       0.52865660      -0.13779318
H        5.97597542      15.79723837      24.24148270      -0.17547756       0.09269391      -0.00175263       0.16623247       0.21472569      -0.10399540
H        5.52446358      14.33432785      26.12044633       0.14345950      -0.11132665       0.01060068       1.58985949       0.01643379       0.71173054
H        4.50702485      13.36951392      25.04769267      -0.36779440       0.17114132      -0.24675356       0.27094394       0.16451822       0.09338219
C       29.20055796      22.93084430      22.61674519       0.51921320       0.07784177      -0.65206793       2.35295105       3.13860869     -10.06652260
C       30.12530118      21.81059012      22.49185909       0.02440035       0.82891484      -0.42625671       1.35267997      -0.43795294      -1.20485377
C       31.44900609      21.68986518      23.24166889      -0.52827477      -0.69337718       0.65264592       1.47379839       1.95340466      -1.43656349
O       32.31052181      21.08477719      22.27226698       0.32143785       0.07694028       0.35494593      -0.29387081      -0.68036222      -1.88102055
C       31.72981469      21.16949953      20.99606300       0.25120004      -0.56740212      -0.24095319       3.69102788      -1.93831062      -0.32555580
O       32.31173568      20.81461373      19.98202912       0.25869792      -0.86975665      -0.50994552      -0.15935305       0.54492313       1.28475404
O       30.53009413      21.54401045      21.01999706       0.31111341      -0.34030034      -0.50879881      -3.17163849       1.44989169       2.66956830
H       29.51241030      23.99378031      22.35363203      -0.17732913      -0.34793990       0.09856300       0.66262770      -1.33198810       0.68761033
H       28.83457645      22.91957971      23.44638520      -0.47016528      -0.16420955      -0.12616530      -3.89906192       0.04360396       9.56182861
H       28.31548936      22.91317387      21.92894706       0.19705215       0.15128675       0.11254078       0.79643834      -0.92805302       0.32786596
H       29.64081585      20.95806652      22.86186163      -0.06465355       0.12346829       0.31742209      -1.26476538      -1.59889567      -0.38588867
H       31.44628032      21.10109201      24.11857547       0.42402117      -0.01495016       0.16615895      -0.43624365      -0.87892890       0.77288383
H       32.01841823      22.59769900      23.44665309       0.24199600       0.02912995      -0.13582857      -0.85911620       0.59619761       0.30657834
C       26.42437260      34.91101143      16.92945449      -0.08729029       0.59343932       0.17483234       1.01349294      -0.29619485      -2.10816145
C       25.43752426      34.00053416      16.25523892      -0.12004502       0.75459266      -0.02940522       0.02071593       0.76450914       0.45126125
C       26.03616330      33.31242491      15.08871470      -0.93444561      -0.60370030      -0.99789665      -0.28971130      -0.14366008      -1.76387334
O       24.86976645      33.10664945      14.17120979      -0.76090093       0.46592007      -0.59989398       0.86898673       1.22067976       1.18663871
C       24.05006053      34.15874037      14.44357032       0.21262890      -0.37778553       0.86097701       0.36178952      -0.86475438       0.69015741
O       23.15943215      34.49449774      13.73813754      -0.09635017      -0.40849636       1.41152235      -0.92982513       0.24494919      -0.88318872
O       24.30957046      34.72162597      15.62594551      -0.43610444      -0.38754038      -0.29256573       0.95041978      -0.46631068       0.72025067
H       26.02581011      35.40300810      17.73565357       0.00425903       0.00847302       0.01122094      -1.21984172       0.97958130       2.20532823
H       26.70542074      35.70113949      16.22321123      -0.26334397      -0.02024815       0.03314224       0.41573107      -0.19709590      -0.06395480
H       27.29916345      34.33331843      17.27196834      -0.01500327      -0.56949223      -0.03957898      -0.23503149       0.20873252      -0.34347332
H       25.12816984      33.32949571      17.05105529       0.37295260       0.17232952       0.21869315      -0.92157984      -0.23929994      -0.41478777
H       26.38768394      32.34011714      15.36052393       0.06420767       0.08230833       0.07241532       0.62816429      -0.47189021      -0.17289747
H       26.76660257      33.95855213      14.52571281       0.04049537       0.00813849      -0.12659435      -0.54639351      -0.80836362       0.68965411
