391
Properties=species:S:1:pos:R:3:momenta:R:3:forces:R:3:charge:R:1:energies:R:1 energy=-273323.9402247203 stress="0.0005921891034097105 0.00012299492396448237 0.0002037335796179835 0.00012299492396448237 -0.00011842464760542647 0.00024277406264574077 0.0002037335796179835 0.00024277406264574077 5.86692912747354e-05" dipole="-0.007049358252394944 -1.3351414967094237 0.5172085420107468" free_energy=-273323.9402247203 pbc="F F F"
La      -0.20899796      -1.69697451      -0.12412494      -2.07649973      -3.76378391      -0.35520292       0.11211893       1.13952155      -0.16951136       1.92373684    -855.97512867
O        1.43362988      -0.10246238       0.78561909       0.91504600      -0.32373798       0.77018917      -0.81469792      -1.25872908       0.43916469      -0.71029907   -2048.31522009
H        2.03236649       0.55355430       0.46753264      -0.17774448       0.00819382       0.18187180       0.34293500       0.87568844      -0.58185345       0.01959643     -16.06688195
O       -1.17075294       0.17698997      -1.22016239       0.14695989      -0.76190565      -0.81925650      -0.94270592      -0.60263188       1.34808422      -0.71424510   -2048.30232821
H       -0.57822390       0.56421487      -1.83789349       0.01699118      -0.06094194      -0.32231429       0.89489258       0.60384044      -1.03473856       0.01780091     -16.09205884
O       -1.22080167      -3.38983699      -1.46672051       1.46621589      -0.38678540       0.00027338      -0.42217782      -0.42314283       0.12722349      -0.69646848   -2048.36760177
H       -1.53246796      -4.25653705      -1.15930544       0.13522947      -0.18203310      -0.11231637       0.07589717       0.10463023       0.35919718       0.01815879     -16.07264127
O        2.40177767      -2.14255789      -7.22531125      -0.56274761      -0.96640900       0.28289631      -0.06971565       0.57964980       1.78036062      -0.03003005   -2048.06216914
H        3.06843461      -2.72224176      -7.54221175      -0.05084604       0.02313691      -0.11932090       0.87088013      -0.70656730      -0.62250022       0.01754400     -16.06091047
H        1.72466275      -2.02709355      -7.86928722       0.03710905       0.02465087       0.13592083      -0.85059655       0.16787709      -0.84204352       0.01805254     -16.07050229
O        3.69524264       6.42430989       4.66880908      -0.68142852      -0.05125305       0.31917393       0.85492264      -0.92201152      -0.79093467      -0.02035273   -2048.12360224
H        3.99375950       7.06912830       5.29220018      -0.09133214      -0.11337726       0.17588052      -0.04961651       0.84610996       0.48532324       0.02031077     -16.04397957
H        2.74730159       6.45187243       4.56179296      -0.19592790       0.04327958       0.15383105      -1.14775231       0.33729596       0.10781487       0.02105159     -16.10002139
O        6.91290241      -4.26693097      -3.75241257       0.18996424       0.00668323      -0.37847477      -0.45975246       0.86864528       0.97144117      -0.04467206   -2048.14801121
H        6.80859809      -3.74541473      -2.90307471       0.07435432       0.25013311      -0.16863170       0.13854399      -0.86327237      -1.14411537       0.01661024     -16.08959659
H        6.75811704      -5.16989902      -3.44581882       0.33732462      -0.09684955      -0.21155380       0.06828125      -0.28242041      -0.05472004       0.01374109     -16.10255397
O       -5.69847491       2.61299469       6.26350546      -0.69243205      -0.88590040      -0.90488859       0.27800364      -0.38149476      -0.37475198      -0.03687369   -2048.11087625
H       -6.17561293       2.94683628       5.49438057       0.25961780      -0.09882840       0.19695951      -0.00347312       0.14605458       0.02363822       0.01829161     -16.05592012
H       -5.29634555       1.77704607       5.93728156       0.22847855       0.13463322      -0.02418406      -0.39142063       0.09755585       0.29602697       0.01664364     -16.11142319
O        4.99820552       1.72952533       0.21507312       0.02066556       0.49259168       0.21779151      -0.88832727      -0.18993924      -0.67946362      -0.05376713   -2048.20369986
H        4.00984615       1.70817643       0.34449342       0.24305001       0.14603448       0.03579247       1.30964841       0.21161792      -0.02715213       0.01807430     -16.08735090
H        5.04992720       2.08117133      -0.70781207       0.24154853      -0.06027140      -0.05111563       0.11177038      -0.10173033       0.72538191       0.01635315     -16.10922157
O        6.54305199      -9.48705891       0.55426877      -0.76742436       0.67427398      -0.77442972       0.70740440       0.00615984      -0.44244396      -0.03241332   -2048.10898041
H        6.78811057      -8.57556817       0.86640775       0.07050157      -0.15034593       0.07413619       0.24985949      -0.42382541      -0.01772140       0.01543697     -16.11195735
H        7.35359098      -9.91971591       0.19581188       0.05845735       0.01616864       0.20788402      -1.00595954       0.62282252       0.52892202       0.01783212     -16.04307647
O        1.63443032      -0.91268210       6.10193743      -1.84322602       0.62774966       0.30327153       0.02033195      -0.11484421       0.75636342      -0.05005168   -2048.22406974
H        1.69372747      -0.08897443       5.55098650      -0.01523020      -0.15826330      -0.11307256      -0.22322315      -0.59603107      -0.23423909       0.01695837     -16.11249173
H        1.73181641      -1.74517876       5.58709277       0.06057279       0.12515448       0.08344072       0.13130408       0.85014897      -0.17242176       0.01550083     -16.12040162
O       -5.46977797       1.81894961      -5.09530163      -0.34732429       0.01919495      -1.16744070      -1.14178791       1.85145426       0.66110626      -0.04694093   -2048.17049971
H       -5.97589985       2.02200518      -4.26162201      -0.01483624      -0.17231431      -0.14865305       0.62854953      -0.66168253      -0.97912878       0.01630052     -16.10171600
H       -4.88807043       1.08512055      -4.91807653       0.19312626       0.07891245       0.07607899       0.40552767      -1.07631929       0.36030538       0.01609727     -16.10582874
O        0.13029237       0.79251531      10.70151263       0.92874527      -0.23190313      -1.16153705      -1.54458866      -0.20810978       0.61760810      -0.03144492   -2048.09619193
H       -0.67407783       0.94527955      11.25817953      -0.01694726       0.10406117       0.21375769       1.09825077      -0.22077527      -0.81715345       0.01762329     -16.03821620
H        0.84087214       1.25927987      11.15316655       0.01314157       0.03371559       0.02059701       0.45446367       0.44781011      -0.06993160       0.01571137     -16.07905180
O        2.93269013       7.82515061       1.83713199      -0.48438640       1.02843004       0.86642726       0.11250277      -1.24619503       0.11857617      -0.03354930   -2048.19174882
H        3.52642496       7.19724242       2.32103272      -0.12106179       0.37547306      -0.04244576      -0.86977994       0.67023445      -0.55708307       0.01873307     -16.06455841
H        2.13371041       7.30564376       1.53814171       0.29835277       0.15930381      -0.07259342       0.52435964       0.61904225       0.38582439       0.01998481     -16.09241253
O        1.09718174       4.80924382       1.75583380      -0.20942303      -0.59657074       0.70411494      -1.13170343       1.08102138      -1.96556670      -0.04425157   -2048.25535351
H        0.91981667       5.27822973       2.56342666      -0.21971211      -0.19807622       0.29498291      -0.09096603       0.44464273       0.90629171       0.01698588     -16.11294948
H        1.57756588       4.03362714       1.97456539       0.27915440       0.16237849      -0.04227225       1.17069512      -1.18493353       0.75808530       0.01872276     -16.07264735
O        4.76204913      -7.68675324      -1.05191094      -0.04560461      -0.08729486       0.20716602      -2.80059272      -0.94978731      -0.76768476      -0.02809976   -2048.15164778
H        3.93990902      -8.28451829      -1.18921375      -0.01076273       0.12152368       0.09262604       1.10384358       1.46816650       0.03952006       0.01763959     -16.06491556
H        5.26760455      -8.29835130      -0.53611584      -0.03142912      -0.31067301      -0.13000557       1.28449002      -0.60712128       0.81474493       0.01612789     -16.06473077
O        6.20832918      -7.22512004      -3.20598731       0.69825901      -0.26772063      -0.77615477       1.22648559       0.10104183      -1.07122044      -0.04111807   -2048.07081047
H        7.00932765      -7.80314221      -3.22015792       0.03832207       0.01934527       0.12703220      -1.36289842       0.63258509       0.23984264       0.01749187     -16.04972154
H        5.56288827      -7.50197857      -2.54010782      -0.00690176       0.10010104      -0.13485878       0.40668794      -0.47644901       0.68666440       0.01244836     -16.09728986
O       -0.13521819       7.09191804      -1.64433577       0.90908089      -0.10201163       0.40081754       0.79301610      -0.98239963      -0.00725543      -0.02159279   -2048.11686014
H       -0.81009070       7.71562454      -1.88769165      -0.08779859       0.11423846      -0.06268130      -0.27702611       0.72270384      -0.68981966       0.02101594     -16.07309986
H        0.68392955       7.17133239      -2.18269641       0.22930377       0.21834951       0.06592812      -0.43370824       0.41628111      -0.30279465       0.02008559     -16.10493263
O       -0.60326277       5.87699937      -5.49388437       1.07846282       0.43106450      -0.85327322      -0.97549790       0.04910291      -1.17786067      -0.03441293   -2048.21122147
H       -0.89967125       6.72976967      -5.11099975      -0.13346313       0.07013554      -0.00305457       0.57361080       0.10382511       0.14404907       0.01680028     -16.09880445
H       -1.06682968       5.90429003      -6.37077752       0.09671244      -0.16756482      -0.00650465       0.64290994      -0.30344320       0.93548925       0.01803204     -16.04985709
O        2.10674076       2.95074776      -6.19260576       0.27454232       0.62084260       0.71505652      -0.48829156      -0.88692024      -0.13411919      -0.03469674   -2048.15013142
H        1.57759465       3.08605051      -6.99581833       0.12021412       0.06310456      -0.15204928       0.31058907      -0.03785339       0.37612546       0.01887135     -16.04934953
H        1.98551593       1.97974023      -5.93739793      -0.30063619      -0.37154876      -0.06360380       0.56327284       1.03423436      -0.07740126       0.01821917     -16.11427399
O       -9.23315824      -3.59277497      -0.37025763       1.79987731       0.75288394       0.22755468      -0.14884032       0.56408230      -0.41037025      -0.03983198   -2048.11324643
H       -9.07472191      -3.10164107       0.44444136      -0.16804366      -0.22902761      -0.14944831       0.13903524      -0.12753913       0.14650105       0.01562395     -16.09968075
H       -8.84649509      -4.47228757      -0.32739705       0.02348434      -0.13664829       0.09462882       0.22511167      -0.24459719       0.12306598       0.01543140     -16.10002151
O       -8.41845124      -1.40653822       1.58613991      -0.55127362      -0.29855384      -0.05039600       1.24942963      -0.67120981      -0.15337077      -0.03410577   -2048.15806301
H       -8.98111010      -0.65008997       1.57075169       0.09017284       0.07577983       0.01615085      -0.64041317       0.81103968       0.00505855       0.01838869     -16.04825702
H       -7.48689243      -1.06081675       1.67846620      -0.08886019       0.02638212       0.18532796      -0.66120051      -0.31219121       0.29969847       0.01782740     -16.11402625
O        5.02222549       3.23997603      -2.25579172       0.69485402       1.70628579       1.12340952       1.07368639       0.28513830       2.68479808      -0.03292574   -2048.07141624
H        5.54402191       4.04018591      -2.01351548      -0.17541952       0.08438097       0.07286168      -0.80005844      -0.69755845      -0.33432407       0.01832023     -16.05940154
H        4.75718437       3.27202290      -3.14107164       0.03644506       0.11381103       0.09372161      -0.41153186       0.31243724      -2.39048919       0.01813552     -16.10289598
O       -3.57516175       4.31684661      -4.81016074      -0.37888097       0.67202647       0.66193217      -1.17556935      -1.01111846       0.38395032      -0.02976893   -2048.14469409
H       -2.79346013       3.93067067      -4.35824570      -0.02614594      -0.08377890      -0.06441819      -0.32719361      -0.25966254      -0.00594363       0.02063801     -16.12080646
H       -4.37043967       3.70970279      -4.63838798      -0.30939485       0.17244507       0.09680443       1.77837045       0.93687218      -0.40997548       0.01987252     -16.07555216
O        6.40700424       1.60708326      -6.20164266       0.03328334      -0.29203348       0.27945849      -1.93014258       1.61748341       0.26109194      -0.03158261   -2048.03656949
H        6.41424007       2.52234555      -5.81855060      -0.00244683       0.03353476       0.14267480      -0.30373268      -1.06667312      -0.49035472       0.01652494     -16.05715528
H        7.23574949       1.23151228      -6.04225291      -0.09544990       0.04174978       0.00548946       2.14257923      -0.80879410       0.32403627       0.01616437     -16.04170596
O       -3.56698823      -7.29537418       1.24367299      -0.56932613       0.40212585      -0.56550639      -2.75228139       0.23253171      -3.35107186      -0.03071098   -2047.98148626
H       -2.89241494      -7.39973636       1.83015888       0.21663161       0.12936185      -0.14391519       2.97968268      -0.59313945       3.20595478       0.01530376     -16.06932667
H       -4.35923761      -6.94511250       1.64059525       0.03061316      -0.13662665      -0.08767651      -0.27309322       0.36651071       0.38404078       0.01921488     -16.07262530
O       -0.54742368      -6.86455645       5.49516943       0.47137377      -0.11499164      -0.57341498      -0.57886800       0.40518213       1.29225564      -0.02598481   -2048.04832054
H       -0.27941191      -6.69410393       6.43226626      -0.03452764       0.15777354       0.17802900      -0.39928845      -0.39342588      -1.11478376       0.01859558     -16.02465607
H       -1.44225107      -6.43031666       5.41771440      -0.23087841      -0.06093527      -0.07548373       0.40284654      -0.43055431       0.45999092       0.01816557     -16.08898744
O        3.42570561       3.99128366       5.84048342       0.38782425       0.51709251       0.58085433       0.08568229      -3.33661258       2.09482337      -0.03177306   -2048.17387664
H        3.18612599       3.53038942       5.04414471      -0.02326888      -0.08767847      -0.08448155      -0.35208011      -0.38325071      -0.98520674       0.02094852     -16.07676833
H        3.50834435       4.86751714       5.61615741       0.07847697      -0.17017011      -0.02427327       0.26104747       3.53577170      -1.04604927       0.01616906     -16.05353405
O        1.25732547      -1.39381545      -2.25358021       1.12563195      -0.73789445      -0.36536344       0.33021881      -0.32404950      -1.24574462      -0.00056378   -2048.29804978
H        0.93926548      -1.34096106      -3.21761363       0.00850241       0.07009731      -0.06399432      -0.51696077      -0.02774155       1.13178454       0.02507039     -16.08637954
H        2.03255542      -1.97111878      -2.37404333      -0.12759019      -0.11045077      -0.13432954       0.15491051      -0.00738817       0.54117935       0.02174446     -16.08712076
O       -3.63773003       1.71520935       1.44262364       0.35264177       1.15377455       0.94638493       0.54944600      -0.55740399      -0.02875472      -0.03376452   -2048.24593658
H       -3.42033530       1.94194043       0.53040700      -0.02453624      -0.08995592       0.11456355       0.03585214       0.30902892      -0.31105442       0.02024300     -16.08686068
H       -4.56231826       1.97862916       1.53264310      -0.04498056       0.27281186      -0.07735151      -0.26839161       0.10342588      -0.03554629       0.01836723     -16.08555697
O       -3.59905969      -3.81731552       3.48823248      -0.37314039      -0.02331011       0.88629485      -1.74485454       0.19294695       0.65732467      -0.02883127   -2048.15377543
H       -3.10223017      -3.02868852       3.80023364      -0.21407337       0.11783385      -0.14449214      -0.74871612       0.05996305      -0.07867938       0.01949300     -16.10080331
H       -4.59253468      -3.63198595       3.61883318       0.05335870       0.17696414      -0.14523747       1.94845095       0.01230175      -0.29818900       0.02130291     -16.07345721
O       -2.15040180       2.88781410       4.04163451       0.20657029       0.92088778      -0.30571537      -1.72217442      -2.31264484      -2.33967057      -0.03835361   -2048.12112162
H       -1.30071568       3.22104018       4.26573882      -0.04221124       0.42424384       0.03908641       1.47622756       0.31865211       0.45693701       0.01862370     -16.06882389
H       -2.08924195       2.21257276       3.28650204      -0.05695906       0.38410610       0.13416991      -0.04109452       1.53996836       1.56221198       0.02282015     -16.07043370
O       -3.54296357      -2.95447686      -2.88147328      -0.27994046      -0.82233029      -0.15345798       1.13730741       0.20542122       1.24716926      -0.05084797   -2048.10691184
H       -3.83111799      -3.38576772      -3.70246449      -0.34578492       0.11168254       0.18896591       0.27496303      -0.41851708       0.23366645       0.01585676     -16.09562532
H       -2.65562310      -3.23787631      -2.47034879       0.11221725      -0.09487641       0.18732528      -0.98933997       0.32845502      -0.97111745       0.01483961     -16.11786781
O        0.37064985      -4.98218535       3.98983256       0.29242610       0.37893209      -0.93880966      -0.16297625       0.92724133      -1.71867501      -0.04459601   -2048.17507926
H       -0.26695439      -5.02443757       3.22086553      -0.15120355      -0.27805985       0.04842405       0.60644777      -0.06897661       1.09148774       0.01724145     -16.08118816
H        0.00038318      -5.51412857       4.69441936      -0.01200244      -0.12673294       0.05959464      -0.17274685      -0.63339893       0.26393947       0.01371457     -16.05774097
O       -6.11983665      -5.14539537       1.33789661      -0.39121250      -0.00666607       1.13095442      -1.34801942      -2.80937110      -0.60555936      -0.04714871   -2048.10986269
H       -5.80678630      -4.35034353       0.92621545       0.23058882      -0.04820816       0.01607774       0.50065016       1.03458763      -0.59012661       0.01512328     -16.12286443
H       -6.48675653      -5.73787405       0.60393750      -0.25951573      -0.06098117       0.06402701       0.72428994       1.39919216       1.26499875       0.01764487     -16.07446844
O        6.47029296       2.18449451       3.12370401      -1.03952040       0.34777199      -0.07864585      -0.01554341      -0.47352276      -0.38017310      -0.02116831   -2048.20217785
H        6.43516026       2.67077988       3.93665246       0.22480889      -0.17685661       0.15324413       0.20913242       0.38888563       1.60694302       0.01806778     -16.07872611
H        6.18915192       2.84077305       2.49805350       0.20819376       0.07201439       0.19719599      -0.21933058       0.52158102      -1.12338789       0.02205505     -16.05517936
O       -1.72706683       0.69567546      -5.83062118       0.07947628       0.01047314      -0.82403580      -0.47468695       0.15705107      -0.07170066      -0.03426588   -2048.20341034
H       -2.07864483       1.19884634      -6.58891369      -0.09068354       0.00960854      -0.10538525      -0.06665119       0.08708295       0.38608421       0.01833442     -16.06171805
H       -2.54382691       0.28435228      -5.45984756       0.24474102       0.23319487      -0.21786377       0.32191293       0.08670109       0.00873107       0.01938410     -16.10276335
O        4.60852974      -3.09786723      -5.30007992      -0.39008034      -0.67305814      -0.48251984       1.69647587      -1.67920658       1.22948275      -0.04069807   -2048.04578432
H        5.27567453      -3.73072956      -4.83493466      -0.22354954      -0.09346028       0.01861650      -0.90457908       1.19224545      -1.30503367       0.01653960     -16.08187441
H        4.34772015      -2.61289157      -4.51817522      -0.19286340       0.09023840       0.07088173      -0.71085702       0.38525052       0.24467059       0.01984337     -16.03023885
O       -6.89879618      -2.51450862      -1.78737018      -0.86107524      -0.13902538       0.62004058       0.27126625       0.15034209      -0.75521529      -0.03501491   -2048.19103644
H       -7.73692822      -2.64334207      -1.31732064       0.21321192       0.28839267      -0.10467303      -0.42255557      -0.17196071      -0.26096189       0.01671849     -16.10543433
H       -7.06901554      -2.09872535      -2.67369597       0.16916003       0.09431690       0.03471675      -0.01692753      -0.22827853       1.19343304       0.01781144     -16.11378823
O       -4.09709755      -0.06184818      -9.25198680       0.22168737      -0.72318251       0.36100574       1.52179525      -0.25826122      -0.90959680      -0.03849651   -2048.10150842
H       -3.23999679      -0.05857433      -9.76657688       0.03676526      -0.20446575      -0.04065587      -1.43337319      -0.30082593       0.80281571       0.01877820     -16.03390923
H       -3.96500255       0.68829241      -8.65303739       0.01083086      -0.03726918       0.05411590      -0.20855894       0.45540894       0.19045439       0.01396658     -16.10347650
O       -1.90320290       0.38503187       6.13755385      -0.55466316       0.41096782      -1.03625082       0.38522929       0.17494321       1.12261092      -0.03186806   -2048.15700576
H       -1.36708980       0.38185261       7.00177096      -0.08351394       0.17578728      -0.04895163      -0.55953006       0.26088255      -1.71920363       0.01784783     -16.07756848
H       -1.76738885       1.25123002       5.71574246       0.02517243      -0.08160368      -0.08131183       0.10631963      -0.01606650       0.21787080       0.02102391     -16.08241874
O       -0.71855558       8.55379797      -4.80612457       0.61778332      -0.40020174       1.42755040       1.50085369      -1.25228782      -2.06798195      -0.03706634   -2048.09554831
H        0.12549617       8.96940463      -4.59641688       0.05106902      -0.16409356       0.06299507       0.02229239       0.35271638       0.19952915       0.01650761     -16.11011407
H       -1.36000975       8.80936533      -4.19623693      -0.02237113      -0.19109488      -0.14323608      -1.67769654       1.03784931       2.03029229       0.01420729     -16.09549686
O        6.02914910      -1.11117922       0.45683067      -0.13118237       0.96643670      -0.62095125       0.21695604       0.02535913      -0.20977803      -0.03799050   -2048.27092640
H        6.57812676      -0.82629725       1.21357425      -0.10549354      -0.09572187       0.04494952      -0.03881645      -0.49339079       0.29358744       0.01637743     -16.09103011
H        5.90960240      -0.26266466       0.00756342      -0.03022198      -0.16783244      -0.26540493      -0.40708158       0.18997247      -0.23394376       0.02041521     -16.07023926
O        2.73204473       2.48901922       8.18020633      -0.56488791      -0.43561230      -0.05358827       0.29872896       0.31723550       0.03870609      -0.03654307   -2048.17474127
H        3.11688665       3.09513676       7.51775487      -0.05706656       0.01211459      -0.16067511      -0.37144995      -0.19764080       0.05957298       0.01676802     -16.10928087
H        1.87193592       2.23216309       7.83432967       0.09510381      -0.08905554       0.03841302      -0.24085905      -0.19762384      -0.30908623       0.01837667     -16.08202842
O       -4.57522201      -4.42864381      -4.77493107      -0.76977521       0.86288496      -0.05838012      -0.00573659      -0.23278984       0.71860647      -0.02429742   -2048.17600660
H       -3.80231089      -5.00221501      -4.84525390       0.05541805       0.13675328      -0.14809640       0.66000122      -0.41196601      -0.24565068       0.01925954     -16.08370308
H       -4.72765394      -4.07619477      -5.63991703      -0.35954193       0.26874701       0.37156204      -0.38819459       0.21565883      -1.22898623       0.01950717     -16.06835632
O       -1.65145182      -4.59464941       1.90731071       0.02697396      -0.57157014      -1.20295516      -2.14021725      -1.96858737      -0.18351295      -0.02509643   -2048.18995914
H       -1.77141151      -5.46446289       1.40843003      -0.13330091      -0.13087874      -0.16610332       1.16759347       1.45212624       0.27715418       0.02010205     -16.06260059
H       -2.57638915      -4.60454115       2.33422920       0.00034111       0.25613023      -0.02188350       1.47473354       0.86097698      -0.21430946       0.01990487     -16.05352768
O        0.75321527       6.00722503       4.34133599      -0.57116318       1.04704282      -0.28198760       2.44869750      -0.31551617      -1.31355691      -0.02940047   -2048.21046482
H        0.40829238       5.34300302       4.89591703      -0.18975224       0.35101252      -0.09975050      -0.60679100      -2.02928937       1.39226040       0.01920534     -16.08016429
H        0.12974753       6.68288576       4.41537624      -0.29447450       0.11438399      -0.04856690      -1.77834352       2.40377090       0.04727573       0.01833068     -16.07766596
O       -4.73301236      -0.02663716       5.52453658       0.23790492       0.12814642       0.49312200       1.41221251      -0.05519455       0.27969946      -0.04192632   -2048.09649771
H       -5.12940339      -0.89820167       5.35158948       0.07801178       0.07325577      -0.07332826       0.27559266       0.16015596       0.22727734       0.01500845     -16.12406353
H       -3.76455249      -0.12784725       5.79754114       0.04869451       0.13841862      -0.17731402      -1.77357734       0.01251211      -0.45846526       0.01562251     -16.11256842
O        0.44603304      -6.47269355      -6.16619754      -0.88128102       0.00402846       0.11157278       1.07615411      -0.26630255       0.02371997      -0.04360241   -2048.05750015
H        1.09317660      -7.16660384      -6.41842183       0.00843890      -0.25007246      -0.11251995      -0.67633889       0.74662200       0.25163866       0.01461692     -16.04534351
H        0.98890833      -5.73025531      -5.78626191      -0.19536525       0.10608326      -0.10763890      -0.54447968      -0.53575843      -0.46088079       0.01421196     -16.12156427
O       -0.04174136       1.26563309       2.58685180      -0.90427308       0.56403388      -1.00509584       0.19776014      -0.31632941       0.02824055      -0.05338684   -2048.32440618
H        0.44787691       0.73837352       1.88498930      -0.12152404       0.06026723      -0.06084583       0.15777309       0.03097600       0.23544674       0.01494316     -16.10604382
H       -0.36199667       2.02247578       2.07890323       0.12951808      -0.14788341      -0.23307674       0.06285047       0.20527529      -0.18210670       0.02013003     -16.06946473
O        3.93675885      -5.09308354       0.49672539      -0.36938121       0.48762936      -0.37513374      -0.56890203       0.81709518      -1.82001460      -0.03902716   -2048.17199307
H        4.00759482      -5.88423724      -0.03843697       0.06014300      -0.02336537      -0.23891857       0.05671513      -0.50921854      -0.12820634       0.01597586     -16.09825279
H        4.41864642      -5.24455153       1.28984018      -0.11637081       0.10497216      -0.14710145       0.82104185      -0.47315948       1.48660700       0.01441746     -16.09206748
O        3.48880536      -5.67577176      -3.47801894      -1.19958029       0.66510326       0.42301682       0.60647274       0.67930052      -0.67523973      -0.02431737   -2048.21197022
H        4.34581174      -6.09503060      -3.56301564       0.17089490      -0.11194181       0.07502213       0.59691962      -0.06237850      -0.29080559       0.01831329     -16.07428180
H        3.04270208      -6.19648496      -2.83146072      -0.23345456       0.13944974      -0.08850483      -1.07497786      -0.72372586       1.11174932       0.01778952     -16.07186122
O        4.03838299       8.08671436      -0.84747626       0.13216340      -0.02485871      -0.35022723       0.37493288       1.16382120       1.33078922      -0.02890054   -2048.11990903
H        4.63732361       8.86666911      -0.72795492       0.14312846       0.15693666       0.06920804      -0.73777882      -1.00876415      -0.32464622       0.01781840     -16.03197654
H        3.60904726       8.01391987       0.05933192      -0.27562589       0.16154664      -0.37289328       0.34187961      -0.01659385      -0.95154845       0.01822822     -16.11066536
O        0.27825949       7.60865672       0.85007623       0.21480406      -0.47620843      -0.43407744       0.07155129       0.28121696       1.12713246      -0.04779515   -2048.20014693
H        0.35731522       7.46866010      -0.11182878      -0.24844406      -0.02763561       0.27990612      -0.49354497       0.23308890       0.11697738       0.01432884     -16.08446954
H       -0.15000789       8.47107811       1.04188797      -0.06056863      -0.02255126       0.06681349       0.31327565      -0.47205155      -0.36564553       0.01570581     -16.11305454
O        3.36075241      -3.30732073      -1.91789506      -0.90073981      -0.48184223      -0.03753735       0.84194741      -0.98903749      -0.97125331      -0.02299258   -2048.22479300
H        4.30674538      -3.03887096      -1.90809101      -0.03741411       0.18870286       0.08116812      -0.69523211       0.07529687       0.20372070       0.02186951     -16.03998438
H        3.42201211      -4.18161744      -2.41922516      -0.12697966      -0.08125242      -0.06657731      -0.31836241       1.09189065       0.48477124       0.01899628     -16.10891422
O       -4.05559336      -0.49389483      -5.00583364       1.28121070       0.71030704      -0.85758049       0.00698519      -0.10723599       0.97250508      -0.03018072   -2048.27524983
H       -4.18731491      -0.95906946      -4.16024568      -0.11575797       0.12649495      -0.35703553       0.29614232       0.30674109       0.04658977       0.02249625     -16.08583686
H       -4.24117655      -1.15922571      -5.68913037      -0.11014283      -0.06044199       0.22976502      -0.24950768      -0.16657515      -0.54895597       0.01690558     -16.07908062
O       -3.70839726       1.94007158      -7.47345926      -0.33508270      -0.30236773      -0.63890314       0.82085325       2.94524622      -0.19295816      -0.02587893   -2048.10339520
H       -3.37775131       2.88880146      -7.73030188      -0.09002404      -0.16638854      -0.05658566      -0.85605919      -2.17830617       0.43091323       0.01952718     -16.05898221
H       -4.31381086       2.15266866      -6.73590296       0.03705646       0.31133137      -0.11097820      -0.03148255      -0.30869137      -0.14909576       0.01804309     -16.09195405
O       -0.36272932      -0.84685237      -7.50647484       0.74529816      -0.27768278       0.44884161      -0.04893806       2.49890247       0.27101516      -0.06281221   -2048.09088891
H       -0.94647410      -0.31144909      -6.85686194      -0.24335954       0.05318124      -0.07540800       1.19260391      -1.14760087      -0.97640537       0.01383466     -16.10764536
H       -0.67656096      -1.72478079      -7.45556334       0.02469357       0.26791789       0.08191065      -0.70822197      -1.60389053       0.33018300       0.01494354     -16.08771960
O       -1.46848853       8.17951577       4.65403971      -0.70570469       0.08738964       0.24572862      -1.48910009      -1.06781176      -0.53679090      -0.03527318   -2048.13759283
H       -1.51239573       8.47253506       5.56076454      -0.10004199       0.10175629       0.12760906       0.25523110       0.34294164       0.46220931       0.01713030     -16.04448602
H       -2.33163238       7.64021543       4.57405864       0.24806324       0.03999602       0.12595395       1.23722530       0.56821513      -0.22108180       0.01688951     -16.09896802
O        7.07789836      -6.93748117       1.32105500       0.25247218      -1.03565922      -0.42717638      -0.25551921       0.51253046      -0.45088456      -0.02875721   -2048.13549456
H        6.59852771      -6.56732535       2.08339115      -0.01459629      -0.19933171       0.03284392       0.00608382       0.00159548      -0.05926947       0.01740910     -16.08705769
H        6.86766290      -6.30245086       0.60712639       0.03859611       0.08879774      -0.14024401       0.23624283      -0.39335102       0.39665254       0.02013020     -16.05102299
O       -3.36784132       6.60439612      -3.15087734       0.02671014       1.01934955       1.12070055      -0.20024483       0.50944487      -0.43076535      -0.03396746   -2048.14641854
H       -3.14715403       6.00168851      -2.44062801      -0.19700209      -0.11417869       0.10865274       0.19444788      -0.34155267       0.23474917       0.01865871     -16.07904989
H       -3.43584874       6.07190741      -3.95447027      -0.11105902      -0.23236591       0.17907975      -0.11266287      -0.34811219       0.11866898       0.01720096     -16.09124614
O        2.42627028       7.26952543      -3.11734307       0.32941910       0.13698717       0.83048253      -0.00008587       0.34921501       0.05304215      -0.03970699   -2048.28025166
H        2.70930728       6.53128055      -3.69604344       0.12207280      -0.03191025      -0.38925270      -0.39982909       0.15968792      -0.04900628       0.01650910     -16.08105602
H        3.13173609       7.45438503      -2.48153107       0.03958855       0.01999568       0.06626822      -0.06167941      -0.02778188       0.24622694       0.01521851     -16.11185851
O        2.45256817       2.56323251      -0.05495662       0.22502253       0.02057260      -0.28453604      -1.25979032      -0.69592513       0.65145808      -0.03121459   -2048.18761338
H        2.50133156       3.07072626      -0.85721263       0.11570533      -0.18662250      -0.02275845       0.35551520       0.87846278      -0.54294192       0.02127114     -16.03530578
H        1.49803891       2.64415304       0.20000242       0.06702144      -0.02058275      -0.14414300       0.52618087      -0.10425317      -0.17880856       0.02203310     -16.09059331
O        4.81779075       3.66927203      -5.36499581      -0.29484305      -0.34729624      -1.32134253      -1.03105915      -0.03398023      -0.45506693      -0.03241788   -2048.13169073
H        4.90148007       4.61974304      -5.45454288       0.23104272       0.01921168       0.02774817       0.11551451       0.36124544       0.07890905       0.01713885     -16.04760223
H        3.96903251       3.49803114      -5.86231179       0.29030898       0.24364790      -0.07145389       0.81867336      -0.26910650       0.51999840       0.01737751     -16.09421228
O        1.80161388      10.06469361      -4.14085170       0.05658866      -0.62319280      -0.51396847      -0.74326490       0.66851734      -0.89417062      -0.03400306   -2048.01534917
H        1.85519402      10.63485538      -3.37302275      -0.13725977      -0.23348651      -0.03847161       0.20390021      -0.34530466       0.24087354       0.01749801     -16.05724684
H        2.22321624       9.22348138      -3.99447899       0.31278079       0.13434480      -0.17864029       0.49554234      -0.64030931       0.72732969       0.01653876     -16.10194132
O        1.08022969       1.75327549      -2.75792865      -0.27447717      -0.39375956      -0.88127976       0.01415848      -0.56046834      -1.02369362      -0.03078837   -2048.22099619
H        1.58271053       1.80952833      -1.95174836       0.06992235      -0.19897061      -0.11816548       0.20510844      -0.06938376       0.80323700       0.02048513     -16.06359651
H        1.55894699       1.06741541      -3.27790264       0.11436398       0.16204929       0.09707748      -0.39918614       0.52136714       0.00896976       0.02067974     -16.08682397
O       -5.99114754       3.40831391       1.22195454      -0.37956983       0.59098565      -1.03799615      -0.89379573      -1.66937460      -2.65100033      -0.04138699   -2048.13056925
H       -5.76611919       3.68315219       2.07341909      -0.12978548       0.15080366       0.08859052       0.50838982       1.48346067       2.15210161       0.01783584     -16.08256899
H       -5.61392798       3.96097074       0.50873522      -0.09146575      -0.33585056      -0.19060764       0.20206605       0.07141555       0.37220408       0.01745350     -16.10100780
O       -3.16949689       4.98242260      -7.46648495      -0.49313444       0.13356581      -0.01534052       0.03061924       0.01145704      -0.12543938      -0.04073342   -2048.12015285
H       -3.92823609       5.57584809      -7.60911850       0.17151559       0.26844820      -0.18551716       0.47115891      -0.44432587       0.28764250       0.01669942     -16.05149716
H       -3.14104965       4.75179162      -6.51241830      -0.06838735      -0.04484476       0.34559763      -0.49994801       0.24298811      -0.13308983       0.01541251     -16.11772525
O        1.72740459      -4.26180231      -5.05694403       0.10920423       0.13915697      -0.14387586      -1.25899493       0.57190394      -0.44679312      -0.02383261   -2048.24769694
H        1.90053097      -3.47483991      -5.59236946       0.03255712      -0.03007171      -0.11749237      -0.17594106       0.29499364      -0.28370014       0.02190070     -16.09389228
H        2.57541492      -4.61340614      -4.86154582      -0.00370491       0.13878609      -0.15523054       1.51108924      -0.57043675       0.56758619       0.01736303     -16.06301153
O        5.84404326      -0.80469715       5.69234620       0.40448712      -0.05218537       0.02854500      -0.15033356       0.25837074      -1.41158490      -0.03259307   -2048.13253303
H        5.02820936      -0.31348108       5.49589149       0.16670650       0.34135707      -0.06675486       0.29602797      -0.03088751       0.02773082       0.02046850     -16.06250647
H        5.73537888      -1.02450310       6.59890034       0.09356297       0.15145705      -0.02538957      -0.22540994      -0.17572345       1.57049745       0.01711275     -16.05686038
O       -7.90173117      -1.05943579      -4.07805431       0.40764071      -0.57551193       0.09567850      -0.51131721      -0.92818680       0.14922030      -0.02048043   -2048.11643041
H       -7.67573998      -0.14835269      -4.19855629      -0.09091300       0.04369093      -0.11508848       0.38549614       1.12795863      -0.08140643       0.01908408     -16.06283256
H       -8.83678717      -1.05836187      -3.82598908      -0.04907114      -0.10590160       0.26629917       0.18891874      -0.02523374      -0.08065663       0.02016123     -16.03691424
O       -2.22744403       5.62125472       1.84956491       0.55224274      -0.15225451      -0.31307309       0.43726399      -0.29993894      -0.04927217      -0.03466458   -2048.12973948
H       -1.49342507       6.26717722       1.86852795      -0.05020100       0.14930788      -0.00451154      -0.11388786      -0.54666629      -0.35027310       0.01930937     -16.08614993
H       -1.85642805       4.75772764       1.55581940       0.15624692      -0.18947453      -0.07943277      -0.18471929       0.97761257       0.36311063       0.02188368     -16.07746776
O       -5.03695758       4.31659883      -1.18431704      -0.31984144      -0.35353968      -0.79827443      -0.47683298       0.03890785      -0.06023342      -0.03873007   -2048.15940268
H       -4.12304254       4.60789945      -1.19445893      -0.15817049      -0.20113268      -0.09417374       0.56069775       0.06795982       0.18641589       0.01835231     -16.08750891
H       -4.97753034       3.42117060      -1.53152401       0.07787289      -0.06303998       0.03549589      -0.00881075      -0.07428156       0.06014647       0.01914169     -16.05593788
O       -1.94172700       4.79799562      -1.19347898      -0.60994713       0.36888176       1.14744367      -0.98147923       0.05206664       1.07741645      -0.03541898   -2048.29552383
H       -1.39659671       5.57409579      -1.14557802       0.24936210       0.09665319       0.10675126       0.61799403       1.07229481       0.30799269       0.01875786     -16.07835495
H       -1.55859045       4.34192011      -1.92739049      -0.06751385      -0.00121990      -0.01139005       0.27041725      -1.03883066      -1.57096479       0.01943655     -16.08340446
O        2.87884850      -7.81919694       3.12957212      -0.57768408      -0.04936281      -0.56788701      -0.26373527       0.07086733      -0.08468884      -0.03236295   -2048.18298080
H        3.01626825      -8.64286355       2.61380485      -0.33083459      -0.12670085      -0.16469531       0.44480996       0.17394338      -0.15159577       0.01573457     -16.09435169
H        2.00657125      -7.91504958       3.52049131      -0.04592582       0.14446316       0.09639670      -0.04974382      -0.08922721       0.43119999       0.01853322     -16.03586561
O       -1.61965793      -6.39262109      -0.33043090       0.07104492       0.87200019      -0.66376790       0.28281432       2.27634226       0.59066658      -0.03091608   -2048.09459011
H       -2.43037887      -6.75719918       0.00509062       0.01404039       0.05722689       0.12167398      -1.08606811      -0.73319706       0.11471773       0.01637647     -16.06685950
H       -1.18922956      -7.00329130      -0.87924446       0.03726282      -0.18606042       0.06285504       0.75478753      -1.38597253      -1.06215946       0.01807938     -16.05846398
O       -8.03786987      -3.39553010      -5.63059785       0.39795880      -0.36829250       0.51770708      -0.80264135      -1.07115018      -1.60665469      -0.03279140   -2048.12172234
H       -7.69585636      -3.69264517      -4.80329064      -0.32905830       0.11895676      -0.12469531       0.53903757      -0.52289547       1.37345585       0.01727210     -16.08357512
H       -7.90938964      -2.46755172      -5.69180498       0.31141928      -0.01878574       0.10816040       0.15968860       1.40148106       0.28722057       0.01874584     -16.05404846
O       -5.08511342      -2.81490966       0.35561734       0.01153823       0.72290709       0.16209718       0.62275819       0.03731056       1.48677054      -0.02870307   -2048.17368550
H       -4.14913260      -2.91975951       0.13819376      -0.21925178      -0.03007907      -0.33867047      -0.29010781       0.03220191      -0.37575047       0.02347887     -16.05953054
H       -5.63067839      -2.68992815      -0.41387589      -0.00817237       0.16155423       0.00459568      -0.20081327       0.22698251      -1.54901886       0.01925600     -16.11178306
O        1.26643401      -6.28400921       1.40080756      -0.35195976       0.97488325      -0.16251143      -0.00812232       0.16045662       0.41003032      -0.03197643   -2048.17835559
H        1.89702454      -6.66688562       2.06944331       0.01257803      -0.29751021      -0.13155090      -0.15768637       0.72491459      -0.82584273       0.01718468     -16.09895106
H        1.30609028      -5.30031199       1.40966560       0.13921987       0.02881132       0.01113098       0.36137567      -0.68277120       0.16551310       0.02095745     -16.08825243
O       -6.15820623       4.96419706       3.50595420       0.10238989      -0.96976380       0.69961407      -2.66581995      -1.25114754      -0.65801975      -0.03061327   -2048.02960351
H       -5.51126091       5.56332313       3.81052689      -0.06242595       0.07860157       0.16522469       1.31798968       1.55031727       0.72823182       0.01654612     -16.10366948
H       -7.05004697       5.39057362       3.43345466      -0.14170869       0.21640540      -0.01245190       1.59490067      -0.34248706       0.20089493       0.01765482     -16.04228024
O        2.26390604       5.55233159      -5.08185533      -0.21020337       0.17630037       1.00972909       1.27232299       0.29085406       0.34176496      -0.03727041   -2048.16496811
H        1.40637177       5.77416115      -5.41659594       0.02246192       0.02314867      -0.10428376      -1.26028484       0.41894525      -0.32865864       0.01739387     -16.08843885
H        2.26894659       4.60055584      -5.06777456       0.04746212      -0.20345930       0.21304227      -0.04387425      -0.90234265      -0.14018336       0.01849544     -16.07507323
O       -5.82439650      -0.78174963       2.16440336       0.09863619       1.10024929       0.62921493      -0.04043262       0.11356092      -0.88238482      -0.03637933   -2048.04799041
H       -5.37975042      -1.21340914       1.37994887       0.12316030      -0.01301858       0.09105661      -0.00478289       0.08264407       1.70216538       0.01929611     -16.09635538
H       -5.32601103      -0.81323608       3.00004811       0.00351774      -0.13972081       0.03544598       0.08655726      -0.22578305      -0.82510836       0.01967074     -16.08848813
O        1.67961462       1.37931136       4.77949581      -0.21108345       0.85921651      -0.50077275      -1.81152250       0.40342868      -1.49490068      -0.04433665   -2048.20454803
H        1.09609345       1.40761858       3.91702781      -0.06862870       0.11324972       0.27676211       0.65893866      -0.15002203       1.59851240       0.02181287     -16.11026377
H        2.55815316       1.28549217       4.40506610      -0.09427657      -0.26165087      -0.21401463       0.84126426      -0.04239525      -0.13966538       0.01710988     -16.07697927
O        1.83680031      -3.38119264       0.53212865       0.87976991      -0.33599607      -0.02227736       0.94220079      -0.23206236      -0.52690428      -0.00490567   -2048.27668894
H        2.51891371      -3.25681315       1.25092262       0.11387780       0.05876206      -0.08985791      -0.85202263       0.16078248      -1.12574737       0.02377728     -16.05806486
H        2.38174815      -3.61323594      -0.29015315      -0.13098767      -0.14877487       0.39810958      -0.50600125       0.32541759       1.39299017       0.02327167     -16.10082771
O        3.07817206       3.45560151       2.88007900      -0.78211330      -0.61741780       1.11655435      -0.67183625      -1.30002573       0.73545383      -0.04451254   -2048.23854599
H        3.19952235       2.46567261       2.90484633       0.17602466      -0.25044588      -0.02872305       0.15894798       1.04422334      -0.27122078       0.01826435     -16.07689000
H        3.84925892       3.81081698       2.43897919      -0.17814083       0.06771158       0.10369060       0.59726064       0.15234529      -0.35898282       0.01772807     -16.06917416
O        2.06015017      -2.87528773       4.21652179      -0.19732454       0.67004046       1.06726814       1.47073155       0.61847780      -0.38436512      -0.03160110   -2048.22325097
H        3.01792987      -3.09235695       4.02029471       0.25967148       0.00497754      -0.04464774      -1.15632510       0.44694553       0.42269316       0.01807910     -16.10789663
H        1.58272319      -3.68144545       4.40361054      -0.05896530       0.06350465       0.15048392      -0.38996952      -0.96427643      -0.17736541       0.01554369     -16.09103251
O        6.09076588       3.15320434       5.75466502      -0.02701821      -0.90898131       1.06613028      -1.46273328       0.70692062       0.81042065      -0.03834111   -2048.09768286
H        6.28287607       2.71034854       6.59007175      -0.13446647      -0.30269168      -0.00366370       0.29382280      -0.17720350      -0.22298124       0.01787846     -16.04698643
H        5.19059242       3.56989602       5.96636714       0.13691828       0.22246775      -0.04436925       1.19989254      -0.66796749      -0.75415911       0.01491555     -16.09403672
O       -0.05095430      -1.33611256      -4.54991894      -1.22356089      -1.23962490       1.59471348      -0.53289252      -1.58314095      -0.09004998      -0.02548673   -2048.13922382
H       -0.48552981      -0.48896218      -4.51738797      -0.06694254      -0.09349914       0.08251473      -0.44655957       0.59440756      -0.19238498       0.02296483     -16.06741272
H       -0.76068938      -2.00720496      -4.79058497       0.02873446      -0.26188191       0.13117662       1.06255002       1.02893603       0.10681325       0.02207869     -16.08860181
O        3.52900904      -1.38487146       1.83249694       0.94097461       0.03090120       0.07804441       0.79951605      -0.27350107       0.05556027      -0.04930226   -2048.33905442
H        4.27549283      -1.33667291       1.20870034      -0.18808627       0.14042706       0.24985831       0.50745693      -0.09393047       0.15804276       0.01867219     -16.09059237
H        2.82393952      -0.94414814       1.31522483      -0.11884673      -0.27135478       0.02318607      -1.08693728       0.25063453       0.18644221       0.01468255     -16.08081780
O       -4.28669108      -2.00362036      -7.14489068      -0.33097763       0.42080194      -0.22865353      -0.52671727       0.90303339      -1.00384007      -0.02604128   -2048.20007063
H       -4.99338677      -2.57742352      -7.49828379       0.07550171      -0.19270669      -0.22977237       0.17351011      -0.17267552       0.28300558       0.01686963     -16.08362375
H       -4.28471468      -1.22862783      -7.78525197       0.00449223       0.09150626      -0.02358236       0.34072313      -0.96465408       0.38298464       0.01903527     -16.09389982
O       -0.12429359      -2.37603261       2.42915728       0.46395688       0.20353449       0.25355459      -0.86442544      -0.42894771       0.32736839       0.00270442   -2048.26984383
H       -0.57860351      -3.26199809       2.56713899      -0.05333817      -0.31817544       0.00336384       1.06653632       1.07308305      -0.22551738       0.02269543     -16.07273996
H        0.68821164      -2.26743006       2.97006477       0.06408489      -0.13950101      -0.02498722      -0.16791518      -0.60113348      -0.02858986       0.02492961     -16.09983227
O       -1.09300060       3.52370734      -3.57001600      -0.37007373      -0.97153333      -0.01787688       0.60429302      -0.74018351       0.51685109      -0.03257175   -2048.23703625
H       -0.45372926       2.81175790      -3.30252137      -0.20177235      -0.08102981      -0.11681477      -0.63901928       0.36594953      -0.18835698       0.02145814     -16.11370622
H       -0.59283886       4.02135147      -4.21782611       0.21659287      -0.13918349      -0.11253976       0.17827913       0.59699442      -0.42992701       0.01886485     -16.07657954
O        2.19086938      -8.99340783      -1.05135182       0.84239264       0.39006102      -0.64336387      -0.17432563      -0.42416588      -0.28856708      -0.02544944   -2048.18156760
H        1.64559756      -9.52346370      -1.65469934      -0.09870738       0.10397895      -0.01981550       0.38164282       0.02945382       0.27012076       0.01930401     -16.03363960
H        1.76437024      -8.12076093      -1.07022865      -0.05764563       0.10508583       0.11530191      -0.01968382       0.44265953      -0.07762657       0.01807441     -16.08555504
O        7.05028150      -0.37034745       2.86129112      -0.15927701       0.27057644       1.48536584      -0.07010573       1.17006176      -0.36198450      -0.04100210   -2048.13028366
H        7.42578945      -0.58491271       3.71180102       0.19904999      -0.06920289       0.27203675       0.09968674      -0.27165844       0.39521798       0.01660449     -16.05962051
H        7.00401999       0.63452743       2.86451754       0.01646533       0.13340218      -0.11342862      -0.04242801      -1.13111178       0.04576701       0.01681574     -16.08910582
O       -6.12905315      -4.15783263      -7.30939051       0.39936815      -0.41249689      -0.85268154      -0.16815569       1.18690745       0.79261916      -0.03815633   -2048.11401994
H       -6.93692402      -4.00248101      -6.72816024       0.19393476       0.32891435      -0.00588679       0.55239776      -0.28636682      -0.56431486       0.01516653     -16.09882315
H       -6.15853988      -5.01515753      -7.70193090      -0.09465310      -0.13402731      -0.11140498      -0.21812017      -0.79769386      -0.32172725       0.01659537     -16.05191928
O        1.60523327      -6.28094450      -1.34610187      -0.48367674      -0.19350609       0.44555284       0.00348814      -0.14348773      -1.62369342      -0.04139054   -2048.25437096
H        1.50418811      -6.24355713      -0.40023793       0.06794447       0.05552014      -0.16958990      -0.26442416       0.35145879       1.28913997       0.01656305     -16.10526217
H        0.89695360      -5.75901794      -1.79067070      -0.04399945       0.15202070       0.08856955       0.17366590      -0.30616753       0.15373210       0.01900830     -16.11139371
O       -3.57733924       6.29630590       4.22262246      -0.60902273      -0.46935149       0.87175986       1.92380512      -2.26946998       0.61479855      -0.04340131   -2048.12321438
H       -3.18181170       5.59933312       4.88617298       0.11611940      -0.11658689       0.06298292      -1.44358577       1.45391374      -1.11535945       0.01947543     -16.07530083
H       -3.14662178       5.92803845       3.38722149       0.02970702       0.06828989       0.32804990      -0.60280256       0.62938239       0.56881936       0.01860608     -16.11098066
O       -3.27248931       3.98969372       6.11443824      -0.26189519      -0.32810729      -0.12834608       0.43560331       0.50018597       0.63854895      -0.04730410   -2048.26753261
H       -4.14182567       3.66264420       6.32409924       0.04022846      -0.10627632       0.24182881      -1.47970749       0.17266980       0.67347691       0.01547792     -16.06244192
H       -3.05959808       3.29348691       5.49331964       0.04342270      -0.10940664      -0.13770693       0.98665095      -0.16378913      -0.90887854       0.01731329     -16.02826248
O       -7.98439100      -6.15090689      -1.29253394      -0.19959144       0.12687040      -0.11188474      -0.65125543      -0.48267342      -0.37984606      -0.03407547   -2048.09266248
H       -8.63555835      -6.89189802      -1.29645422       0.12764048      -0.09462395      -0.31650943       0.82500317       0.95588560      -0.23955721       0.01672742     -16.04519488
H       -7.82477069      -5.86179152      -2.23198174       0.02203845       0.20790336       0.21585112      -0.06867032      -0.43558725       0.81784522       0.01573939     -16.10245280
O        3.81047824      -9.66766468       1.34249306       0.09445558      -0.21936462       0.38072697      -0.92618925       0.06695077      -0.50164489      -0.04023386   -2048.08762357
H        4.75873621      -9.70573584       1.13776870       0.01373073      -0.13320520       0.06053551      -0.16980694      -0.13183091      -0.24002386       0.01416779     -16.11926221
H        3.26487461      -9.57762742       0.51901564      -0.07055747       0.15192105      -0.18620819       0.85114698      -0.16168181       0.81482955       0.01525511     -16.11323765
O        4.82069491       5.42548689      -0.37966761       0.02997311      -0.19923896      -0.58132889       0.46797503      -2.43596536       1.03111047      -0.04761697   -2048.18727953
H        4.75027995       6.27716400      -0.73590824       0.04762879      -0.08800262      -0.12945360      -0.40630940       2.21630511      -0.83333250       0.01366702     -16.08386802
H        3.97651661       4.98179753      -0.57392973       0.10148503       0.16552058      -0.09164041       0.14754534       0.33002923      -0.00191727       0.01874134     -16.09664322
O       -2.30905522      -1.54344484       4.34029076      -0.59905045      -0.95583015      -0.26599997       0.56986357      -0.68906089      -1.20362672      -0.03579354   -2048.17586915
H       -1.99074493      -0.76151967       4.80613186       0.10682523       0.13911245      -0.05980450      -0.03216980       0.48413310       0.88488840       0.01857307     -16.07691449
H       -1.51420751      -1.81022070       3.84209396      -0.11666136      -0.03140173       0.22553684       0.06816857      -0.07832858       0.21519270       0.01954020     -16.05257860
O       -3.15816573       2.10481631      -1.70299447       1.48680923       0.83095854      -0.33788742      -0.67429908      -0.22164794       0.04408608      -0.04399636   -2048.21231633
H       -3.93582124       1.78466565      -2.18099796      -0.06267804       0.04119028      -0.06822586      -0.06638812       0.04555680      -0.11019398       0.01818833     -16.03480710
H       -2.71689447       1.24581849      -1.56140777       0.19533422       0.01241613      -0.05424482       0.91166602      -0.28144507       0.04384365       0.01722937     -16.09046548
O       -4.39688694      -0.72147014      -1.88275963      -0.28649834       0.32941749      -0.20359458       0.16436844      -0.18468494       0.10246063      -0.05188853   -2048.14707059
H       -3.96780259      -1.61616458      -1.98303413       0.03118972       0.03256791       0.07496667      -0.44413741       0.66310886      -0.38667684       0.01683173     -16.08818848
H       -4.37996700      -0.52746570      -0.94274059      -0.08294449       0.09918817      -0.15282070      -0.00363321       0.10539173       0.09345461       0.01873428     -16.05785502
O        6.14227332      -3.72135870      -1.14813361       0.53262230      -0.18925436      -0.02199529       1.25500071       1.21071322      -0.19046392      -0.03320487   -2048.16232858
H        5.35883412      -4.08963578      -0.78438650      -0.15306771      -0.00316485       0.01727417      -1.35886636      -0.96497832       0.92101655       0.01741439     -16.06823190
H        6.31145012      -2.94271595      -0.58047823      -0.36777501      -0.18286486       0.30887243       0.04224324      -0.01601501      -0.12357991       0.02040545     -16.08943194
O       -1.76801934      -3.02508750      -6.23851327       0.40696828      -0.76052015       0.13534546       2.94874733       0.19323011      -0.14754413      -0.03689231   -2048.15110816
H       -1.79532250      -3.92198660      -5.93178969      -0.19497365      -0.07624947      -0.12327086      -0.38639823      -1.07549895       0.40482007       0.01641593     -16.10442604
H       -2.60570277      -2.64386528      -6.20462472      -0.04736650      -0.42496128      -0.36076267      -2.50169453       0.73562215      -0.16928710       0.01698277     -16.08216696
O        3.95957198       0.98352661       3.35626582       0.21801792      -0.36753778       0.12919806      -1.08253079      -1.28278523       0.11455107      -0.02768405   -2048.26582282
H        3.90840000       0.07155808       2.96366819      -0.06558439       0.06017115      -0.10685570       0.11432144       0.66743360      -0.05845524       0.02070767     -16.10790200
H        4.86865366       1.26816387       3.41983634      -0.16588573       0.03293201       0.25011737       1.04391502       0.14178868      -0.23588460       0.01841466     -16.08802728
O       -2.11046786      -5.68130015      -5.09706120       0.37457062       0.68711212       0.83832313       0.35365872       0.27444272       0.40894114      -0.03699635   -2048.19624568
H       -1.38777655      -5.52132123      -4.41070624      -0.08434176      -0.10379360      -0.13170385      -0.56505521      -0.31134710      -0.70079156       0.01751151     -16.12242253
H       -1.73157046      -6.21117105      -5.81508287       0.23974154       0.18557932       0.10357948       0.26205975       0.09746824       0.43141836       0.01723628     -16.06666828
O       -2.98879902      -5.43903828       5.67153511       0.50256995      -0.25613365       0.51220384      -0.03136036       0.57092017      -0.75309927      -0.03561129   -2048.10352199
H       -3.21949413      -5.00862475       6.49426053      -0.06999439       0.16868125      -0.13145036       0.04199323       0.00562860       0.35397874       0.01716840     -16.04318854
H       -3.16634074      -4.74639298       4.97548184      -0.12769229       0.20258730       0.09402636       0.07373010      -0.77604110       0.26679351       0.01492723     -16.10930168
O       -0.27682252       3.53695457       5.80302040       0.44126231       0.32498518      -0.72689126       0.86466973       0.19269906      -1.38754283      -0.04736735   -2048.23417043
H        0.43928270       2.90616900       5.61755349       0.23732143      -0.00661265       0.17371640      -0.01766585       0.08297904       0.35051428       0.01855917     -16.10436606
H       -0.51319052       3.52470181       6.74934649       0.20698809       0.03212494      -0.23033824       0.05714631      -0.05525552       0.31972673       0.01479045     -16.07828166
O        2.30247606       0.42434330      -5.23631927       0.34429922       0.18390556       0.39829325       1.12436201      -1.49842834      -0.30311297      -0.03334734   -2048.10540270
H        1.75771627      -0.12981335      -5.85029526      -0.06849625       0.07649935       0.14135353       0.69334913       0.14227881       0.73193183       0.02021202     -16.08182848
H        3.23251179      -0.04102371      -5.11636956       0.09051900      -0.08135957       0.05300762      -2.13795267       1.30563147      -0.26616942       0.01884301     -16.09781391
O       -1.07931748       9.93474048       2.05189663       0.28958827       0.06521064       0.40791219      -0.44129204       0.70517738      -0.29269705      -0.03089520   -2048.04273510
H       -1.24163245       9.49970857       2.90560756      -0.05164311       0.06248505       0.23509283      -0.28974612       0.21344372       0.01052152       0.01770815     -16.11494805
H       -1.76623905      10.62624476       1.88646046      -0.33377649       0.17249189       0.13938587       0.82760330      -1.12735163       0.49065106       0.01732729     -16.04599068
O        0.22710938       0.76751587       7.82472242      -1.35083365       0.02371403      -0.96125452       0.04862641      -0.39980886      -0.02816599      -0.02905925   -2048.26199078
H        0.64380257      -0.02722332       7.42660099      -0.10157111       0.16144166      -0.02716761       0.02247954       0.24227943      -0.34819431       0.01764456     -16.07617148
H        0.26142100       0.59652701       8.77444300       0.23366399       0.13914257       0.32235932      -0.07445874       0.14599663       0.64429735       0.01662667     -16.09703311
O       -8.23480123      -3.73600558       3.21835872       0.64163810       0.39357056       1.25736583      -0.03857080      -0.36140179       0.82974720      -0.04065166   -2048.11051768
H       -8.10872092      -4.53546745       2.69378602      -0.12479222       0.25835431       0.20377386       0.29407344       0.29814000      -0.12375863       0.01737624     -16.07353937
H       -8.36312111      -2.98755014       2.63107018      -0.37199215       0.24701831      -0.33142190      -0.08229307       0.33922440      -0.45902930       0.01454640     -16.11597616
O        2.05065871       5.22320241      -0.93712400      -0.27929658      -0.50288704      -1.21866954      -1.69527292      -0.13568181       1.26315685      -0.04201335   -2048.05210636
H        1.33476041       5.33347066      -1.61314592       0.30203608       0.00250392      -0.15728796       0.88732528      -0.17990273       1.11764955       0.02001552     -16.05993898
H        1.61186614       5.16395282       0.00741772       0.08004974       0.24449159       0.07984325       0.69336346       0.15562178      -2.09660571       0.01976674     -16.12647946
O       -8.31370456       2.67965833      -0.29682496      -0.64452771       0.45101286       0.23302542      -0.19115254      -1.27173210      -0.97000845      -0.03747579   -2048.10617698
H       -7.55032682       2.70612819       0.27074935       0.09535412      -0.15820478       0.06385473       0.92761347       0.20337093       0.80760461       0.01664885     -16.10162705
H       -8.76625107       3.48623252      -0.12707117       0.06859868       0.09297991      -0.12629372      -0.54944363       1.00613164       0.11922298       0.01616701     -16.04463365
O       -6.04709520      -2.69887898       4.83709054       0.29372069      -0.91053526       0.69686416      -0.23864646      -0.10162385      -0.29952438      -0.02841016   -2048.16225212
H       -5.83658864      -3.38951488       5.47179528       0.25441304       0.27074028       0.04962607      -0.19644461      -0.02586802       0.13432559       0.01763613     -16.04387829
H       -6.93111824      -2.93891873       4.46465602       0.04587572      -0.05009214       0.12269000       0.54589363      -0.06195416      -0.02049205       0.01756668     -16.10519909
O       -1.00673915      -7.53685721       2.53411312       0.05593532       1.20246778       0.55310931       0.24857318      -0.23270600       1.23228000      -0.04154917   -2048.17653806
H       -0.24539031      -6.99287265       2.29117683       0.06248054       0.30999559       0.02284943       0.19378984       0.23960863      -0.94264226       0.01498111     -16.08553600
H       -0.78252269      -7.69023648       3.47348080      -0.15067879      -0.00543282       0.14850010      -0.59448229      -0.18428714      -0.34166589       0.01568893     -16.06341029
O        4.87010580      -0.11711274      -4.33865338      -0.06214560       0.32387730      -0.27446814       1.13202647      -0.00503459      -1.26706705      -0.03152727   -2048.08987151
H        5.26201484      -0.97120562      -4.64797937      -0.04316441       0.04748960      -0.06549453      -0.28244976       1.02578819       0.16963094       0.01835239     -16.04210941
H        5.37207061       0.57695837      -4.88305972      -0.27207344       0.05927374      -0.07315758      -0.77278838      -1.03063743       0.70197417       0.01702397     -16.10490040
O       -2.68833559       9.09106917      -2.72900497      -0.49720026       0.44590914       0.50292984       0.27387476      -1.87328062      -0.11017481      -0.04031848   -2048.11379699
H       -3.22963795       9.78968537      -3.02414974      -0.11023011      -0.07780709       0.22432255      -0.83533430       1.61076414      -0.36587532       0.01500832     -16.03499926
H       -3.20004942       8.27810872      -3.01772834      -0.16644882      -0.26791909      -0.03966507       0.81287154       0.38398391       0.60157679       0.01553305     -16.06829691
O        5.06389817      -5.59992539       2.83608019       1.67967448       0.53131389      -0.61725731       1.23558608       1.62895479      -0.11377706      -0.02194702   -2048.14351143
H        4.54303907      -6.28011591       3.20342807      -0.21655673      -0.05980097      -0.20879897      -1.31926851      -1.45752098       0.81246974       0.01876014     -16.07397586
H        4.98538496      -4.81030318       3.41430258       0.17355721      -0.11272959      -0.00556482       0.22064170      -0.17909326      -0.22913222       0.01930775     -16.09675140
O       -0.20075047      -4.97138371      -3.24027057      -0.84107284       0.24118956       0.20033096      -0.11877445      -0.97660964       0.12466228      -0.05274264   -2048.33149227
H       -0.55963925      -4.25928162      -2.66396637       0.06649995      -0.05695551      -0.15499163      -0.06098344       0.57144135       0.22103399       0.01286142     -16.07273729
H        0.49324000      -4.59944722      -3.79196367      -0.21138678       0.38559477       0.04754380       0.40217207       0.37844509      -0.37696705       0.01826821     -16.10302204
O       -6.85211314      -4.96566977      -3.57637522       1.20623897       0.08377871      -0.67859950      -1.22792157       0.62408540       1.25323118      -0.03522670   -2048.21047123
H       -6.46512112      -4.34287172      -2.92835511       0.30587484      -0.13689005       0.02159006      -0.23357284      -0.10714701      -0.17929060       0.02093044     -16.06221761
H       -6.09865818      -5.26828723      -4.06130764       0.23341674       0.04050114       0.27818008       1.01890508      -0.23195259      -0.70666977       0.01782162     -16.05480318
O       -6.87512215       1.46241488      -2.59279731       1.01824555      -1.10038238      -0.40276929      -0.64159327      -0.74378672       1.14851249      -0.03316741   -2048.17712693
H       -6.90818335       0.56299919      -2.17796260      -0.09949389       0.14123786      -0.19811693       0.45435855       0.87629325      -0.60759510       0.02041457     -16.05660389
H       -7.45049872       1.97129941      -1.97351385      -0.11668822      -0.12291587       0.03828857       0.27372623       0.01343068      -0.36290561       0.01671831     -16.10243176
O       -2.34871145      -0.91806345       1.35325770       0.53316411      -1.59071986       1.00838219      -0.44739553       1.18165321       0.51076896      -0.00234237   -2048.24286067
H       -2.85634996      -0.03852946       1.23539595      -0.15034030       0.14413450      -0.03550120       0.92305531      -1.40064461       0.47916513       0.02478124     -16.10821292
H       -2.13489170      -0.97096688       2.32320412       0.07090221       0.07846128       0.26168393      -0.56272640       0.28836723      -1.17032306       0.02181197     -16.07201594
O        5.37980434       5.03092543       2.61716194       0.73945937       0.13784006      -0.18856119      -0.57282840       0.12090994       0.80941787      -0.03622429   -2048.12784527
H        5.23506119       5.60187080       1.85289446      -0.20608612       0.20561483       0.19386159       0.00644404      -0.14151562      -0.35620778       0.01768282     -16.07702968
H        4.79339693       5.36218672       3.34069546       0.10608238       0.00455720      -0.22612359       0.68720468      -0.06478111      -0.61938796       0.01651409     -16.10051569
O        2.18123721       2.64842328      10.84641316       1.79707834      -1.80554523      -0.68811167       0.36168820       0.16799575       0.41471831      -0.04044937   -2048.08873911
H        3.04851073       2.90829175      11.21014195      -0.09543232      -0.02875736       0.05520771      -0.68056475      -0.20255280      -0.47138566       0.01647486     -16.04620256
H        2.22405306       2.77111305       9.87303797       0.18245779       0.21403212       0.01339925       0.43608995      -0.00982357       0.33716805       0.01553745     -16.10430083
O        4.97328314      -2.90231871       3.99809906      -0.26983512      -0.51391306       0.44232885      -0.73460136      -1.53535494      -0.62196890      -0.03298179   -2048.23627159
H        4.98080352      -2.22983940       3.32344318      -0.01720326      -0.16318403       0.03642504       0.01871343       0.55295420      -0.59199846       0.02030477     -16.07532856
H        5.37733948      -2.50524683       4.75617454       0.03145369       0.13696432      -0.05112886       0.52489980       0.76891518       0.95495335       0.01710525     -16.07908932
O        1.97249485       9.69134711       4.02610650      -0.10423228      -0.15065904       0.53799902       0.37071899      -0.58702688       0.41077232      -0.04567652   -2048.03468308
H        2.12894303       8.97767796       3.38394974       0.08186141      -0.14437370       0.04214263      -0.07656515       0.44501239      -0.13302682       0.01480380     -16.11794690
H        1.42655739      10.34752481       3.60152571       0.13577530      -0.52975154      -0.41023085      -0.26216286       0.09563213      -0.39452015       0.01625315     -16.06489426
O       -0.43523757       2.70099462       0.21896279      -0.69212685       0.35784981       0.53240403       0.35935910      -1.15010475       0.37636396      -0.03380356   -2048.30999285
H       -0.87193401       3.43053821      -0.17948005       0.02069308      -0.09936577      -0.20701521      -0.66437132       1.78676030      -0.45169297       0.01919296     -16.07541623
H       -0.87938883       1.96797859      -0.24290894       0.03240811      -0.17077179      -0.24698103       0.29128799      -0.86826977       0.00048747       0.01913988     -16.07896859
O       -1.15782065       3.47991850       8.19509501       0.51688589      -0.22010685       0.04825564      -0.27999383       3.45727751      -0.11663569      -0.02366411   -2047.98688141
H       -1.08417604       2.58754308       8.36406579      -0.37170026       0.06148736       0.22018021      -0.06941535      -3.16240609       0.65196597       0.01846975     -16.05337279
H       -2.06403255       3.71479235       7.93322916       0.07040166       0.19898407       0.09374402       0.06509097      -0.37739198      -0.12236523       0.02048649     -16.05948907
O        3.82280726      -0.37681992       7.95493029       0.28691265      -0.14805576      -1.61491482      -1.36942373      -0.68543276      -1.13511625      -0.04860041   -2048.07232541
H        2.97305627      -0.53413933       7.41641717       0.14342224      -0.05210893       0.05987354       1.55192970       0.17998165       0.80510226       0.01423965     -16.12192234
H        3.56954021       0.25952891       8.62508685       0.10983898       0.06537100      -0.10180197      -0.03657343       0.35092461       0.03324868       0.01592052     -16.07687824
